
 stresses (elem, integ.pnt.,sxx,syy,szz,sxy,sxz,syz) for set EALL and time  0.1000000E+01

       191   1  1.860384E+10  2.172741E+08  9.690018E+08  2.425026E+07 -1.295603E+09 -1.988576E+06
       191   2  1.863735E+10  1.757682E+08  9.677610E+08  8.190898E+07 -1.298916E+09 -3.914855E+06
       191   3  1.869337E+10  1.436175E+08  9.755824E+08  1.326981E+08 -1.303336E+09 -5.847594E+06
       191   4  1.687848E+10  1.165145E+08  8.469033E+08  7.615543E+06 -1.319304E+09  2.932633E+05
       191   5  1.688037E+10  8.584260E+07  8.400704E+08  4.496694E+07 -1.320971E+09 -2.516481E+05
       191   6  1.690492E+10  6.472791E+07  8.427662E+08  7.543530E+07 -1.323743E+09 -8.023596E+05
       191   7  1.518016E+10  7.298263E+07  7.578031E+08  7.159970E+06 -1.343004E+09  5.395694E+05
       191   8  1.515011E+10  5.286428E+07  7.446594E+08  2.422741E+07 -1.343025E+09  1.374359E+06
       191   9  1.514288E+10  4.250595E+07  7.415110E+08  3.439846E+07 -1.344150E+09  2.203973E+06
       191  10  1.860384E+10  2.172741E+08  9.690018E+08  2.425026E+07 -1.754152E-04 -8.965051E-05
       191  11  1.863735E+10  1.757682E+08  9.677610E+08  8.190898E+07 -1.676437E-04 -2.275957E-05
       191  12  1.869337E+10  1.436175E+08  9.755824E+08  1.326981E+08 -8.854029E-05  4.357625E-05
       191  13  1.687848E+10  1.165145E+08  8.469033E+08  7.615543E+06 -8.703162E-05 -5.828671E-05
       191  14  1.688037E+10  8.584260E+07  8.400704E+08  4.496694E+07 -4.820905E-06 -5.051515E-05
       191  15  1.690492E+10  6.472791E+07  8.427662E+08  7.543530E+07 -5.171156E-05 -4.884981E-05
       191  16  1.518016E+10  7.298263E+07  7.578031E+08  7.159970E+06  1.809664E-04  3.719247E-05
       191  17  1.515011E+10  5.286428E+07  7.446594E+08  2.422741E+07  3.441691E-05 -2.609024E-05
       191  18  1.514288E+10  4.250595E+07  7.415110E+08  3.439846E+07  9.284240E-05 -7.674417E-05
       191  19  1.860384E+10  2.172741E+08  9.690018E+08  2.425026E+07  1.295603E+09  1.988576E+06
       191  20  1.863735E+10  1.757682E+08  9.677610E+08  8.190898E+07  1.298916E+09  3.914855E+06
       191  21  1.869337E+10  1.436175E+08  9.755824E+08  1.326981E+08  1.303336E+09  5.847594E+06
       191  22  1.687848E+10  1.165145E+08  8.469033E+08  7.615543E+06  1.319304E+09 -2.932633E+05
       191  23  1.688037E+10  8.584260E+07  8.400704E+08  4.496694E+07  1.320971E+09  2.516481E+05
       191  24  1.690492E+10  6.472791E+07  8.427662E+08  7.543530E+07  1.323743E+09  8.023596E+05
       191  25  1.518016E+10  7.298263E+07  7.578031E+08  7.159970E+06  1.343004E+09 -5.395694E+05
       191  26  1.515011E+10  5.286428E+07  7.446594E+08  2.422741E+07  1.343025E+09 -1.374359E+06
       191  27  1.514288E+10  4.250595E+07  7.415110E+08  3.439846E+07  1.344150E+09 -2.203973E+06
       192   1  1.868752E+10  3.751854E+07  9.420807E+08  1.233717E+08 -1.306554E+09 -7.125462E+06
       192   2  1.871920E+10  4.517290E+07  9.544504E+08  7.826811E+07 -1.311314E+09 -3.433064E+06
       192   3  1.870165E+10  3.203294E+07  9.467882E+08  3.177170E+07 -1.314265E+09  2.696453E+05
       192   4  1.691008E+10  2.673693E+07  8.338023E+08  7.320557E+07 -1.326060E+09 -1.097035E+06
       192   5  1.691185E+10  2.633502E+07  8.359279E+08  4.413668E+07 -1.329369E+09  3.567303E+05
       192   6  1.686404E+10  4.796319E+06  8.172191E+08  1.368254E+07 -1.330870E+09  1.819944E+06
       192   7  1.513919E+10  2.648041E+07  7.369870E+08  3.501424E+07 -1.345566E+09  3.139434E+06
       192   8  1.511081E+10  1.776311E+07  7.282453E+08  2.199361E+07 -1.347425E+09  2.353879E+06
       192   9  1.503249E+10 -1.243307E+07  6.978673E+08  7.595502E+06 -1.347475E+09  1.576886E+06
       192  10  1.868752E+10  3.751854E+07  9.420807E+08  1.233717E+08 -1.776357E-05 -4.996004E-06
       192  11  1.871920E+10  4.517290E+07  9.544504E+08  7.826811E+07  3.108624E-05 -1.360023E-05
       192  12  1.870165E+10  3.203294E+07  9.467882E+08  3.177170E+07  1.107447E-04 -2.109424E-05
       192  13  1.691008E+10  2.673693E+07  8.338023E+08  7.320557E+07  1.122407E-05 -6.772360E-05
       192  14  1.691185E+10  2.633502E+07  8.359279E+08  4.413668E+07 -1.139120E-04 -4.052314E-05
       192  15  1.686404E+10  4.796319E+06  8.172191E+08  1.368254E+07  2.039809E-05 -2.775558E-06
       192  16  1.513919E+10  2.648041E+07  7.369870E+08  3.501424E+07  7.660539E-05 -9.242607E-05
       192  17  1.511081E+10  1.776311E+07  7.282453E+08  2.199361E+07 -1.221245E-05 -1.970646E-05
       192  18  1.503249E+10 -1.243307E+07  6.978673E+08  7.595502E+06 -2.775558E-07  6.258882E-05
       192  19  1.868752E+10  3.751854E+07  9.420807E+08  1.233717E+08  1.306554E+09  7.125462E+06
       192  20  1.871920E+10  4.517290E+07  9.544504E+08  7.826811E+07  1.311314E+09  3.433064E+06
       192  21  1.870165E+10  3.203294E+07  9.467882E+08  3.177170E+07  1.314265E+09 -2.696453E+05
       192  22  1.691008E+10  2.673693E+07  8.338023E+08  7.320557E+07  1.326060E+09  1.097035E+06
       192  23  1.691185E+10  2.633502E+07  8.359279E+08  4.413668E+07  1.329369E+09 -3.567303E+05
       192  24  1.686404E+10  4.796319E+06  8.172191E+08  1.368254E+07  1.330870E+09 -1.819944E+06
       192  25  1.513919E+10  2.648041E+07  7.369870E+08  3.501424E+07  1.345566E+09 -3.139434E+06
       192  26  1.511081E+10  1.776311E+07  7.282453E+08  2.199361E+07  1.347425E+09 -2.353879E+06
       192  27  1.503249E+10 -1.243307E+07  6.978673E+08  7.595502E+06  1.347475E+09 -1.576886E+06
       193   1  1.407896E+10  1.813836E+07  6.715579E+08  2.362889E+07 -1.340218E+09  4.333105E+06
       193   2  1.404465E+10  1.027662E+07  6.614096E+08  1.537601E+07 -1.340817E+09  2.877651E+06
       193   3  1.398802E+10 -7.294178E+06  6.412667E+08  4.978852E+06 -1.341357E+09  1.422478E+06
       193   4  1.225093E+10  8.393049E+06  5.486206E+08  1.169337E+07 -1.293676E+09  5.072923E+06
       193   5  1.221230E+10  5.886507E+06  5.387414E+08  7.838190E+06 -1.293893E+09  3.544043E+06
       193   6  1.215134E+10 -6.339982E+06  5.188510E+08  1.839505E+06 -1.294050E+09  2.015398E+06
       193   7  1.042055E+10  4.811152E+06  4.116871E+08  2.977962E+06 -1.247134E+09  5.313915E+06
       193   8  1.037752E+10  7.600116E+06  4.019215E+08  3.504972E+06 -1.246969E+09  3.712357E+06
       193   9  1.031218E+10  6.576716E+05  3.821282E+08  1.889120E+06 -1.246743E+09  2.111009E+06
       193  10  1.407896E+10  1.813836E+07  6.715579E+08  2.362889E+07  1.232348E-04 -3.136380E-05
       193  11  1.404465E+10  1.027662E+07  6.614096E+08  1.537601E+07  9.547918E-05  2.997602E-05
       193  12  1.398802E+10 -7.294178E+06  6.412667E+08  4.978852E+06 -9.880985E-05  1.060263E-04
       193  13  1.225093E+10  8.393049E+06  5.486206E+08  1.169337E+07 -1.942836E-05  9.381385E-05
       193  14  1.221230E+10  5.886507E+06  5.387414E+08  7.838190E+06  2.252457E-05  9.325873E-05
       193  15  1.215134E+10 -6.339982E+06  5.188510E+08  1.839505E+06  7.402035E-06  8.326673E-05
       193  16  1.042055E+10  4.811152E+06  4.116871E+08  2.977962E+06 -2.331468E-04  1.112999E-04
       193  17  1.037752E+10  7.600116E+06  4.019215E+08  3.504972E+06 -1.204592E-04  3.413936E-05
       193  18  1.031218E+10  6.576716E+05  3.821282E+08  1.889120E+06 -1.415534E-05 -3.788636E-05
       193  19  1.407896E+10  1.813836E+07  6.715579E+08  2.362889E+07  1.340218E+09 -4.333105E+06
       193  20  1.404465E+10  1.027662E+07  6.614096E+08  1.537601E+07  1.340817E+09 -2.877651E+06
       193  21  1.398802E+10 -7.294178E+06  6.412667E+08  4.978852E+06  1.341357E+09 -1.422478E+06
       193  22  1.225093E+10  8.393049E+06  5.486206E+08  1.169337E+07  1.293676E+09 -5.072923E+06
       193  23  1.221230E+10  5.886507E+06  5.387414E+08  7.838190E+06  1.293893E+09 -3.544043E+06
       193  24  1.215134E+10 -6.339982E+06  5.188510E+08  1.839505E+06  1.294050E+09 -2.015398E+06
       193  25  1.042055E+10  4.811152E+06  4.116871E+08  2.977962E+06  1.247134E+09 -5.313915E+06
       193  26  1.037752E+10  7.600116E+06  4.019215E+08  3.504972E+06  1.246969E+09 -3.712357E+06
       193  27  1.031218E+10  6.576716E+05  3.821282E+08  1.889120E+06  1.246743E+09 -2.111009E+06
       194   1  1.411992E+10  4.277420E+07  6.857246E+08  6.613264E+06 -1.338655E+09  4.042930E+05
       194   2  1.411468E+10  4.080036E+07  6.853925E+08  1.438452E+07 -1.339083E+09  1.733013E+06
       194   3  1.409729E+10  3.372449E+07  6.802316E+08  2.155161E+07 -1.339779E+09  3.060583E+06
       194   4  1.229597E+10  1.942500E+07  5.600037E+08  2.594500E+06 -1.293032E+09  7.413723E+05
       194   5  1.228736E+10  1.776908E+07  5.586716E+08  7.111292E+06 -1.293108E+09  2.404098E+06
       194   6  1.226666E+10  1.106470E+07  5.526307E+08  1.101877E+07 -1.293451E+09  4.065795E+06
       194   7  1.047767E+10  2.070603E+07  4.285127E+08  4.066806E+05 -1.247409E+09  6.184841E+05
       194   8  1.046565E+10  1.932189E+07  4.260413E+08  1.671085E+06 -1.247133E+09  2.614785E+06
       194   9  1.044157E+10  1.294295E+07  4.189813E+08  2.320978E+06 -1.247124E+09  4.610170E+06
       194  10  1.411992E+10  4.277420E+07  6.857246E+08  6.613264E+06  5.329071E-05  3.622103E-05
       194  11  1.411468E+10  4.080036E+07  6.853925E+08  1.438452E+07  8.937295E-05 -2.095546E-05
       194  12  1.409729E+10  3.372449E+07  6.802316E+08  2.155161E+07  1.716682E-04 -8.062995E-05
       194  13  1.229597E+10  1.942500E+07  5.600037E+08  2.594500E+06 -5.954709E-05 -4.107825E-05
       194  14  1.228736E+10  1.776908E+07  5.586716E+08  7.111292E+06 -4.263137E-05 -5.440093E-05
       194  15  1.226666E+10  1.106470E+07  5.526307E+08  1.101877E+07 -6.814563E-05 -7.660539E-05
       194  16  1.047767E+10  2.070603E+07  4.285127E+08  4.066806E+05  1.132427E-04 -4.787837E-05
       194  17  1.046565E+10  1.932189E+07  4.260413E+08  1.671085E+06 -3.164136E-05 -2.192690E-05
       194  18  1.044157E+10  1.294295E+07  4.189813E+08  2.320978E+06 -1.131040E-04  1.249001E-06
       194  19  1.411992E+10  4.277420E+07  6.857246E+08  6.613264E+06  1.338655E+09 -4.042930E+05
       194  20  1.411468E+10  4.080036E+07  6.853925E+08  1.438452E+07  1.339083E+09 -1.733013E+06
       194  21  1.409729E+10  3.372449E+07  6.802316E+08  2.155161E+07  1.339779E+09 -3.060583E+06
       194  22  1.229597E+10  1.942500E+07  5.600037E+08  2.594500E+06  1.293032E+09 -7.413723E+05
       194  23  1.228736E+10  1.776908E+07  5.586716E+08  7.111292E+06  1.293108E+09 -2.404098E+06
       194  24  1.226666E+10  1.106470E+07  5.526307E+08  1.101877E+07  1.293451E+09 -4.065795E+06
       194  25  1.047767E+10  2.070603E+07  4.285127E+08  4.066806E+05  1.247409E+09 -6.184841E+05
       194  26  1.046565E+10  1.932189E+07  4.260413E+08  1.671085E+06  1.247133E+09 -2.614785E+06
       194  27  1.044157E+10  1.294295E+07  4.189813E+08  2.320978E+06  1.247124E+09 -4.610170E+06
       195   1  1.860364E+10  2.150551E+08  9.682238E+08 -2.914004E+07 -1.295700E+09  2.686410E+06
       195   2  1.687858E+10  1.156912E+08  8.466598E+08 -1.047724E+07 -1.319377E+09  2.815281E+04
       195   3  1.518023E+10  7.271024E+07  7.577370E+08 -8.653374E+06 -1.343055E+09 -4.721347E+05
       195   4  1.863924E+10  1.736503E+08  9.674994E+08 -8.500547E+07 -1.299271E+09  4.384946E+06
       195   5  1.688154E+10  8.493729E+07  8.400564E+08 -4.660685E+07 -1.321227E+09  4.606174E+05
       195   6  1.515022E+10  5.231950E+07  7.445034E+08 -2.506408E+07 -1.343183E+09 -1.304663E+06
       195   7  1.869648E+10  1.412541E+08  9.755398E+08 -1.340224E+08 -1.303840E+09  6.089304E+06
       195   8  1.690629E+10  6.337615E+07  8.426406E+08 -7.587227E+07 -1.324074E+09  8.983708E+05
       195   9  1.514215E+10  4.130660E+07  7.408805E+08 -3.459502E+07 -1.344309E+09 -2.132399E+06
       195  10  1.860364E+10  2.150551E+08  9.682238E+08 -2.914004E+07 -2.434164E-04  4.329870E-05
       195  11  1.687858E+10  1.156912E+08  8.466598E+08 -1.047724E+07  3.663736E-05  2.664535E-05
       195  12  1.518023E+10  7.271024E+07  7.577370E+08 -8.653374E+06  1.196265E-04 -8.201773E-05
       195  13  1.863924E+10  1.736503E+08  9.674994E+08 -8.500547E+07 -1.243450E-04  3.613429E-05
       195  14  1.688154E+10  8.493729E+07  8.400564E+08 -4.660685E+07  1.371125E-04  8.342502E-05
       195  15  1.515022E+10  5.231950E+07  7.445034E+08 -2.506408E+07  8.160139E-05  2.781846E-05
       195  16  1.869648E+10  1.412541E+08  9.755398E+08 -1.340224E+08  4.746203E-05  1.998401E-05
       195  17  1.690629E+10  6.337615E+07  8.426406E+08 -7.587227E+07  1.387779E-06  1.298961E-04
       195  18  1.514215E+10  4.130660E+07  7.408805E+08 -3.459502E+07 -5.800915E-05  1.398881E-04
       195  19  1.860364E+10  2.150551E+08  9.682238E+08 -2.914004E+07  1.295700E+09 -2.686410E+06
       195  20  1.687858E+10  1.156912E+08  8.466598E+08 -1.047724E+07  1.319377E+09 -2.815281E+04
       195  21  1.518023E+10  7.271024E+07  7.577370E+08 -8.653374E+06  1.343055E+09  4.721347E+05
       195  22  1.863924E+10  1.736503E+08  9.674994E+08 -8.500547E+07  1.299271E+09 -4.384946E+06
       195  23  1.688154E+10  8.493729E+07  8.400564E+08 -4.660685E+07  1.321227E+09 -4.606174E+05
       195  24  1.515022E+10  5.231950E+07  7.445034E+08 -2.506408E+07  1.343183E+09  1.304663E+06
       195  25  1.869648E+10  1.412541E+08  9.755398E+08 -1.340224E+08  1.303840E+09 -6.089304E+06
       195  26  1.690629E+10  6.337615E+07  8.426406E+08 -7.587227E+07  1.324074E+09 -8.983708E+05
       195  27  1.514215E+10  4.130660E+07  7.408805E+08 -3.459502E+07  1.344309E+09  2.132399E+06
       196   1  1.411977E+10  4.255217E+07  6.856125E+08 -7.608319E+06 -1.338672E+09 -4.127584E+05
       196   2  1.229588E+10  1.942268E+07  5.599823E+08 -3.083636E+06 -1.293043E+09 -8.173244E+05
       196   3  1.047752E+10  2.058965E+07  4.284385E+08 -4.768742E+05 -1.247415E+09 -7.320209E+05
       196   4  1.411415E+10  4.023747E+07  6.850581E+08 -1.489666E+07 -1.339153E+09 -1.704167E+06
       196   5  1.228688E+10  1.756457E+07  5.584797E+08 -7.364106E+06 -1.293154E+09 -2.436521E+06
       196   6  1.046508E+10  1.915686E+07  4.258481E+08 -1.749831E+06 -1.247155E+09 -2.678732E+06
       196   7  1.409639E+10  3.282025E+07  6.796637E+08 -2.153836E+07 -1.339893E+09 -2.994375E+06
       196   8  1.226578E+10  1.064822E+07  5.522455E+08 -1.099475E+07 -1.293523E+09 -4.054658E+06
       196   9  1.044058E+10  1.271005E+07  4.186343E+08 -2.369822E+06 -1.247154E+09 -4.624529E+06
       196  10  1.411977E+10  4.255217E+07  6.856125E+08 -7.608319E+06  7.979728E-05 -1.099121E-04
       196  11  1.229588E+10  1.942268E+07  5.599823E+08 -3.083636E+06 -7.382983E-05 -4.329870E-05
       196  12  1.047752E+10  2.058965E+07  4.284385E+08 -4.768742E+05 -9.714451E-05  3.885781E-06
       196  13  1.411415E+10  4.023747E+07  6.850581E+08 -1.489666E+07  1.521006E-04  5.702903E-06
       196  14  1.228688E+10  1.756457E+07  5.584797E+08 -7.364106E+06  7.327472E-05  1.155109E-05
       196  15  1.046508E+10  1.915686E+07  4.258481E+08 -1.749831E+06 -5.218048E-05  5.752777E-06
       196  16  1.409639E+10  3.282025E+07  6.796637E+08 -2.153836E+07  3.858025E-05  1.210143E-04
       196  17  1.226578E+10  1.064822E+07  5.522455E+08 -1.099475E+07 -3.844147E-05  7.216450E-05
       196  18  1.044058E+10  1.271005E+07  4.186343E+08 -2.369822E+06 -1.032507E-04  1.165734E-05
       196  19  1.411977E+10  4.255217E+07  6.856125E+08 -7.608319E+06  1.338672E+09  4.127584E+05
       196  20  1.229588E+10  1.942268E+07  5.599823E+08 -3.083636E+06  1.293043E+09  8.173244E+05
       196  21  1.047752E+10  2.058965E+07  4.284385E+08 -4.768742E+05  1.247415E+09  7.320209E+05
       196  22  1.411415E+10  4.023747E+07  6.850581E+08 -1.489666E+07  1.339153E+09  1.704167E+06
       196  23  1.228688E+10  1.756457E+07  5.584797E+08 -7.364106E+06  1.293154E+09  2.436521E+06
       196  24  1.046508E+10  1.915686E+07  4.258481E+08 -1.749831E+06  1.247155E+09  2.678732E+06
       196  25  1.409639E+10  3.282025E+07  6.796637E+08 -2.153836E+07  1.339893E+09  2.994375E+06
       196  26  1.226578E+10  1.064822E+07  5.522455E+08 -1.099475E+07  1.293523E+09  4.054658E+06
       196  27  1.044058E+10  1.271005E+07  4.186343E+08 -2.369822E+06  1.247154E+09  4.624529E+06
       197   1  1.407854E+10  1.871912E+07  6.715598E+08 -2.347656E+07 -1.340344E+09 -4.281344E+06
       197   2  1.225015E+10  8.633677E+06  5.484471E+08 -1.162120E+07 -1.293756E+09 -5.037086E+06
       197   3  1.041934E+10  4.540079E+06  4.112493E+08 -3.029172E+06 -1.247168E+09 -5.291910E+06
       197   4  1.404392E+10  1.001735E+07  6.610426E+08 -1.533471E+07 -1.340942E+09 -2.837655E+06
       197   5  1.221143E+10  5.752561E+06  5.384059E+08 -7.811052E+06 -1.293976E+09 -3.509359E+06
       197   6  1.037645E+10  7.423672E+06  4.015313E+08 -3.537787E+06 -1.247009E+09 -3.680874E+06
       197   7  1.398775E+10 -8.065199E+06  6.408664E+08 -4.977365E+06 -1.341472E+09 -1.394285E+06
       197   8  1.215115E+10 -6.525730E+06  5.186819E+08 -1.785231E+06 -1.294128E+09 -1.981903E+06
       197   9  1.031200E+10  8.931316E+05  3.821064E+08 -1.830442E+06 -1.246783E+09 -2.070079E+06
       197  10  1.407854E+10  1.871912E+07  6.715598E+08 -2.347656E+07  9.700574E-05 -2.775558E-05
       197  11  1.225015E+10  8.633677E+06  5.484471E+08 -1.162120E+07 -2.053913E-05 -3.552714E-05
       197  12  1.041934E+10  4.540079E+06  4.112493E+08 -3.029172E+06 -6.022960E-05 -4.912737E-05
       197  13  1.404392E+10  1.001735E+07  6.610426E+08 -1.533471E+07  6.772360E-05  3.482457E-06
       197  14  1.221143E+10  5.752561E+06  5.384059E+08 -7.811052E+06  2.831069E-05  1.325329E-05
       197  15  1.037645E+10  7.423672E+06  4.015313E+08 -3.537787E+06 -1.265654E-04  8.038275E-06
       197  16  1.398775E+10 -8.065199E+06  6.408664E+08 -4.977365E+06  4.565792E-05  3.330669E-05
       197  17  1.215115E+10 -6.525730E+06  5.186819E+08 -1.785231E+06  5.051515E-05  5.329071E-05
       197  18  1.031200E+10  8.931316E+05  3.821064E+08 -1.830442E+06 -8.881784E-05  5.634382E-05
       197  19  1.407854E+10  1.871912E+07  6.715598E+08 -2.347656E+07  1.340344E+09  4.281344E+06
       197  20  1.225015E+10  8.633677E+06  5.484471E+08 -1.162120E+07  1.293756E+09  5.037086E+06
       197  21  1.041934E+10  4.540079E+06  4.112493E+08 -3.029172E+06  1.247168E+09  5.291910E+06
       197  22  1.404392E+10  1.001735E+07  6.610426E+08 -1.533471E+07  1.340942E+09  2.837655E+06
       197  23  1.221143E+10  5.752561E+06  5.384059E+08 -7.811052E+06  1.293976E+09  3.509359E+06
       197  24  1.037645E+10  7.423672E+06  4.015313E+08 -3.537787E+06  1.247009E+09  3.680874E+06
       197  25  1.398775E+10 -8.065199E+06  6.408664E+08 -4.977365E+06  1.341472E+09  1.394285E+06
       197  26  1.215115E+10 -6.525730E+06  5.186819E+08 -1.785231E+06  1.294128E+09  1.981903E+06
       197  27  1.031200E+10  8.931316E+05  3.821064E+08 -1.830442E+06  1.246783E+09  2.070079E+06
       198   1  1.868903E+10  3.311340E+07  9.409328E+08 -1.224584E+08 -1.307065E+09  7.286839E+06
       198   2  1.691040E+10  2.422070E+07  8.329993E+08 -7.293671E+07 -1.326385E+09  1.224140E+06
       198   3  1.513843E+10  2.613611E+07  7.365889E+08 -3.491077E+07 -1.345706E+09 -3.064668E+06
       198   4  1.871940E+10  4.444387E+07  9.539955E+08 -7.716850E+07 -1.311775E+09  3.561782E+06
       198   5  1.691152E+10  2.556350E+07  8.354241E+08 -4.361230E+07 -1.329680E+09 -2.550869E+05
       198   6  1.511006E+10  1.723699E+07  7.277646E+08 -2.157293E+07 -1.347584E+09 -2.296351E+06
       198   7  1.870134E+10  3.532891E+07  9.473642E+08 -3.111809E+07 -1.314698E+09 -1.736112E+05
       198   8  1.686383E+10  6.111682E+06  8.173512E+08 -1.353441E+07 -1.331185E+09 -1.743792E+06
       198   9  1.503249E+10 -1.280553E+07  6.976394E+08 -7.488863E+06 -1.347672E+09 -1.536630E+06
       198  10  1.868903E+10  3.311340E+07  9.409328E+08 -1.224584E+08  7.771561E-06  4.218847E-05
       198  11  1.691040E+10  2.422070E+07  8.329993E+08 -7.293671E+07  2.192690E-05 -7.660539E-05
       198  12  1.513843E+10  2.613611E+07  7.365889E+08 -3.491077E+07  1.748601E-05 -5.925815E-05
       198  13  1.871940E+10  4.444387E+07  9.539955E+08 -7.716850E+07 -1.593170E-04 -4.450433E-05
       198  14  1.691152E+10  2.556350E+07  8.354241E+08 -4.361230E+07  7.216450E-05 -1.083096E-04
       198  15  1.511006E+10  1.723699E+07  7.277646E+08 -2.157293E+07  1.010303E-04 -4.329436E-05
       198  16  1.870134E+10  3.532891E+07  9.473642E+08 -3.111809E+07 -2.467471E-04 -1.310063E-04
       198  17  1.686383E+10  6.111682E+06  8.173512E+08 -1.353441E+07 -4.912737E-05 -1.498801E-04
       198  18  1.503249E+10 -1.280553E+07  6.976394E+08 -7.488863E+06  2.609024E-04 -2.803313E-05
       198  19  1.868903E+10  3.311340E+07  9.409328E+08 -1.224584E+08  1.307065E+09 -7.286839E+06
       198  20  1.691040E+10  2.422070E+07  8.329993E+08 -7.293671E+07  1.326385E+09 -1.224140E+06
       198  21  1.513843E+10  2.613611E+07  7.365889E+08 -3.491077E+07  1.345706E+09  3.064668E+06
       198  22  1.871940E+10  4.444387E+07  9.539955E+08 -7.716850E+07  1.311775E+09 -3.561782E+06
       198  23  1.691152E+10  2.556350E+07  8.354241E+08 -4.361230E+07  1.329680E+09  2.550869E+05
       198  24  1.511006E+10  1.723699E+07  7.277646E+08 -2.157293E+07  1.347584E+09  2.296351E+06
       198  25  1.870134E+10  3.532891E+07  9.473642E+08 -3.111809E+07  1.314698E+09  1.736112E+05
       198  26  1.686383E+10  6.111682E+06  8.173512E+08 -1.353441E+07  1.331185E+09  1.743792E+06
       198  27  1.503249E+10 -1.280553E+07  6.976394E+08 -7.488863E+06  1.347672E+09  1.536630E+06
       199   1  3.186759E+10  2.523493E+08  3.029513E+09  6.120842E+08 -5.371177E+08 -6.959316E+07
       199   2  3.028197E+10  1.646729E+08  2.557951E+09  1.227261E+09 -4.964598E+08 -1.705468E+08
       199   3  2.829393E+10 -9.367738E+07  1.940979E+09  1.515064E+09 -4.508712E+08 -2.714640E+08
       199   4  3.460825E+10 -9.943343E+08  3.345591E+09  3.230483E+07 -2.761161E+08 -1.410533E+08
       199   5  3.222942E+10 -2.581661E+08  2.903243E+09  7.639088E+08 -1.938072E+08 -2.476641E+08
       199   6  2.944510E+10  3.079287E+08  2.316232E+09  1.167304E+09 -1.064499E+08 -3.542466E+08
       199   7  3.744763E+10 -2.074743E+09  3.825955E+09 -4.680670E+07 -1.509653E+07 -2.647698E+08
       199   8  3.428309E+10 -5.035374E+08  3.431811E+09  8.028561E+08  1.089253E+08 -3.771841E+08
       199   9  3.070998E+10  8.982288E+08  2.893755E+09  1.323471E+09  2.381139E+08 -4.895786E+08
       199  10  3.186759E+10  2.523493E+08  3.029513E+09  6.120842E+08 -6.217249E-05  1.998401E-05
       199  11  3.028197E+10  1.646729E+08  2.557951E+09  1.227261E+09 -6.661338E-05 -1.554312E-05
       199  12  2.829393E+10 -9.367738E+07  1.940979E+09  1.515064E+09  2.192690E-05 -5.037637E-05
       199  13  3.460825E+10 -9.943343E+08  3.345591E+09  3.230483E+07 -1.568374E-04  5.218048E-05
       199  14  3.222942E+10 -2.581661E+08  2.903243E+09  7.639088E+08 -1.448397E-04 -3.663736E-05
       199  15  2.944510E+10  3.079287E+08  2.316232E+09  1.167304E+09  1.169420E-05 -1.332268E-04
       199  16  3.744763E+10 -2.074743E+09  3.825955E+09 -4.680670E+07 -7.327472E-05  1.365574E-04
       199  17  3.428309E+10 -5.035374E+08  3.431811E+09  8.028561E+08  2.553513E-05 -1.554312E-05
       199  18  3.070998E+10  8.982288E+08  2.893755E+09  1.323471E+09 -1.254552E-04 -1.658396E-04
       199  19  3.186759E+10  2.523493E+08  3.029513E+09  6.120842E+08  5.371177E+08  6.959316E+07
       199  20  3.028197E+10  1.646729E+08  2.557951E+09  1.227261E+09  4.964598E+08  1.705468E+08
       199  21  2.829393E+10 -9.367738E+07  1.940979E+09  1.515064E+09  4.508712E+08  2.714640E+08
       199  22  3.460825E+10 -9.943343E+08  3.345591E+09  3.230483E+07  2.761161E+08  1.410533E+08
       199  23  3.222942E+10 -2.581661E+08  2.903243E+09  7.639088E+08  1.938072E+08  2.476641E+08
       199  24  2.944510E+10  3.079287E+08  2.316232E+09  1.167304E+09  1.064499E+08  3.542466E+08
       199  25  3.744763E+10 -2.074743E+09  3.825955E+09 -4.680670E+07  1.509653E+07  2.647698E+08
       199  26  3.428309E+10 -5.035374E+08  3.431811E+09  8.028561E+08 -1.089253E+08  3.771841E+08
       199  27  3.070998E+10  8.982288E+08  2.893755E+09  1.323471E+09 -2.381139E+08  4.895786E+08
       200   1  2.747650E+10  3.243655E+08  1.861984E+09  1.319102E+09 -4.094159E+08 -2.415792E+08
       200   2  2.624608E+10  4.199913E+07  1.457646E+09  5.797843E+08 -3.358156E+08 -1.420510E+08
       200   3  2.543964E+10 -6.037303E+07  1.208583E+09  1.633420E+08 -2.938947E+08 -4.276001E+07
       200   4  2.826582E+10 -1.996561E+08  1.865684E+09  2.871075E+08 -5.731174E+07 -3.406293E+08
       200   5  2.797529E+10 -1.198715E+09  1.549715E+09 -2.017560E+07  4.955557E+05 -2.020884E+08
       200   6  2.810706E+10 -2.023253E+09  1.376655E+09 -2.408315E+06  2.649279E+07 -6.373478E+07
       200   7  2.805047E+10 -3.167521E+09  9.487506E+08 -1.279402E+09  2.947329E+08 -4.210192E+08
       200   8  2.869466E+10 -4.895651E+09  7.106540E+08 -1.155561E+09  3.367265E+08 -2.433023E+08
       200   9  2.975950E+10 -6.454735E+09  6.031142E+08 -7.044763E+08  3.467792E+08 -6.572156E+07
       200  10  2.747650E+10  3.243655E+08  1.861984E+09  1.319102E+09  8.659740E-05 -2.664535E-05
       200  11  2.624608E+10  4.199913E+07  1.457646E+09  5.797843E+08  1.154632E-04  1.276756E-05
       200  12  2.543964E+10 -6.037303E+07  1.208583E+09  1.633420E+08  4.246603E-05  5.190293E-05
       200  13  2.826582E+10 -1.996561E+08  1.865684E+09  2.871075E+08  2.467210E-05 -9.880985E-05
       200  14  2.797529E+10 -1.198715E+09  1.549715E+09 -2.017560E+07  6.034669E-05  2.442491E-05
       200  15  2.810706E+10 -2.023253E+09  1.376655E+09 -2.408315E+06  7.687861E-05  1.548761E-04
       200  16  2.805047E+10 -3.167521E+09  9.487506E+08 -1.279402E+09 -3.996803E-05 -2.103873E-04
       200  17  2.869466E+10 -4.895651E+09  7.106540E+08 -1.155561E+09  7.327472E-05  7.494005E-06
       200  18  2.975950E+10 -6.454735E+09  6.031142E+08 -7.044763E+08 -1.942890E-05  2.303713E-04
       200  19  2.747650E+10  3.243655E+08  1.861984E+09  1.319102E+09  4.094159E+08  2.415792E+08
       200  20  2.624608E+10  4.199913E+07  1.457646E+09  5.797843E+08  3.358156E+08  1.420510E+08
       200  21  2.543964E+10 -6.037303E+07  1.208583E+09  1.633420E+08  2.938947E+08  4.276001E+07
       200  22  2.826582E+10 -1.996561E+08  1.865684E+09  2.871075E+08  5.731174E+07  3.406293E+08
       200  23  2.797529E+10 -1.198715E+09  1.549715E+09 -2.017560E+07 -4.955557E+05  2.020884E+08
       200  24  2.810706E+10 -2.023253E+09  1.376655E+09 -2.408315E+06 -2.649279E+07  6.373478E+07
       200  25  2.805047E+10 -3.167521E+09  9.487506E+08 -1.279402E+09 -2.947329E+08  4.210192E+08
       200  26  2.869466E+10 -4.895651E+09  7.106540E+08 -1.155561E+09 -3.367265E+08  2.433023E+08
       200  27  2.975950E+10 -6.454735E+09  6.031142E+08 -7.044763E+08 -3.467792E+08  6.572156E+07
       201   1  2.980971E+10 -5.778389E+09  7.785347E+08 -4.236855E+09  5.546596E+08 -4.048750E+08
       201   2  3.120831E+10 -7.729419E+09  6.963299E+08 -2.684010E+09  4.745493E+08 -2.318537E+08
       201   3  2.924110E+10 -1.113569E+10 -8.774017E+08 -9.128769E+08  4.376145E+08 -5.867574E+07
       201   4  3.364306E+10 -1.467783E+10 -5.699706E+08 -9.628700E+09  5.056250E+08 -2.663352E+08
       201   5  3.821434E+10 -1.604218E+10  4.462160E+08 -5.488115E+09  4.046154E+08 -1.472749E+08
       201   6  3.942659E+10 -1.885512E+10 -1.095335E+07 -1.123680E+09  3.468579E+08 -2.812688E+07
       201   7  3.487385E+10 -2.966705E+10 -4.541907E+09 -1.630418E+10  4.564981E+08 -1.012276E+08
       201   8  4.261150E+10 -3.046405E+10 -2.441789E+09 -9.573522E+09  3.345605E+08 -3.622292E+07
       201   9  4.699695E+10 -3.270299E+10 -1.796838E+09 -2.613469E+09  2.559510E+08  2.880144E+07
       201  10  2.980971E+10 -5.778389E+09  7.785347E+08 -4.236855E+09 -2.220446E-05 -1.756928E-04
       201  11  3.120831E+10 -7.729419E+09  6.963299E+08 -2.684010E+09 -1.310063E-04  2.414735E-05
       201  12  2.924110E+10 -1.113569E+10 -8.774017E+08 -9.128769E+08 -1.063039E-04  2.216283E-04
       201  13  3.364306E+10 -1.467783E+10 -5.699706E+08 -9.628700E+09  2.675377E-05  1.998401E-05
       201  14  3.821434E+10 -1.604218E+10  4.462160E+08 -5.488115E+09 -1.110310E-04  6.106227E-05
       201  15  3.942659E+10 -1.885512E+10 -1.095335E+07 -1.123680E+09  3.536234E-05  9.742207E-05
       201  16  3.487385E+10 -2.966705E+10 -4.541907E+09 -1.630418E+10 -6.439294E-05  1.601497E-04
       201  17  4.261150E+10 -3.046405E+10 -2.441789E+09 -9.573522E+09 -7.327472E-05  2.442491E-05
       201  18  4.699695E+10 -3.270299E+10 -1.796838E+09 -2.613469E+09  4.690692E-05 -1.088019E-04
       201  19  2.980971E+10 -5.778389E+09  7.785347E+08 -4.236855E+09 -5.546596E+08  4.048750E+08
       201  20  3.120831E+10 -7.729419E+09  6.963299E+08 -2.684010E+09 -4.745493E+08  2.318537E+08
       201  21  2.924110E+10 -1.113569E+10 -8.774017E+08 -9.128769E+08 -4.376145E+08  5.867574E+07
       201  22  3.364306E+10 -1.467783E+10 -5.699706E+08 -9.628700E+09 -5.056250E+08  2.663352E+08
       201  23  3.821434E+10 -1.604218E+10  4.462160E+08 -5.488115E+09 -4.046154E+08  1.472749E+08
       201  24  3.942659E+10 -1.885512E+10 -1.095335E+07 -1.123680E+09 -3.468579E+08  2.812688E+07
       201  25  3.487385E+10 -2.966705E+10 -4.541907E+09 -1.630418E+10 -4.564981E+08  1.012276E+08
       201  26  4.261150E+10 -3.046405E+10 -2.441789E+09 -9.573522E+09 -3.345605E+08  3.622292E+07
       201  27  4.699695E+10 -3.270299E+10 -1.796838E+09 -2.613469E+09 -2.559510E+08 -2.880144E+07
       202   1  4.689392E+10  4.525822E+09  8.669625E+09  3.450446E+09  3.116766E+08 -3.900812E+08
       202   2  2.694894E+10 -2.356930E+09  7.345629E+08 -8.744098E+07  4.825623E+08 -4.754511E+08
       202   3  2.778724E+10 -3.097119E+08  1.735905E+09 -2.072291E+09  5.745461E+08 -5.611012E+08
       202   4  4.551078E+10  6.859013E+09  9.079394E+09  2.097655E+09  4.566587E+08 -6.009942E+08
       202   5  2.760675E+10 -4.572271E+09  4.339183E+08 -5.345270E+09  5.459809E+08 -5.879772E+08
       202   6  3.054008E+10 -7.065656E+09  7.176713E+08 -1.123127E+10  5.559702E+08 -5.751177E+08
       202   7  3.768092E+10 -5.890037E+09  3.077555E+09 -9.596469E+08  6.016069E+08 -7.108755E+08
       202   8  2.178523E+10 -2.193908E+10 -6.335446E+09 -1.232842E+10  6.092473E+08 -5.989319E+08
       202   9  2.678165E+10 -2.904200E+10 -6.826096E+09 -2.213624E+10  5.371208E+08 -4.870237E+08
       202  10  4.689392E+10  4.525822E+09  8.669625E+09  3.450446E+09  1.842970E-04  1.515454E-04
       202  11  2.694894E+10 -2.356930E+09  7.345629E+08 -8.744098E+07  2.731149E-04  1.887379E-05
       202  12  2.778724E+10 -3.097119E+08  1.735905E+09 -2.072291E+09  1.029732E-04 -1.242062E-04
       202  13  4.551078E+10  6.859013E+09  9.079394E+09  2.097655E+09 -4.539121E-05  8.437695E-05
       202  14  2.760675E+10 -4.572271E+09  4.339183E+08 -5.345270E+09  6.373591E-05  3.441691E-05
       202  15  3.054008E+10 -7.065656E+09  7.176713E+08 -1.123127E+10  8.869858E-05 -2.775558E-07
       202  16  3.768092E+10 -5.890037E+09  3.077555E+09 -9.596469E+08 -6.217249E-05 -4.163336E-05
       202  17  2.178523E+10 -2.193908E+10 -6.335446E+09 -1.232842E+10  6.994405E-05  1.831868E-05
       202  18  2.678165E+10 -2.904200E+10 -6.826096E+09 -2.213624E+10 -6.994405E-05  7.036038E-05
       202  19  4.689392E+10  4.525822E+09  8.669625E+09  3.450446E+09 -3.116766E+08  3.900812E+08
       202  20  2.694894E+10 -2.356930E+09  7.345629E+08 -8.744098E+07 -4.825623E+08  4.754511E+08
       202  21  2.778724E+10 -3.097119E+08  1.735905E+09 -2.072291E+09 -5.745461E+08  5.611012E+08
       202  22  4.551078E+10  6.859013E+09  9.079394E+09  2.097655E+09 -4.566587E+08  6.009942E+08
       202  23  2.760675E+10 -4.572271E+09  4.339183E+08 -5.345270E+09 -5.459809E+08  5.879772E+08
       202  24  3.054008E+10 -7.065656E+09  7.176713E+08 -1.123127E+10 -5.559702E+08  5.751177E+08
       202  25  3.768092E+10 -5.890037E+09  3.077555E+09 -9.596469E+08 -6.016069E+08  7.108755E+08
       202  26  2.178523E+10 -2.193908E+10 -6.335446E+09 -1.232842E+10 -6.092473E+08  5.989319E+08
       202  27  2.678165E+10 -2.904200E+10 -6.826096E+09 -2.213624E+10 -5.371208E+08  4.870237E+08
       203   1  9.227327E+09 -1.056175E+06  2.889728E+08  4.861059E+05 -1.200638E+09  2.145703E+06
       203   2  7.360263E+09 -4.065781E+06  9.483690E+07 -1.242202E+06 -1.056776E+09  2.256805E+06
       203   3  5.478441E+09 -5.534666E+06 -1.500264E+08 -5.049340E+06 -9.129143E+08  1.836145E+06
       203   4  9.296233E+09  6.968227E+06  3.103032E+08 -1.356923E+06 -1.200787E+09  3.703373E+06
       203   5  7.424950E+09  7.815211E+06  1.163558E+08 -6.260882E+06 -1.057276E+09  3.590456E+06
       203   6  5.538952E+09  1.025060E+07 -1.282017E+08 -1.327398E+07 -9.137659E+08  2.949018E+06
       203   7  9.337590E+09  3.052555E+06  3.193827E+08 -1.777088E+06 -1.201112E+09  5.260501E+06
       203   8  7.462026E+09  7.758101E+06  1.256612E+08 -9.854838E+06 -1.057952E+09  4.923690E+06
       203   9  5.571791E+09  1.410056E+07 -1.185531E+08 -2.007225E+07 -9.147924E+08  4.061577E+06
       203  10  9.227327E+09 -1.056175E+06  2.889728E+08  4.861059E+05  1.380840E-04 -1.454392E-04
       203  11  7.360263E+09 -4.065781E+06  9.483690E+07 -1.242202E+06  5.676015E-05 -2.503553E-04
       203  12  5.478441E+09 -5.534666E+06 -1.500264E+08 -5.049340E+06 -2.077505E-04 -2.549350E-04
       203  13  9.296233E+09  6.968227E+06  3.103032E+08 -1.356923E+06 -3.441691E-05 -3.339993E-05
       203  14  7.424950E+09  7.815211E+06  1.163558E+08 -6.260882E+06 -2.775558E-07 -8.665703E-05
       203  15  5.538952E+09  1.025060E+07 -1.282017E+08 -1.327398E+07 -1.323941E-04 -3.651972E-05
       203  16  9.337590E+09  3.052555E+06  3.193827E+08 -1.777088E+06 -5.981327E-05  7.660539E-05
       203  17  7.462026E+09  7.758101E+06  1.256612E+08 -9.854838E+06 -3.178013E-05  8.160139E-05
       203  18  5.571791E+09  1.410056E+07 -1.185531E+08 -2.007225E+07 -5.676015E-05  1.870726E-04
       203  19  9.227327E+09 -1.056175E+06  2.889728E+08  4.861059E+05  1.200638E+09 -2.145703E+06
       203  20  7.360263E+09 -4.065781E+06  9.483690E+07 -1.242202E+06  1.056776E+09 -2.256805E+06
       203  21  5.478441E+09 -5.534666E+06 -1.500264E+08 -5.049340E+06  9.129143E+08 -1.836145E+06
       203  22  9.296233E+09  6.968227E+06  3.103032E+08 -1.356923E+06  1.200787E+09 -3.703373E+06
       203  23  7.424950E+09  7.815211E+06  1.163558E+08 -6.260882E+06  1.057276E+09 -3.590456E+06
       203  24  5.538952E+09  1.025060E+07 -1.282017E+08 -1.327398E+07  9.137659E+08 -2.949018E+06
       203  25  9.337590E+09  3.052555E+06  3.193827E+08 -1.777088E+06  1.201112E+09 -5.260501E+06
       203  26  7.462026E+09  7.758101E+06  1.256612E+08 -9.854838E+06  1.057952E+09 -4.923690E+06
       203  27  5.571791E+09  1.410056E+07 -1.185531E+08 -2.007225E+07  9.147924E+08 -4.061577E+06
       204   1  4.381037E+09 -1.101760E+06 -3.136994E+08 -1.223441E+07 -7.971942E+08  1.372836E+06
       204   2  2.489696E+09  6.309588E+06 -6.722207E+08 -9.841235E+06 -4.743551E+08  7.743031E+05
       204   3  5.532245E+08 -1.083849E+07 -1.156587E+09 -1.076944E+07 -1.515150E+08  3.586295E+05
       204   4  4.424201E+09  7.493318E+06 -2.989527E+08 -1.990570E+07 -7.983325E+08  2.271526E+06
       204   5  2.519799E+09  4.356540E+06 -6.641287E+08 -1.558781E+07 -4.751841E+08  1.154562E+06
       204   6  5.701162E+08 -2.350530E+07 -1.155402E+09 -1.458354E+07 -1.520315E+08  2.146844E+05
       204   7  4.449609E+09  8.410088E+06 -2.920737E+08 -2.913616E+07 -7.998863E+08  3.169591E+06
       204   8  2.532192E+09 -5.214267E+06 -6.637354E+08 -2.289964E+07 -4.764318E+08  1.534463E+06
       204   9  5.693408E+08 -4.373007E+07 -1.161746E+09 -1.996876E+07 -1.529697E+08  7.065787E+04
       204  10  4.381037E+09 -1.101760E+06 -3.136994E+08 -1.223441E+07  9.166279E-05 -2.309264E-04
       204  11  2.489696E+09  6.309588E+06 -6.722207E+08 -9.841235E+06 -6.501744E-05 -1.770806E-04
       204  12  5.532245E+08 -1.083849E+07 -1.156587E+09 -1.076944E+07 -1.020017E-04 -5.405398E-05
       204  13  4.424201E+09  7.493318E+06 -2.989527E+08 -1.990570E+07  3.469447E-05 -2.348707E-05
       204  14  2.519799E+09  4.356540E+06 -6.641287E+08 -1.558781E+07  1.304512E-04 -6.159434E-05
       204  15  5.701162E+08 -2.350530E+07 -1.155402E+09 -1.458354E+07 -8.493206E-05 -2.365394E-05
       204  16  4.449609E+09  8.410088E+06 -2.920737E+08 -2.913616E+07  1.415534E-05  1.865175E-04
       204  17  2.532192E+09 -5.214267E+06 -6.637354E+08 -2.289964E+07 -2.935152E-05  6.050715E-05
       204  18  5.693408E+08 -4.373007E+07 -1.161746E+09 -1.996876E+07  3.767819E-05  4.787837E-06
       204  19  4.381037E+09 -1.101760E+06 -3.136994E+08 -1.223441E+07  7.971942E+08 -1.372836E+06
       204  20  2.489696E+09  6.309588E+06 -6.722207E+08 -9.841235E+06  4.743551E+08 -7.743031E+05
       204  21  5.532245E+08 -1.083849E+07 -1.156587E+09 -1.076944E+07  1.515150E+08 -3.586295E+05
       204  22  4.424201E+09  7.493318E+06 -2.989527E+08 -1.990570E+07  7.983325E+08 -2.271526E+06
       204  23  2.519799E+09  4.356540E+06 -6.641287E+08 -1.558781E+07  4.751841E+08 -1.154562E+06
       204  24  5.701162E+08 -2.350530E+07 -1.155402E+09 -1.458354E+07  1.520315E+08 -2.146844E+05
       204  25  4.449609E+09  8.410088E+06 -2.920737E+08 -2.913616E+07  7.998863E+08 -3.169591E+06
       204  26  2.532192E+09 -5.214267E+06 -6.637354E+08 -2.289964E+07  4.764318E+08 -1.534463E+06
       204  27  5.693408E+08 -4.373007E+07 -1.161746E+09 -1.996876E+07  1.529697E+08 -7.065787E+04
       205   1  4.459117E+09  1.488547E+07 -2.879139E+08 -2.566302E+07 -8.008656E+08  2.530872E+06
       205   2  2.541049E+09  4.773140E+06 -6.583634E+08 -2.011213E+07 -4.772433E+08  1.237600E+06
       205   3  5.597582E+08 -7.176250E+07 -1.173044E+09 -1.368831E+07 -1.536144E+08  6.503324E+04
       205   4  4.465975E+09  1.737537E+07 -2.859309E+08 -1.422561E+07 -8.021185E+08  1.406406E+06
       205   5  2.546385E+09  1.180831E+06 -6.581926E+08 -1.108549E+07 -4.782266E+08  6.651908E+05
       205   6  5.635269E+08 -8.152812E+07 -1.174865E+09 -7.078561E+06 -1.543342E+08  4.596806E+04
       205   7  4.469914E+09  1.870383E+07 -2.848791E+08 -4.462048E+06 -8.029309E+08  2.825573E+05
       205   8  2.548718E+09 -3.652949E+06 -6.591459E+08 -3.737892E+06 -4.787684E+08  9.314334E+04
       205   9  5.642112E+08 -9.261500E+07 -1.178003E+09 -2.152922E+06 -1.546114E+08  2.698735E+04
       205  10  4.459117E+09  1.488547E+07 -2.879139E+08 -2.566302E+07 -9.083012E-05  3.441691E-05
       205  11  2.541049E+09  4.773140E+06 -6.583634E+08 -2.011213E+07  2.914335E-05 -7.049916E-05
       205  12  5.597582E+08 -7.176250E+07 -1.173044E+09 -1.368831E+07 -2.151057E-06 -1.459943E-04
       205  13  4.465975E+09  1.737537E+07 -2.859309E+08 -1.422561E+07 -3.580469E-05 -6.410074E-06
       205  14  2.546385E+09  1.180831E+06 -6.581926E+08 -1.108549E+07 -1.659783E-04 -1.609905E-05
       205  15  5.635269E+08 -8.152812E+07 -1.174865E+09 -7.078561E+06 -4.884981E-05 -9.677114E-06
       205  16  4.469914E+09  1.870383E+07 -2.848791E+08 -4.462048E+06 -8.604228E-05 -4.607426E-05
       205  17  2.548718E+09 -3.652949E+06 -6.591459E+08 -3.737892E+06 -5.918877E-05  2.997602E-05
       205  18  5.642112E+08 -9.261500E+07 -1.178003E+09 -2.152922E+06  1.009609E-04  1.296185E-04
       205  19  4.459117E+09  1.488547E+07 -2.879139E+08 -2.566302E+07  8.008656E+08 -2.530872E+06
       205  20  2.541049E+09  4.773140E+06 -6.583634E+08 -2.011213E+07  4.772433E+08 -1.237600E+06
       205  21  5.597582E+08 -7.176250E+07 -1.173044E+09 -1.368831E+07  1.536144E+08 -6.503324E+04
       205  22  4.465975E+09  1.737537E+07 -2.859309E+08 -1.422561E+07  8.021185E+08 -1.406406E+06
       205  23  2.546385E+09  1.180831E+06 -6.581926E+08 -1.108549E+07  4.782266E+08 -6.651908E+05
       205  24  5.635269E+08 -8.152812E+07 -1.174865E+09 -7.078561E+06  1.543342E+08 -4.596806E+04
       205  25  4.469914E+09  1.870383E+07 -2.848791E+08 -4.462048E+06  8.029309E+08 -2.825573E+05
       205  26  2.548718E+09 -3.652949E+06 -6.591459E+08 -3.737892E+06  4.787684E+08 -9.314334E+04
       205  27  5.642112E+08 -9.261500E+07 -1.178003E+09 -2.152922E+06  1.546114E+08 -2.698735E+04
       206   1  9.357533E+09  1.339203E+07  3.271057E+08 -1.738278E+06 -1.201415E+09  4.599607E+06
       206   2  7.477027E+09  1.263495E+07  1.304999E+08 -8.976735E+06 -1.058431E+09  4.155475E+06
       206   3  5.582170E+09  1.420858E+07 -1.162511E+08 -1.706502E+07 -9.154490E+08  3.295251E+06
       206   4  9.379413E+09  1.893656E+07  3.334065E+08 -1.246591E+06 -1.201847E+09  2.597136E+06
       206   5  7.496340E+09  1.922380E+07  1.367167E+08 -5.413951E+06 -1.059121E+09  2.465658E+06
       206   6  5.598942E+09  2.186313E+07 -1.100442E+08 -1.043083E+07 -9.163964E+08  1.919324E+06
       206   7  9.391452E+09  2.044056E+07  3.360669E+08 -3.108432E+05 -1.202030E+09  5.954384E+05
       206   8  7.505748E+09  2.171626E+07  1.391744E+08 -1.411417E+06 -1.059560E+09  7.764367E+05
       206   9  5.605745E+09  2.536558E+07 -1.077150E+08 -3.361265E+06 -9.170926E+08  5.438210E+05
       206  10  9.357533E+09  1.339203E+07  3.271057E+08 -1.738278E+06 -1.665335E-06  3.552714E-05
       206  11  7.477027E+09  1.263495E+07  1.304999E+08 -8.976735E+06  5.620504E-05  2.775558E-05
       206  12  5.582170E+09  1.420858E+07 -1.162511E+08 -1.706502E+07 -1.554312E-05  5.287437E-05
       206  13  9.379413E+09  1.893656E+07  3.334065E+08 -1.246591E+06 -5.190293E-05 -8.484966E-06
       206  14  7.496340E+09  1.922380E+07  1.367167E+08 -5.413951E+06  7.716050E-05 -2.039276E-05
       206  15  5.598942E+09  2.186313E+07 -1.100442E+08 -1.043083E+07 -4.718448E-06 -6.301925E-06
       206  16  9.391452E+09  2.044056E+07  3.360669E+08 -3.108432E+05 -7.605028E-05 -5.107026E-05
       206  17  7.505748E+09  2.171626E+07  1.391744E+08 -1.411417E+06 -1.554312E-05 -7.160939E-05
       206  18  5.605745E+09  2.536558E+07 -1.077150E+08 -3.361265E+06  9.964252E-05 -6.800116E-05
       206  19  9.357533E+09  1.339203E+07  3.271057E+08 -1.738278E+06  1.201415E+09 -4.599607E+06
       206  20  7.477027E+09  1.263495E+07  1.304999E+08 -8.976735E+06  1.058431E+09 -4.155475E+06
       206  21  5.582170E+09  1.420858E+07 -1.162511E+08 -1.706502E+07  9.154490E+08 -3.295251E+06
       206  22  9.379413E+09  1.893656E+07  3.334065E+08 -1.246591E+06  1.201847E+09 -2.597136E+06
       206  23  7.496340E+09  1.922380E+07  1.367167E+08 -5.413951E+06  1.059121E+09 -2.465658E+06
       206  24  5.598942E+09  2.186313E+07 -1.100442E+08 -1.043083E+07  9.163964E+08 -1.919324E+06
       206  25  9.391452E+09  2.044056E+07  3.360669E+08 -3.108432E+05  1.202030E+09 -5.954384E+05
       206  26  7.505748E+09  2.171626E+07  1.391744E+08 -1.411417E+06  1.059560E+09 -7.764367E+05
       206  27  5.605745E+09  2.536558E+07 -1.077150E+08 -3.361265E+06  9.170926E+08 -5.438210E+05
       207   1  3.186045E+10  2.712092E+08  3.028517E+09 -5.871311E+08 -5.404628E+08  6.807288E+07
       207   2  3.455973E+10 -1.105714E+09  3.290902E+09  1.163801E+06 -2.865024E+08  1.360495E+08
       207   3  3.738924E+10 -2.243410E+09  3.746637E+09  7.901717E+07 -3.256073E+07  2.589731E+08
       207   4  3.033303E+10  1.649600E+08  2.568227E+09 -1.228217E+09 -5.035556E+08  1.707850E+08
       207   5  3.227646E+10 -2.608166E+08  2.908505E+09 -7.636553E+08 -2.059995E+08  2.468699E+08
       207   6  3.435861E+10 -4.424135E+08  3.460244E+09 -8.103680E+08  9.147279E+07  3.780111E+08
       207   7  2.835055E+10 -1.351895E+08  1.939838E+09 -1.514732E+09 -4.600445E+08  2.734467E+08
       207   8  2.953803E+10  3.924256E+08  2.360843E+09 -1.175041E+09 -1.188052E+08  3.576483E+08
       207   9  3.087274E+10  1.169134E+09  3.011407E+09 -1.347460E+09  2.222845E+08  4.970156E+08
       207  10  3.186045E+10  2.712092E+08  3.028517E+09 -5.871311E+08 -5.551115E-07 -7.771561E-05
       207  11  3.455973E+10 -1.105714E+09  3.290902E+09  1.163801E+06  3.524958E-05 -6.605827E-05
       207  12  3.738924E+10 -2.243410E+09  3.746637E+09  7.901717E+07 -1.609823E-05 -7.965850E-05
       207  13  3.033303E+10  1.649600E+08  2.568227E+09 -1.228217E+09 -1.121325E-04  9.727462E-06
       207  14  3.227646E+10 -2.608166E+08  2.908505E+09 -7.636553E+08 -3.552714E-05  2.199629E-05
       207  15  3.435861E+10 -4.424135E+08  3.460244E+09 -8.103680E+08  5.440093E-05  9.510621E-06
       207  16  2.835055E+10 -1.351895E+08  1.939838E+09 -1.514732E+09  4.940492E-05  9.436896E-05
       207  17  2.953803E+10  3.924256E+08  2.360843E+09 -1.175041E+09 -5.384582E-05  1.082467E-04
       207  18  3.087274E+10  1.169134E+09  3.011407E+09 -1.347460E+09  2.609024E-05  9.686696E-05
       207  19  3.186045E+10  2.712092E+08  3.028517E+09 -5.871311E+08  5.404628E+08 -6.807288E+07
       207  20  3.455973E+10 -1.105714E+09  3.290902E+09  1.163801E+06  2.865024E+08 -1.360495E+08
       207  21  3.738924E+10 -2.243410E+09  3.746637E+09  7.901717E+07  3.256073E+07 -2.589731E+08
       207  22  3.033303E+10  1.649600E+08  2.568227E+09 -1.228217E+09  5.035556E+08 -1.707850E+08
       207  23  3.227646E+10 -2.608166E+08  2.908505E+09 -7.636553E+08  2.059995E+08 -2.468699E+08
       207  24  3.435861E+10 -4.424135E+08  3.460244E+09 -8.103680E+08 -9.147279E+07 -3.780111E+08
       207  25  2.835055E+10 -1.351895E+08  1.939838E+09 -1.514732E+09  4.600445E+08 -2.734467E+08
       207  26  2.953803E+10  3.924256E+08  2.360843E+09 -1.175041E+09  1.188052E+08 -3.576483E+08
       207  27  3.087274E+10  1.169134E+09  3.011407E+09 -1.347460E+09 -2.222845E+08 -4.970156E+08
       208   1  4.685440E+10  4.346691E+09  8.588153E+09 -3.263047E+09  2.792180E+08  3.859536E+08
       208   2  4.528543E+10  7.117317E+09  9.061816E+09 -2.295661E+09  4.171115E+08  6.034580E+08
       208   3  3.775787E+10 -4.045936E+09  3.612564E+09  5.003970E+08  5.550378E+08  7.232144E+08
       208   4  2.711426E+10 -2.354275E+09  7.683496E+08  1.720542E+08  4.548142E+08  4.799496E+08
       208   5  2.757780E+10 -4.486936E+09  4.251636E+08  5.271754E+09  5.146438E+08  6.039780E+08
       208   6  2.205481E+10 -2.058514E+10 -5.884171E+09  1.218777E+10  5.746196E+08  6.302920E+08
       208   7  2.793266E+10 -2.199437E+08  1.791216E+09  1.960231E+09  5.555435E+08  5.742083E+08
       208   8  3.036341E+10 -7.298966E+09  5.743366E+08  1.119806E+10  5.373338E+08  6.046472E+08
       208   9  2.677927E+10 -2.837552E+10 -6.652147E+09  2.224000E+10  5.193855E+08  5.374035E+08
       208  10  4.685440E+10  4.346691E+09  8.588153E+09 -3.263047E+09 -5.218048E-05 -8.881784E-05
       208  11  4.528543E+10  7.117317E+09  9.061816E+09 -2.295661E+09 -6.883383E-05 -7.105427E-05
       208  12  3.775787E+10 -4.045936E+09  3.612564E+09  5.003970E+08  2.609024E-05 -6.786238E-05
       208  13  2.711426E+10 -2.354275E+09  7.683496E+08  1.720542E+08 -4.440892E-05  1.249001E-06
       208  14  2.757780E+10 -4.486936E+09  4.251636E+08  5.271754E+09  1.831868E-04  7.420280E-06
       208  15  2.205481E+10 -2.058514E+10 -5.884171E+09  1.218777E+10  5.329071E-05  9.611452E-07
       208  16  2.793266E+10 -2.199437E+08  1.791216E+09  1.960231E+09 -6.383782E-06  8.548717E-05
       208  17  3.036341E+10 -7.298966E+09  5.743366E+08  1.119806E+10  1.998401E-05  7.771561E-05
       208  18  2.677927E+10 -2.837552E+10 -6.652147E+09  2.224000E+10  8.770762E-05  7.480128E-05
       208  19  4.685440E+10  4.346691E+09  8.588153E+09 -3.263047E+09 -2.792180E+08 -3.859536E+08
       208  20  4.528543E+10  7.117317E+09  9.061816E+09 -2.295661E+09 -4.171115E+08 -6.034580E+08
       208  21  3.775787E+10 -4.045936E+09  3.612564E+09  5.003970E+08 -5.550378E+08 -7.232144E+08
       208  22  2.711426E+10 -2.354275E+09  7.683496E+08  1.720542E+08 -4.548142E+08 -4.799496E+08
       208  23  2.757780E+10 -4.486936E+09  4.251636E+08  5.271754E+09 -5.146438E+08 -6.039780E+08
       208  24  2.205481E+10 -2.058514E+10 -5.884171E+09  1.218777E+10 -5.746196E+08 -6.302920E+08
       208  25  2.793266E+10 -2.199437E+08  1.791216E+09  1.960231E+09 -5.555435E+08 -5.742083E+08
       208  26  3.036341E+10 -7.298966E+09  5.743366E+08  1.119806E+10 -5.373338E+08 -6.046472E+08
       208  27  2.677927E+10 -2.837552E+10 -6.652147E+09  2.224000E+10 -5.193855E+08 -5.374035E+08
       209   1  2.987767E+10 -5.658445E+09  8.216540E+08  4.140461E+09  5.425241E+08  4.242754E+08
       209   2  3.367206E+10 -1.439783E+10 -4.933274E+08  9.705791E+09  4.957840E+08  2.947336E+08
       209   3  3.471826E+10 -2.950864E+10 -4.559471E+09  1.656741E+10  4.491360E+08  1.386300E+08
       209   4  3.125517E+10 -7.645809E+09  7.271716E+08  2.681061E+09  4.697946E+08  2.550195E+08
       209   5  3.824053E+10 -1.586077E+10  4.994981E+08  5.584446E+09  4.013958E+08  1.748891E+08
       209   6  4.246285E+10 -3.046647E+10 -2.496551E+09  9.792938E+09  3.331193E+08  6.798426E+07
       209   7  2.925253E+10 -1.109379E+10 -8.634611E+08  9.863468E+08  4.368321E+08  8.562734E+07
       209   8  3.945458E+10 -1.877016E+10  2.091663E+07  1.223338E+09  3.466030E+08  5.496753E+07
       209   9  4.687858E+10 -3.285668E+10 -1.880371E+09  2.774246E+09  2.565278E+08 -2.678948E+06
       209  10  2.987767E+10 -5.658445E+09  8.216540E+08  4.140461E+09 -3.524958E-05  3.996803E-05
       209  11  3.367206E+10 -1.439783E+10 -4.933274E+08  9.705791E+09  4.496403E-05  6.827872E-05
       209  12  3.471826E+10 -2.950864E+10 -4.559471E+09  1.656741E+10  2.442491E-05  1.135203E-04
       209  13  3.125517E+10 -7.645809E+09  7.271716E+08  2.681061E+09  3.164136E-05 -6.130079E-06
       209  14  3.824053E+10 -1.586077E+10  4.994981E+08  5.584446E+09 -1.110223E-05 -1.131473E-05
       209  15  4.246285E+10 -3.046647E+10 -2.496551E+09  9.792938E+09  6.994405E-05 -4.098013E-06
       209  16  2.925253E+10 -1.109379E+10 -8.634611E+08  9.863468E+08  3.913536E-05 -4.662937E-05
       209  17  3.945458E+10 -1.877016E+10  2.091663E+07  1.223338E+09 -2.525757E-05 -9.992007E-05
       209  18  4.687858E+10 -3.285668E+10 -1.880371E+09  2.774246E+09  1.557088E-04 -1.237899E-04
       209  19  2.987767E+10 -5.658445E+09  8.216540E+08  4.140461E+09 -5.425241E+08 -4.242754E+08
       209  20  3.367206E+10 -1.439783E+10 -4.933274E+08  9.705791E+09 -4.957840E+08 -2.947336E+08
       209  21  3.471826E+10 -2.950864E+10 -4.559471E+09  1.656741E+10 -4.491360E+08 -1.386300E+08
       209  22  3.125517E+10 -7.645809E+09  7.271716E+08  2.681061E+09 -4.697946E+08 -2.550195E+08
       209  23  3.824053E+10 -1.586077E+10  4.994981E+08  5.584446E+09 -4.013958E+08 -1.748891E+08
       209  24  4.246285E+10 -3.046647E+10 -2.496551E+09  9.792938E+09 -3.331193E+08 -6.798426E+07
       209  25  2.925253E+10 -1.109379E+10 -8.634611E+08  9.863468E+08 -4.368321E+08 -8.562734E+07
       209  26  3.945458E+10 -1.877016E+10  2.091663E+07  1.223338E+09 -3.466030E+08 -5.496753E+07
       209  27  4.687858E+10 -3.285668E+10 -1.880371E+09  2.774246E+09 -2.565278E+08  2.678948E+06
       210   1  2.754482E+10  3.321382E+08  1.879154E+09 -1.349555E+09 -4.179255E+08  2.480111E+08
       210   2  2.831149E+10 -1.708078E+08  1.879850E+09 -3.114467E+08 -6.837583E+07  3.513836E+08
       210   3  2.803872E+10 -3.174013E+09  9.319512E+08  1.279345E+09  2.812343E+08  4.363684E+08
       210   4  2.628452E+10  4.914133E+07  1.467163E+09 -6.085365E+08 -3.411865E+08  1.528404E+08
       210   5  2.800253E+10 -1.177370E+09  1.558655E+09 -3.361161E+05 -6.495730E+06  2.173516E+08
       210   6  2.867500E+10 -4.910276E+09  6.929159E+08  1.162311E+09  3.282813E+08  2.635368E+08
       210   7  2.545420E+10 -5.069353E+07  1.214699E+09 -1.904786E+08 -2.954160E+08  5.790573E+07
       210   8  2.811948E+10 -2.007279E+09  1.383674E+09 -1.251658E+07  2.446774E+07  8.350801E+07
       210   9  2.973318E+10 -6.476314E+09  5.868240E+08  7.216319E+08  3.444625E+08  9.084742E+07
       210  10  2.754482E+10  3.321382E+08  1.879154E+09 -1.349555E+09 -3.969047E-05 -7.438494E-05
       210  11  2.831149E+10 -1.708078E+08  1.879850E+09 -3.114467E+08 -4.996004E-06 -3.552714E-05
       210  12  2.803872E+10 -3.174013E+09  9.319512E+08  1.279345E+09 -3.691492E-05  2.262079E-05
       210  13  2.628452E+10  4.914133E+07  1.467163E+09 -6.085365E+08 -1.315614E-04 -6.466182E-06
       210  14  2.800253E+10 -1.177370E+09  1.558655E+09 -3.361161E+05  3.164136E-05 -5.954438E-06
       210  15  2.867500E+10 -4.910276E+09  6.929159E+08  1.162311E+09  4.329870E-05 -1.591609E-06
       210  16  2.545420E+10 -5.069353E+07  1.214699E+09 -1.904786E+08 -4.940492E-05  7.327472E-05
       210  17  2.811948E+10 -2.007279E+09  1.383674E+09 -1.251658E+07  6.633583E-05  2.831069E-05
       210  18  2.973318E+10 -6.476314E+09  5.868240E+08  7.216319E+08  2.220446E-06 -2.428613E-05
       210  19  2.754482E+10  3.321382E+08  1.879154E+09 -1.349555E+09  4.179255E+08 -2.480111E+08
       210  20  2.831149E+10 -1.708078E+08  1.879850E+09 -3.114467E+08  6.837583E+07 -3.513836E+08
       210  21  2.803872E+10 -3.174013E+09  9.319512E+08  1.279345E+09 -2.812343E+08 -4.363684E+08
       210  22  2.628452E+10  4.914133E+07  1.467163E+09 -6.085365E+08  3.411865E+08 -1.528404E+08
       210  23  2.800253E+10 -1.177370E+09  1.558655E+09 -3.361161E+05  6.495730E+06 -2.173516E+08
       210  24  2.867500E+10 -4.910276E+09  6.929159E+08  1.162311E+09 -3.282813E+08 -2.635368E+08
       210  25  2.545420E+10 -5.069353E+07  1.214699E+09 -1.904786E+08  2.954160E+08 -5.790573E+07
       210  26  2.811948E+10 -2.007279E+09  1.383674E+09 -1.251658E+07 -2.446774E+07 -8.350801E+07
       210  27  2.973318E+10 -6.476314E+09  5.868240E+08  7.216319E+08 -3.444625E+08 -9.084742E+07
       211   1  9.227014E+09 -8.743819E+05  2.889085E+08 -4.556310E+05 -1.200716E+09 -2.105056E+06
       211   2  9.295412E+09  6.826574E+06  3.100090E+08  1.387696E+06 -1.200862E+09 -3.674425E+06
       211   3  9.336562E+09  2.717881E+06  3.189906E+08  1.777610E+06 -1.201189E+09 -5.243223E+06
       211   4  7.360040E+09 -4.011588E+06  9.477648E+07  1.148487E+06 -1.056796E+09 -2.227669E+06
       211   5  7.424250E+09  7.653492E+06  1.161024E+08  6.203237E+06 -1.057287E+09 -3.570904E+06
       211   6  7.461319E+09  7.582964E+06  1.254179E+08  9.809498E+06 -1.057956E+09 -4.913670E+06
       211   7  5.478350E+09 -5.502227E+06 -1.500572E+08  4.989313E+06 -9.128755E+08 -1.820707E+06
       211   8  5.538405E+09  1.011750E+07 -1.284111E+08  1.325136E+07 -9.137110E+08 -2.942381E+06
       211   9  5.571427E+09  1.407690E+07 -1.186665E+08  2.006977E+07 -9.147227E+08 -4.063673E+06
       211  10  9.227014E+09 -8.743819E+05  2.889085E+08 -4.556310E+05  5.384582E-05  6.133982E-05
       211  11  9.295412E+09  6.826574E+06  3.100090E+08  1.387696E+06  6.328271E-05  4.857226E-06
       211  12  9.336562E+09  2.717881E+06  3.189906E+08  1.777610E+06 -3.108624E-05 -4.746203E-05
       211  13  7.360040E+09 -4.011588E+06  9.477648E+07  1.148487E+06 -6.847821E-05  5.384582E-05
       211  14  7.424250E+09  7.653492E+06  1.161024E+08  6.203237E+06  1.136618E-04  1.665335E-05
       211  15  7.461319E+09  7.582964E+06  1.254179E+08  9.809498E+06  1.536000E-04 -2.720046E-05
       211  16  5.478350E+09 -5.502227E+06 -1.500572E+08  4.989313E+06 -1.215694E-04  3.899658E-05
       211  17  5.538405E+09  1.011750E+07 -1.284111E+08  1.325136E+07  4.996004E-06  1.193490E-05
       211  18  5.571427E+09  1.407690E+07 -1.186665E+08  2.006977E+07 -5.169476E-05 -2.595146E-05
       211  19  9.227014E+09 -8.743819E+05  2.889085E+08 -4.556310E+05  1.200716E+09  2.105056E+06
       211  20  9.295412E+09  6.826574E+06  3.100090E+08  1.387696E+06  1.200862E+09  3.674425E+06
       211  21  9.336562E+09  2.717881E+06  3.189906E+08  1.777610E+06  1.201189E+09  5.243223E+06
       211  22  7.360040E+09 -4.011588E+06  9.477648E+07  1.148487E+06  1.056796E+09  2.227669E+06
       211  23  7.424250E+09  7.653492E+06  1.161024E+08  6.203237E+06  1.057287E+09  3.570904E+06
       211  24  7.461319E+09  7.582964E+06  1.254179E+08  9.809498E+06  1.057956E+09  4.913670E+06
       211  25  5.478350E+09 -5.502227E+06 -1.500572E+08  4.989313E+06  9.128755E+08  1.820707E+06
       211  26  5.538405E+09  1.011750E+07 -1.284111E+08  1.325136E+07  9.137110E+08  2.942381E+06
       211  27  5.571427E+09  1.407690E+07 -1.186665E+08  2.006977E+07  9.147227E+08  4.063673E+06
       212   1  9.356636E+09  1.317696E+07  3.267999E+08  1.749243E+06 -1.201478E+09 -4.624582E+06
       212   2  9.378792E+09  1.870363E+07  3.331789E+08  1.336789E+06 -1.201877E+09 -2.670035E+06
       212   3  9.391231E+09  2.023628E+07  3.359487E+08  4.558937E+05 -1.202036E+09 -7.162583E+05
       212   4  7.476399E+09  1.245340E+07  1.302849E+08  8.944064E+06 -1.058428E+09 -4.188057E+06
       212   5  7.495869E+09  1.905633E+07  1.365500E+08  5.514003E+06 -1.059114E+09 -2.532987E+06
       212   6  7.505607E+09  2.163228E+07  1.391146E+08  1.621313E+06 -1.059560E+09 -8.785460E+05
       212   7  5.581823E+09  1.406665E+07 -1.163903E+08  1.718706E+07 -9.153762E+08 -3.299600E+06
       212   8  5.598631E+09  2.173786E+07 -1.101656E+08  1.073505E+07 -9.163489E+08 -1.943510E+06
       212   9  5.605690E+09  2.534896E+07 -1.077329E+08  3.826140E+06 -9.170818E+08 -5.879031E+05
       212  10  9.356636E+09  1.317696E+07  3.267999E+08  1.749243E+06  1.332268E-05 -5.134781E-06
       212  11  9.378792E+09  1.870363E+07  3.331789E+08  1.336789E+06 -3.497203E-05  1.693090E-05
       212  12  9.391231E+09  2.023628E+07  3.359487E+08  4.558937E+05 -4.288236E-05  4.052314E-05
       212  13  7.476399E+09  1.245340E+07  1.302849E+08  8.944064E+06  7.669321E-05 -8.326673E-07
       212  14  7.495869E+09  1.905633E+07  1.365500E+08  5.514003E+06 -9.207370E-05  4.024558E-05
       212  15  7.505607E+09  2.163228E+07  1.391146E+08  1.621313E+06 -2.082536E-05  8.743006E-05
       212  16  5.581823E+09  1.406665E+07 -1.163903E+08  1.718706E+07  6.994405E-05 -4.635181E-05
       212  17  5.598631E+09  2.173786E+07 -1.101656E+08  1.073505E+07  8.104628E-05  1.554312E-05
       212  18  5.605690E+09  2.534896E+07 -1.077329E+08  3.826140E+06  1.314227E-04  8.104628E-05
       212  19  9.356636E+09  1.317696E+07  3.267999E+08  1.749243E+06  1.201478E+09  4.624582E+06
       212  20  9.378792E+09  1.870363E+07  3.331789E+08  1.336789E+06  1.201877E+09  2.670035E+06
       212  21  9.391231E+09  2.023628E+07  3.359487E+08  4.558937E+05  1.202036E+09  7.162583E+05
       212  22  7.476399E+09  1.245340E+07  1.302849E+08  8.944064E+06  1.058428E+09  4.188057E+06
       212  23  7.495869E+09  1.905633E+07  1.365500E+08  5.514003E+06  1.059114E+09  2.532987E+06
       212  24  7.505607E+09  2.163228E+07  1.391146E+08  1.621313E+06  1.059560E+09  8.785460E+05
       212  25  5.581823E+09  1.406665E+07 -1.163903E+08  1.718706E+07  9.153762E+08  3.299600E+06
       212  26  5.598631E+09  2.173786E+07 -1.101656E+08  1.073505E+07  9.163489E+08  1.943510E+06
       212  27  5.605690E+09  2.534896E+07 -1.077329E+08  3.826140E+06  9.170818E+08  5.879031E+05
       213   1  4.458817E+09  1.477140E+07 -2.880333E+08  2.581033E+07 -8.009457E+08 -2.531070E+06
       213   2  4.465785E+09  1.730321E+07 -2.860032E+08  1.449186E+07 -8.021608E+08 -1.420648E+06
       213   3  4.469929E+09  1.871240E+07 -2.848699E+08  4.833758E+06 -8.029396E+08 -3.109045E+05
       213   4  2.541009E+09  4.838276E+06 -6.583443E+08  2.016499E+07 -4.772302E+08 -1.250567E+06
       213   5  2.546337E+09  1.211347E+06 -6.581897E+08  1.121223E+07 -4.782146E+08 -6.857857E+05
       213   6  2.548764E+09 -3.614257E+06 -6.591183E+08  3.918762E+06 -4.787641E+08 -1.213792E+05
       213   7  5.598681E+08 -7.171337E+07 -1.173006E+09  1.370573E+07 -1.535087E+08 -5.194776E+04
       213   8  5.635375E+08 -8.152699E+07 -1.174867E+09  7.111992E+06 -1.542687E+08 -3.091592E+04
       213   9  5.642299E+08 -9.261553E+07 -1.177999E+09  2.176507E+06 -1.545954E+08 -9.966995E+03
       213  10  4.458817E+09  1.477140E+07 -2.880333E+08  2.581033E+07  7.216450E-05 -3.691492E-05
       213  11  4.465785E+09  1.730321E+07 -2.860032E+08  1.449186E+07  5.162537E-05  2.886580E-05
       213  12  4.469929E+09  1.871240E+07 -2.848699E+08  4.833758E+06 -3.601286E-05  8.527901E-05
       213  13  2.541009E+09  4.838276E+06 -6.583443E+08  2.016499E+07  6.388390E-05  3.053113E-05
       213  14  2.546337E+09  1.211347E+06 -6.581897E+08  1.121223E+07  8.894469E-05  6.189493E-05
       213  15  2.548764E+09 -3.614257E+06 -6.591183E+08  3.918762E+06  3.787010E-05  9.992007E-05
       213  16  5.598681E+08 -7.171337E+07 -1.173006E+09  1.370573E+07 -4.940492E-05  1.970646E-05
       213  17  5.635375E+08 -8.152699E+07 -1.174867E+09  7.111992E+06 -6.938894E-05  2.747802E-05
       213  18  5.642299E+08 -9.261553E+07 -1.177999E+09  2.176507E+06  6.335210E-05  3.795575E-05
       213  19  4.458817E+09  1.477140E+07 -2.880333E+08  2.581033E+07  8.009457E+08  2.531070E+06
       213  20  4.465785E+09  1.730321E+07 -2.860032E+08  1.449186E+07  8.021608E+08  1.420648E+06
       213  21  4.469929E+09  1.871240E+07 -2.848699E+08  4.833758E+06  8.029396E+08  3.109045E+05
       213  22  2.541009E+09  4.838276E+06 -6.583443E+08  2.016499E+07  4.772302E+08  1.250567E+06
       213  23  2.546337E+09  1.211347E+06 -6.581897E+08  1.121223E+07  4.782146E+08  6.857857E+05
       213  24  2.548764E+09 -3.614257E+06 -6.591183E+08  3.918762E+06  4.787641E+08  1.213792E+05
       213  25  5.598681E+08 -7.171337E+07 -1.173006E+09  1.370573E+07  1.535087E+08  5.194776E+04
       213  26  5.635375E+08 -8.152699E+07 -1.174867E+09  7.111992E+06  1.542687E+08  3.091592E+04
       213  27  5.642299E+08 -9.261553E+07 -1.177999E+09  2.176507E+06  1.545954E+08  9.966995E+03
       214   1  4.380897E+09 -1.136675E+06 -3.137602E+08  1.220270E+07 -7.972856E+08 -1.361366E+06
       214   2  4.423946E+09  7.424766E+06 -2.990528E+08  1.990189E+07 -7.984233E+08 -2.267177E+06
       214   3  4.449359E+09  8.359448E+06 -2.921621E+08  2.914015E+07 -7.999802E+08 -3.172303E+06
       214   4  2.489692E+09  6.377304E+06 -6.721949E+08  9.770878E+06 -4.743555E+08 -7.657330E+05
       214   5  2.519647E+09  4.345504E+06 -6.641684E+08  1.555320E+07 -4.751789E+08 -1.149308E+06
       214   6  2.532127E+09 -5.202673E+06 -6.637399E+08  2.287530E+07 -4.764221E+08 -1.532511E+06
       214   7  5.532942E+08 -1.080958E+07 -1.156566E+09  1.075717E+07 -1.514245E+08 -3.592073E+05
       214   8  5.700531E+08 -2.353344E+07 -1.155438E+09  1.460424E+07 -1.519307E+08 -2.177655E+05
       214   9  5.694976E+08 -4.366420E+07 -1.161689E+09  1.999168E+07 -1.528574E+08 -7.624333E+04
       214  10  4.380897E+09 -1.136675E+06 -3.137602E+08  1.220270E+07 -4.163336E-05 -1.276756E-05
       214  11  4.423946E+09  7.424766E+06 -2.990528E+08  1.990189E+07  7.771561E-06 -4.121703E-05
       214  12  4.449359E+09  8.359448E+06 -2.921621E+08  2.914015E+07  1.526557E-06 -7.299716E-05
       214  13  2.489692E+09  6.377304E+06 -6.721949E+08  9.770878E+06 -1.446240E-04 -7.133183E-05
       214  14  2.519647E+09  4.345504E+06 -6.641684E+08  1.555320E+07 -6.426608E-06 -1.107447E-04
       214  15  2.532127E+09 -5.202673E+06 -6.637399E+08  2.287530E+07 -2.915962E-06 -1.537659E-04
       214  16  5.532942E+08 -1.080958E+07 -1.156566E+09  1.075717E+07  1.076916E-04  7.979728E-06
       214  17  5.700531E+08 -2.353344E+07 -1.155438E+09  1.460424E+07  1.471046E-05 -4.447831E-05
       214  18  5.694976E+08 -4.366420E+07 -1.161689E+09  1.999168E+07 -9.214851E-05 -9.103829E-05
       214  19  4.380897E+09 -1.136675E+06 -3.137602E+08  1.220270E+07  7.972856E+08  1.361366E+06
       214  20  4.423946E+09  7.424766E+06 -2.990528E+08  1.990189E+07  7.984233E+08  2.267177E+06
       214  21  4.449359E+09  8.359448E+06 -2.921621E+08  2.914015E+07  7.999802E+08  3.172303E+06
       214  22  2.489692E+09  6.377304E+06 -6.721949E+08  9.770878E+06  4.743555E+08  7.657330E+05
       214  23  2.519647E+09  4.345504E+06 -6.641684E+08  1.555320E+07  4.751789E+08  1.149308E+06
       214  24  2.532127E+09 -5.202673E+06 -6.637399E+08  2.287530E+07  4.764221E+08  1.532511E+06
       214  25  5.532942E+08 -1.080958E+07 -1.156566E+09  1.075717E+07  1.514245E+08  3.592073E+05
       214  26  5.700531E+08 -2.353344E+07 -1.155438E+09  1.460424E+07  1.519307E+08  2.177655E+05
       214  27  5.694976E+08 -4.366420E+07 -1.161689E+09  1.999168E+07  1.528574E+08  7.624333E+04
       215   1  1.972322E+10 -1.487151E+07  9.922533E+08  4.394611E+07 -1.287395E+09 -1.646121E+05
       215   2  1.981569E+10  7.550605E+07  1.045896E+09  1.375569E+08 -1.285046E+09 -5.901328E+06
       215   3  1.973576E+10  9.177614E+07  1.027090E+09  1.888603E+08 -1.278891E+09 -1.161537E+07
       215   4  2.172106E+10 -7.079654E+07  1.169257E+09  5.362930E+07 -1.208182E+09 -4.768370E+06
       215   5  2.167185E+10  1.084004E+08  1.208863E+09  2.110340E+08 -1.198523E+09 -1.518818E+07
       215   6  2.145110E+10  2.142239E+08  1.177741E+09  3.261197E+08 -1.185064E+09 -2.558383E+07
       215   7  2.372852E+10 -1.240909E+08  1.375683E+09  1.419969E+08 -1.128969E+09 -1.841673E+07
       215   8  2.353901E+10  1.452784E+08  1.404460E+09  3.631307E+08 -1.112001E+09 -3.351271E+07
       215   9  2.317884E+10  3.420084E+08  1.364230E+09  5.419340E+08 -1.091238E+09 -4.858305E+07
       215  10  1.972322E+10 -1.487151E+07  9.922533E+08  4.394611E+07  1.243450E-04 -1.665335E-05
       215  11  1.981569E+10  7.550605E+07  1.045896E+09  1.375569E+08  8.548717E-05 -3.053113E-06
       215  12  1.973576E+10  9.177614E+07  1.027090E+09  1.888603E+08  7.160939E-05  7.910339E-06
       215  13  2.172106E+10 -7.079654E+07  1.169257E+09  5.362930E+07 -7.602561E-05 -1.110223E-06
       215  14  2.167185E+10  1.084004E+08  1.208863E+09  2.110340E+08 -4.833821E-05 -1.443290E-05
       215  15  2.145110E+10  2.142239E+08  1.177741E+09  3.261197E+08 -5.885239E-05 -1.276756E-05
       215  16  2.372852E+10 -1.240909E+08  1.375683E+09  1.419969E+08 -2.664535E-05  2.109424E-05
       215  17  2.353901E+10  1.452784E+08  1.404460E+09  3.631307E+08 -4.440892E-05 -6.938894E-06
       215  18  2.317884E+10  3.420084E+08  1.364230E+09  5.419340E+08 -3.608225E-05 -3.316791E-05
       215  19  1.972322E+10 -1.487151E+07  9.922533E+08  4.394611E+07  1.287395E+09  1.646121E+05
       215  20  1.981569E+10  7.550605E+07  1.045896E+09  1.375569E+08  1.285046E+09  5.901328E+06
       215  21  1.973576E+10  9.177614E+07  1.027090E+09  1.888603E+08  1.278891E+09  1.161537E+07
       215  22  2.172106E+10 -7.079654E+07  1.169257E+09  5.362930E+07  1.208182E+09  4.768370E+06
       215  23  2.167185E+10  1.084004E+08  1.208863E+09  2.110340E+08  1.198523E+09  1.518818E+07
       215  24  2.145110E+10  2.142239E+08  1.177741E+09  3.261197E+08  1.185064E+09  2.558383E+07
       215  25  2.372852E+10 -1.240909E+08  1.375683E+09  1.419969E+08  1.128969E+09  1.841673E+07
       215  26  2.353901E+10  1.452784E+08  1.404460E+09  3.631307E+08  1.112001E+09  3.351271E+07
       215  27  2.317884E+10  3.420084E+08  1.364230E+09  5.419340E+08  1.091238E+09  4.858305E+07
       216   1  1.968112E+10  1.895051E+08  1.040747E+09  1.874742E+08 -1.272599E+09 -1.164289E+07
       216   2  1.959091E+10  2.239705E+08  1.024476E+09  1.151439E+08 -1.263831E+09 -6.909922E+06
       216   3  1.959350E+10  2.976292E+08  1.046580E+09  3.358783E+07 -1.261631E+09 -2.216316E+06
       216   4  2.130851E+10  2.784802E+08  1.157527E+09  2.934407E+08 -1.175168E+09 -2.917661E+07
       216   5  2.114500E+10  3.157305E+08  1.123652E+09  1.771851E+08 -1.161315E+09 -1.625035E+07
       216   6  2.107308E+10  3.909448E+08  1.125288E+09  5.172512E+07 -1.154031E+09 -3.366509E+06
       216   7  2.297383E+10  4.315203E+08  1.336601E+09  4.325376E+08 -1.077739E+09 -5.298518E+07
       216   8  2.273796E+10  4.724812E+08  1.287351E+09  2.723439E+08 -1.058801E+09 -3.186337E+07
       216   9  2.259249E+10  5.501767E+08  1.270747E+09  1.029673E+08 -1.046434E+09 -1.078702E+07
       216  10  1.968112E+10  1.895051E+08  1.040747E+09  1.874742E+08  1.132427E-04  8.631984E-05
       216  11  1.959091E+10  2.239705E+08  1.024476E+09  1.151439E+08 -1.221245E-05  5.551115E-06
       216  12  1.959350E+10  2.976292E+08  1.046580E+09  3.358783E+07 -4.385381E-05 -7.119305E-05
       216  13  2.130851E+10  2.784802E+08  1.157527E+09  2.934407E+08  3.582204E-06  9.214851E-05
       216  14  2.114500E+10  3.157305E+08  1.123652E+09  1.771851E+08 -2.469433E-05  2.220446E-05
       216  15  2.107308E+10  3.909448E+08  1.125288E+09  5.172512E+07 -1.379891E-05 -3.941292E-05
       216  16  2.297383E+10  4.315203E+08  1.336601E+09  4.325376E+08 -9.992007E-05  5.911938E-05
       216  17  2.273796E+10  4.724812E+08  1.287351E+09  2.723439E+08 -1.121325E-04  8.604228E-06
       216  18  2.259249E+10  5.501767E+08  1.270747E+09  1.029673E+08 -2.525757E-05 -3.996803E-05
       216  19  1.968112E+10  1.895051E+08  1.040747E+09  1.874742E+08  1.272599E+09  1.164289E+07
       216  20  1.959091E+10  2.239705E+08  1.024476E+09  1.151439E+08  1.263831E+09  6.909922E+06
       216  21  1.959350E+10  2.976292E+08  1.046580E+09  3.358783E+07  1.261631E+09  2.216316E+06
       216  22  2.130851E+10  2.784802E+08  1.157527E+09  2.934407E+08  1.175168E+09  2.917661E+07
       216  23  2.114500E+10  3.157305E+08  1.123652E+09  1.771851E+08  1.161315E+09  1.625035E+07
       216  24  2.107308E+10  3.909448E+08  1.125288E+09  5.172512E+07  1.154031E+09  3.366509E+06
       216  25  2.297383E+10  4.315203E+08  1.336601E+09  4.325376E+08  1.077739E+09  5.298518E+07
       216  26  2.273796E+10  4.724812E+08  1.287351E+09  2.723439E+08  1.058801E+09  3.186337E+07
       216  27  2.259249E+10  5.501767E+08  1.270747E+09  1.029673E+08  1.046434E+09  1.078702E+07
       217   1  2.389916E+10  5.195525E+08  1.443741E+09  6.259379E+08 -9.852950E+08 -7.239952E+07
       217   2  2.340445E+10  5.066539E+08  1.304610E+09  3.911876E+08 -9.609007E+08 -4.162235E+07
       217   3  2.345930E+10  7.257293E+08  1.391925E+09  1.127644E+08 -9.565381E+08 -1.098620E+07
       217   4  2.542502E+10  4.989705E+08  1.609371E+09  8.481246E+08 -7.728594E+08 -1.217047E+08
       217   5  2.471484E+10  5.573578E+08  1.436945E+09  4.820503E+08 -7.354271E+08 -6.594515E+07
       217   6  2.455046E+10  8.439134E+08  1.482187E+09  7.233708E+07 -7.180301E+08 -1.033511E+07
       217   7  2.686741E+10  2.302381E+08  1.744621E+09  1.178784E+09 -5.604281E+08 -1.871041E+08
       217   8  2.594429E+10  3.625191E+08  1.544714E+09  6.813587E+08 -5.099597E+08 -1.063583E+08
       217   9  2.556325E+10  7.191610E+08  1.553691E+09  1.403246E+08 -4.795294E+08 -2.576984E+07
       217  10  2.389916E+10  5.195525E+08  1.443741E+09  6.259379E+08  1.310063E-04  4.996004E-05
       217  11  2.340445E+10  5.066539E+08  1.304610E+09  3.911876E+08  2.553513E-04  1.026956E-05
       217  12  2.345930E+10  7.257293E+08  1.391925E+09  1.127644E+08  8.160139E-05 -2.525757E-05
       217  13  2.542502E+10  4.989705E+08  1.609371E+09  8.481246E+08  7.732232E-05  3.441691E-05
       217  14  2.471484E+10  5.573578E+08  1.436945E+09  4.820503E+08 -2.068224E-05  2.220446E-05
       217  15  2.455046E+10  8.439134E+08  1.482187E+09  7.233708E+07  1.662255E-04  1.221245E-05
       217  16  2.686741E+10  2.302381E+08  1.744621E+09  1.178784E+09 -8.437695E-05 -5.551115E-07
       217  17  2.594429E+10  3.625191E+08  1.544714E+09  6.813587E+08 -4.996004E-05  7.216450E-06
       217  18  2.556325E+10  7.191610E+08  1.553691E+09  1.403246E+08 -1.415534E-05  1.734723E-05
       217  19  2.389916E+10  5.195525E+08  1.443741E+09  6.259379E+08  9.852950E+08  7.239952E+07
       217  20  2.340445E+10  5.066539E+08  1.304610E+09  3.911876E+08  9.609007E+08  4.162235E+07
       217  21  2.345930E+10  7.257293E+08  1.391925E+09  1.127644E+08  9.565381E+08  1.098620E+07
       217  22  2.542502E+10  4.989705E+08  1.609371E+09  8.481246E+08  7.728594E+08  1.217047E+08
       217  23  2.471484E+10  5.573578E+08  1.436945E+09  4.820503E+08  7.354271E+08  6.594515E+07
       217  24  2.455046E+10  8.439134E+08  1.482187E+09  7.233708E+07  7.180301E+08  1.033511E+07
       217  25  2.686741E+10  2.302381E+08  1.744621E+09  1.178784E+09  5.604281E+08  1.871041E+08
       217  26  2.594429E+10  3.625191E+08  1.544714E+09  6.813587E+08  5.099597E+08  1.063583E+08
       217  27  2.556325E+10  7.191610E+08  1.553691E+09  1.403246E+08  4.795294E+08  2.576984E+07
       218   1  2.504623E+10 -4.555339E+07  1.585890E+09  2.333901E+08 -1.062588E+09 -2.289311E+07
       218   2  2.464028E+10  1.576812E+08  1.532524E+09  4.638127E+08 -1.050291E+09 -4.874752E+07
       218   3  2.420862E+10  3.524727E+08  1.475706E+09  7.109099E+08 -1.012122E+09 -7.442118E+07
       218   4  2.753778E+10  2.267968E+08  2.098926E+09  3.073344E+08 -8.826784E+08 -2.859039E+07
       218   5  2.668826E+10  1.827780E+08  1.844250E+09  5.683659E+08 -8.578331E+08 -8.648644E+07
       218   6  2.581817E+10  1.353133E+08  1.597583E+09  8.460521E+08 -8.071308E+08 -1.441915E+08
       218   7  3.002419E+10  4.421372E+08  2.651792E+09  5.291131E+08 -7.027689E+08 -4.979464E+07
       218   8  2.873354E+10  1.533259E+08  2.201379E+09  8.206542E+08 -6.653774E+08 -1.397149E+08
       218   9  2.742746E+10 -1.339342E+08  1.770434E+09  1.128830E+09 -6.021429E+08 -2.294340E+08
       218  10  2.504623E+10 -4.555339E+07  1.585890E+09  2.333901E+08 -1.043610E-04 -2.775558E-06
       218  11  2.464028E+10  1.576812E+08  1.532524E+09  4.638127E+08  2.331468E-05 -3.996803E-05
       218  12  2.420862E+10  3.524727E+08  1.475706E+09  7.109099E+08  9.409140E-05 -6.661338E-05
       218  13  2.753778E+10  2.267968E+08  2.098926E+09  3.073344E+08  7.184906E-05 -6.661338E-05
       218  14  2.668826E+10  1.827780E+08  1.844250E+09  5.683659E+08  7.368224E-05 -8.770762E-05
       218  15  2.581817E+10  1.353133E+08  1.597583E+09  8.460521E+08  7.203466E-05 -1.176836E-04
       218  16  3.002419E+10  4.421372E+08  2.651792E+09  5.291131E+08  7.327472E-05 -1.221245E-05
       218  17  2.873354E+10  1.533259E+08  2.201379E+09  8.206542E+08  8.770762E-05 -3.719247E-05
       218  18  2.742746E+10 -1.339342E+08  1.770434E+09  1.128830E+09 -1.049161E-04 -6.009082E-05
       218  19  2.504623E+10 -4.555339E+07  1.585890E+09  2.333901E+08  1.062588E+09  2.289311E+07
       218  20  2.464028E+10  1.576812E+08  1.532524E+09  4.638127E+08  1.050291E+09  4.874752E+07
       218  21  2.420862E+10  3.524727E+08  1.475706E+09  7.109099E+08  1.012122E+09  7.442118E+07
       218  22  2.753778E+10  2.267968E+08  2.098926E+09  3.073344E+08  8.826784E+08  2.859039E+07
       218  23  2.668826E+10  1.827780E+08  1.844250E+09  5.683659E+08  8.578331E+08  8.648644E+07
       218  24  2.581817E+10  1.353133E+08  1.597583E+09  8.460521E+08  8.071308E+08  1.441915E+08
       218  25  3.002419E+10  4.421372E+08  2.651792E+09  5.291131E+08  7.027689E+08  4.979464E+07
       218  26  2.873354E+10  1.533259E+08  2.201379E+09  8.206542E+08  6.653774E+08  1.397149E+08
       218  27  2.742746E+10 -1.339342E+08  1.770434E+09  1.128830E+09  6.021429E+08  2.294340E+08
       219   1  1.972367E+10 -1.253085E+07  9.926956E+08 -4.310837E+07 -1.287811E+09  1.961783E+05
       219   2  2.172181E+10 -7.603610E+07  1.167300E+09 -5.190616E+07 -1.209095E+09  4.605790E+06
       219   3  2.372860E+10 -1.390204E+08  1.370241E+09 -1.402512E+08 -1.130379E+09  1.811539E+07
       219   4  1.981482E+10  7.411225E+07  1.044827E+09 -1.372779E+08 -1.285609E+09  6.009153E+06
       219   5  2.167505E+10  1.069288E+08  1.208718E+09 -2.101865E+08 -1.199643E+09  1.524374E+07
       219   6  2.354529E+10  1.416733E+08  1.404141E+09 -3.626059E+08 -1.113676E+09  3.357356E+07
       219   7  1.973611E+10  8.771506E+07  1.025595E+09 -1.880863E+08 -1.279541E+09  1.179878E+07
       219   8  2.145923E+10  2.175613E+08  1.180483E+09 -3.250740E+08 -1.186328E+09  2.585679E+07
       219   9  2.319372E+10  3.507426E+08  1.370100E+09 -5.415360E+08 -1.093113E+09  4.900529E+07
       219  10  1.972367E+10 -1.253085E+07  9.926956E+08 -4.310837E+07  9.298118E-05 -8.215650E-05
       219  11  2.172181E+10 -7.603610E+07  1.167300E+09 -5.190616E+07 -2.831069E-05 -2.553513E-05
       219  12  2.372860E+10 -1.390204E+08  1.370241E+09 -1.402512E+08 -1.054712E-05 -2.650657E-05
       219  13  1.981482E+10  7.411225E+07  1.044827E+09 -1.372779E+08  1.054712E-04  1.981054E-05
       219  14  2.167505E+10  1.069288E+08  1.208718E+09 -2.101865E+08 -8.770762E-05  3.548811E-05
       219  15  2.354529E+10  1.416733E+08  1.404141E+09 -3.626059E+08 -1.509903E-04  2.335805E-05
       219  16  1.973611E+10  8.771506E+07  1.025595E+09 -1.880863E+08  9.936496E-05  1.099121E-04
       219  17  2.145923E+10  2.175613E+08  1.180483E+09 -3.250740E+08 -2.775558E-05  1.021405E-04
       219  18  2.319372E+10  3.507426E+08  1.370100E+09 -5.415360E+08 -1.496026E-04  5.995204E-05
       219  19  1.972367E+10 -1.253085E+07  9.926956E+08 -4.310837E+07  1.287811E+09 -1.961783E+05
       219  20  2.172181E+10 -7.603610E+07  1.167300E+09 -5.190616E+07  1.209095E+09 -4.605790E+06
       219  21  2.372860E+10 -1.390204E+08  1.370241E+09 -1.402512E+08  1.130379E+09 -1.811539E+07
       219  22  1.981482E+10  7.411225E+07  1.044827E+09 -1.372779E+08  1.285609E+09 -6.009153E+06
       219  23  2.167505E+10  1.069288E+08  1.208718E+09 -2.101865E+08  1.199643E+09 -1.524374E+07
       219  24  2.354529E+10  1.416733E+08  1.404141E+09 -3.626059E+08  1.113676E+09 -3.357356E+07
       219  25  1.973611E+10  8.771506E+07  1.025595E+09 -1.880863E+08  1.279541E+09 -1.179878E+07
       219  26  2.145923E+10  2.175613E+08  1.180483E+09 -3.250740E+08  1.186328E+09 -2.585679E+07
       219  27  2.319372E+10  3.507426E+08  1.370100E+09 -5.415360E+08  1.093113E+09 -4.900529E+07
       220   1  2.504958E+10 -5.385821E+07  1.583059E+09 -2.308487E+08 -1.065060E+09  2.273052E+07
       220   2  2.754047E+10  2.490432E+08  2.104047E+09 -3.048814E+08 -8.864496E+08  2.876328E+07
       220   3  3.002787E+10  4.991529E+08  2.666202E+09 -5.207747E+08 -7.078392E+08  4.996222E+07
       220   4  2.464999E+10  1.525003E+08  1.532418E+09 -4.573303E+08 -1.052436E+09  4.904879E+07
       220   5  2.670236E+10  1.761795E+08  1.844047E+09 -5.609399E+08 -8.617281E+08  8.735100E+07
       220   6  2.875347E+10  1.493551E+08  2.202154E+09 -8.063234E+08 -6.710181E+08  1.408171E+08
       220   7  2.422442E+10  3.504909E+08  1.478285E+09 -7.096930E+08 -1.014136E+09  7.518505E+07
       220   8  2.584333E+10  9.990879E+07  1.591919E+09 -8.428701E+08 -8.113312E+08  1.457463E+08
       220   9  2.746324E+10 -1.988886E+08  1.757343E+09 -1.117735E+09 -6.085234E+08  2.314691E+08
       220  10  2.504958E+10 -5.385821E+07  1.583059E+09 -2.308487E+08 -1.015854E-04 -1.332268E-05
       220  11  2.754047E+10  2.490432E+08  2.104047E+09 -3.048814E+08  6.605827E-05  2.220446E-06
       220  12  3.002787E+10  4.991529E+08  2.666202E+09 -5.207747E+08  1.496026E-04 -5.703771E-05
       220  13  2.464999E+10  1.525003E+08  1.532418E+09 -4.573303E+08 -5.329071E-05  2.514915E-05
       220  14  2.670236E+10  1.761795E+08  1.844047E+09 -5.609399E+08  9.325873E-05  5.601422E-05
       220  15  2.875347E+10  1.493551E+08  2.202154E+09 -8.063234E+08 -5.551115E-07  2.495833E-05
       220  16  2.422442E+10  3.504909E+08  1.478285E+09 -7.096930E+08  4.968248E-05  5.884182E-05
       220  17  2.584333E+10  9.990879E+07  1.591919E+09 -8.428701E+08 -1.118550E-04  1.171285E-04
       220  18  2.746324E+10 -1.988886E+08  1.757343E+09 -1.117735E+09  5.551115E-07  1.114386E-04
       220  19  2.504958E+10 -5.385821E+07  1.583059E+09 -2.308487E+08  1.065060E+09 -2.273052E+07
       220  20  2.754047E+10  2.490432E+08  2.104047E+09 -3.048814E+08  8.864496E+08 -2.876328E+07
       220  21  3.002787E+10  4.991529E+08  2.666202E+09 -5.207747E+08  7.078392E+08 -4.996222E+07
       220  22  2.464999E+10  1.525003E+08  1.532418E+09 -4.573303E+08  1.052436E+09 -4.904879E+07
       220  23  2.670236E+10  1.761795E+08  1.844047E+09 -5.609399E+08  8.617281E+08 -8.735100E+07
       220  24  2.875347E+10  1.493551E+08  2.202154E+09 -8.063234E+08  6.710181E+08 -1.408171E+08
       220  25  2.422442E+10  3.504909E+08  1.478285E+09 -7.096930E+08  1.014136E+09 -7.518505E+07
       220  26  2.584333E+10  9.990879E+07  1.591919E+09 -8.428701E+08  8.113312E+08 -1.457463E+08
       220  27  2.746324E+10 -1.988886E+08  1.757343E+09 -1.117735E+09  6.085234E+08 -2.314691E+08
       221   1  2.391305E+10  5.061531E+08  1.442326E+09 -6.297894E+08 -9.875292E+08  7.406805E+07
       221   2  2.546453E+10  4.856114E+08  1.614572E+09 -8.573383E+08 -7.771515E+08  1.239970E+08
       221   3  2.693326E+10  2.195813E+08  1.756781E+09 -1.200345E+09 -5.667688E+08  1.914361E+08
       221   4  2.341977E+10  5.004210E+08  1.306159E+09 -4.070760E+08 -9.630281E+08  4.462810E+07
       221   5  2.474428E+10  5.507950E+08  1.441739E+09 -5.034726E+08 -7.387101E+08  7.090485E+07
       221   6  2.598874E+10  3.585326E+08  1.553505E+09 -7.152104E+08 -5.143854E+08  1.146741E+08
       221   7  2.346289E+10  7.211607E+08  1.391300E+09 -1.400493E+08 -9.572106E+08  1.532007E+07
       221   8  2.455723E+10  8.390194E+08  1.482152E+09 -1.053078E+08 -7.189660E+08  1.795272E+07
       221   9  2.557423E+10  7.170952E+08  1.555416E+09 -1.857939E+08 -4.807134E+08  3.806095E+07
       221  10  2.391305E+10  5.061531E+08  1.442326E+09 -6.297894E+08  4.218847E-05 -6.994405E-05
       221  11  2.546453E+10  4.856114E+08  1.614572E+09 -8.573383E+08 -1.110223E-06 -6.827872E-05
       221  12  2.693326E+10  2.195813E+08  1.756781E+09 -1.200345E+09 -1.720846E-05 -7.840950E-05
       221  13  2.341977E+10  5.004210E+08  1.306159E+09 -4.070760E+08  4.884981E-05  4.510281E-07
       221  14  2.474428E+10  5.507950E+08  1.441739E+09 -5.034726E+08  1.032507E-04  1.517449E-05
       221  15  2.598874E+10  3.585326E+08  1.553505E+09 -7.152104E+08 -5.717649E-05  7.073335E-06
       221  16  2.346289E+10  7.211607E+08  1.391300E+09 -1.400493E+08 -6.106227E-06  8.548717E-05
       221  17  2.455723E+10  8.390194E+08  1.482152E+09 -1.053078E+08 -3.747003E-05  9.325873E-05
       221  18  2.557423E+10  7.170952E+08  1.555416E+09 -1.857939E+08 -8.798517E-05  9.409140E-05
       221  19  2.391305E+10  5.061531E+08  1.442326E+09 -6.297894E+08  9.875292E+08 -7.406805E+07
       221  20  2.546453E+10  4.856114E+08  1.614572E+09 -8.573383E+08  7.771515E+08 -1.239970E+08
       221  21  2.693326E+10  2.195813E+08  1.756781E+09 -1.200345E+09  5.667688E+08 -1.914361E+08
       221  22  2.341977E+10  5.004210E+08  1.306159E+09 -4.070760E+08  9.630281E+08 -4.462810E+07
       221  23  2.474428E+10  5.507950E+08  1.441739E+09 -5.034726E+08  7.387101E+08 -7.090485E+07
       221  24  2.598874E+10  3.585326E+08  1.553505E+09 -7.152104E+08  5.143854E+08 -1.146741E+08
       221  25  2.346289E+10  7.211607E+08  1.391300E+09 -1.400493E+08  9.572106E+08 -1.532007E+07
       221  26  2.455723E+10  8.390194E+08  1.482152E+09 -1.053078E+08  7.189660E+08 -1.795272E+07
       221  27  2.557423E+10  7.170952E+08  1.555416E+09 -1.857939E+08  4.807134E+08 -3.806095E+07
       222   1  1.968477E+10  1.858762E+08  1.040378E+09 -1.888041E+08 -1.273289E+09  1.197634E+07
       222   2  2.131534E+10  2.724334E+08  1.157069E+09 -2.938597E+08 -1.176415E+09  2.986451E+07
       222   3  2.298302E+10  4.214015E+08  1.335128E+09 -4.334130E+08 -1.079539E+09  5.443822E+07
       222   4  1.959813E+10  2.231888E+08  1.026128E+09 -1.192830E+08 -1.264414E+09  7.583900E+06
       222   5  2.115396E+10  3.135945E+08  1.125178E+09 -1.836229E+08 -1.162210E+09  1.754383E+07
       222   6  2.274788E+10  4.673951E+08  1.287932E+09 -2.824307E+08 -1.060004E+09  3.418322E+07
       222   7  1.959550E+10  2.959622E+08  1.046604E+09 -4.017475E+07 -1.261805E+09  3.229279E+06
       222   8  2.107549E+10  3.890645E+08  1.125300E+09 -6.381321E+07 -1.154276E+09  5.263465E+06
       222   9  2.259456E+10  5.465457E+08  1.270036E+09 -1.218897E+08 -1.046743E+09  1.397104E+07
       222  10  1.968477E+10  1.858762E+08  1.040378E+09 -1.888041E+08  1.190714E-04 -5.440093E-05
       222  11  2.131534E+10  2.724334E+08  1.157069E+09 -2.938597E+08 -5.828671E-05 -9.769963E-05
       222  12  2.298302E+10  4.214015E+08  1.335128E+09 -4.334130E+08 -1.515454E-04 -9.103829E-05
       222  13  1.959813E+10  2.231888E+08  1.026128E+09 -1.192830E+08  6.883383E-05 -2.419506E-05
       222  14  2.115396E+10  3.135945E+08  1.125178E+09 -1.836229E+08  2.386980E-05 -4.796510E-05
       222  15  2.274788E+10  4.673951E+08  1.287932E+09 -2.824307E+08 -2.275957E-05 -2.072995E-05
       222  16  1.959550E+10  2.959622E+08  1.046604E+09 -4.017475E+07  2.664535E-05  1.665335E-05
       222  17  2.107549E+10  3.890645E+08  1.125300E+09 -6.381321E+07  1.276756E-05  5.551115E-06
       222  18  2.259456E+10  5.465457E+08  1.270036E+09 -1.218897E+08 -9.076073E-05  5.176415E-05
       222  19  1.968477E+10  1.858762E+08  1.040378E+09 -1.888041E+08  1.273289E+09 -1.197634E+07
       222  20  2.131534E+10  2.724334E+08  1.157069E+09 -2.938597E+08  1.176415E+09 -2.986451E+07
       222  21  2.298302E+10  4.214015E+08  1.335128E+09 -4.334130E+08  1.079539E+09 -5.443822E+07
       222  22  1.959813E+10  2.231888E+08  1.026128E+09 -1.192830E+08  1.264414E+09 -7.583900E+06
       222  23  2.115396E+10  3.135945E+08  1.125178E+09 -1.836229E+08  1.162210E+09 -1.754383E+07
       222  24  2.274788E+10  4.673951E+08  1.287932E+09 -2.824307E+08  1.060004E+09 -3.418322E+07
       222  25  1.959550E+10  2.959622E+08  1.046604E+09 -4.017475E+07  1.261805E+09 -3.229279E+06
       222  26  2.107549E+10  3.890645E+08  1.125300E+09 -6.381321E+07  1.154276E+09 -5.263465E+06
       222  27  2.259456E+10  5.465457E+08  1.270036E+09 -1.218897E+08  1.046743E+09 -1.397104E+07
         1   1  2.669069E+10  7.660837E+08  3.995822E+11  8.404762E+08  5.042940E+09 -1.136340E+07
         1   2  2.496884E+10 -1.378375E+09  4.001519E+11 -1.911324E+08  5.073950E+09  2.584497E+06
         1   3  2.673933E+10 -1.951518E+09  4.023001E+11 -1.503986E+09  5.078833E+09  2.033487E+07
         1   4  3.331928E+10 -1.192624E+07  3.873387E+11 -4.530157E+07  4.788664E+09  6.117106E+05
         1   5  3.134415E+10 -1.775729E+09  3.897589E+11 -2.121794E+09  4.848192E+09  2.868720E+07
         1   6  3.135440E+10 -2.550487E+09  3.932514E+11 -4.459963E+09  4.894708E+09  6.030064E+07
         1   7  4.059644E+10 -1.568694E+07  3.766148E+11 -1.457703E+09  4.544563E+09  1.970711E+07
         1   8  3.817630E+10 -1.635583E+09  3.805118E+11 -4.174499E+09  4.630424E+09  5.644001E+07
         1   9  3.671668E+10 -2.659546E+09  3.851949E+11 -7.049346E+09  4.712872E+09  9.530980E+07
         1  10  2.662389E+10  7.666685E+08  3.996510E+11  8.404309E+08  8.881784E-06 -8.271162E-05
         1  11  2.490175E+10 -1.377732E+09  4.002212E+11 -1.911888E+08  5.639933E-04 -2.819966E-04
         1  12  2.667200E+10 -1.950949E+09  4.023693E+11 -1.504063E+09 -4.751755E-04  1.709743E-04
         1  13  3.325458E+10 -1.191548E+07  3.874034E+11 -4.544823E+07 -1.137146E-03 -1.376677E-04
         1  14  3.127890E+10 -1.775612E+09  3.898246E+11 -2.121942E+09 -5.678791E-04  7.105427E-05
         1  15  3.128862E+10 -2.550324E+09  3.933178E+11 -4.460119E+09 -3.541611E-04  6.217249E-05
         1  16  4.053377E+10 -1.621571E+07  3.766757E+11 -1.457952E+09  2.753353E-04 -1.421085E-04
         1  17  3.811283E+10 -1.635963E+09  3.805740E+11 -4.174740E+09  5.773160E-04  3.108624E-05
         1  18  3.665242E+10 -2.659784E+09  3.852584E+11 -7.049584E+09  1.393330E-04  5.995204E-05
         1  19  2.669069E+10  7.660837E+08  3.995822E+11  8.404762E+08 -5.042940E+09  1.136340E+07
         1  20  2.496884E+10 -1.378375E+09  4.001519E+11 -1.911324E+08 -5.073950E+09 -2.584497E+06
         1  21  2.673933E+10 -1.951518E+09  4.023001E+11 -1.503986E+09 -5.078833E+09 -2.033487E+07
         1  22  3.331928E+10 -1.192624E+07  3.873387E+11 -4.530157E+07 -4.788664E+09 -6.117106E+05
         1  23  3.134415E+10 -1.775729E+09  3.897589E+11 -2.121794E+09 -4.848192E+09 -2.868720E+07
         1  24  3.135440E+10 -2.550487E+09  3.932514E+11 -4.459963E+09 -4.894708E+09 -6.030064E+07
         1  25  4.059644E+10 -1.568694E+07  3.766148E+11 -1.457703E+09 -4.544563E+09 -1.970711E+07
         1  26  3.817630E+10 -1.635583E+09  3.805118E+11 -4.174499E+09 -4.630424E+09 -5.644001E+07
         1  27  3.671668E+10 -2.659546E+09  3.851949E+11 -7.049346E+09 -4.712872E+09 -9.530980E+07
         2   1  2.746043E+10 -2.958178E+09  4.032908E+11 -3.078677E+09  5.082510E+09  4.162201E+07
         2   2  2.789230E+10 -4.519093E+09  4.048893E+11 -5.178039E+09  5.098482E+09  7.000627E+07
         2   3  2.864373E+10 -6.048884E+09  4.066953E+11 -7.013901E+09  5.112478E+09  9.482799E+07
         2   4  3.202057E+10 -3.840193E+09  3.953078E+11 -5.612109E+09  4.913387E+09  7.587382E+07
         2   5  3.224066E+10 -5.879233E+09  3.987435E+11 -7.816266E+09  4.957091E+09  1.056750E+08
         2   6  3.205801E+10 -8.181127E+09  4.021563E+11 -9.828014E+09  5.005322E+09  1.328747E+08
         2   7  3.647324E+10 -4.811068E+09  3.877762E+11 -8.366369E+09  4.750919E+09  1.131116E+08
         2   8  3.657327E+10 -7.197066E+09  3.929662E+11 -1.054343E+10  4.820089E+09  1.425465E+08
         2   9  3.594932E+10 -9.910472E+09  3.981206E+11 -1.252743E+10  4.897826E+09  1.693710E+08
         2  10  2.739257E+10 -2.957813E+09  4.033599E+11 -3.079157E+09 -8.881784E-06 -7.049916E-05
         2  11  2.782466E+10 -4.518542E+09  4.049588E+11 -5.178564E+09 -6.927792E-04  3.164136E-05
         2  12  2.857660E+10 -6.048035E+09  4.067653E+11 -7.014460E+09 -4.174439E-04  1.587619E-04
         2  13  3.195395E+10 -3.840284E+09  3.953741E+11 -5.612769E+09 -5.695444E-04  4.396483E-04
         2  14  3.217382E+10 -5.879165E+09  3.988106E+11 -7.816973E+09 -2.819966E-04  1.421085E-04
         2  15  3.199109E+10 -8.180810E+09  4.022242E+11 -9.828768E+09  1.287859E-04  9.103829E-05
         2  16  3.640786E+10 -4.811564E+09  3.878399E+11 -8.367179E+09 -2.930989E-04 -1.421085E-04
         2  17  3.650731E+10 -7.197411E+09  3.930310E+11 -1.054428E+10 -5.684342E-04 -8.881784E-06
         2  18  3.588285E+10 -9.910581E+09  3.981867E+11 -1.252832E+10 -2.103873E-04  6.994405E-05
         2  19  2.746043E+10 -2.958178E+09  4.032908E+11 -3.078677E+09 -5.082510E+09 -4.162201E+07
         2  20  2.789230E+10 -4.519093E+09  4.048893E+11 -5.178039E+09 -5.098482E+09 -7.000627E+07
         2  21  2.864373E+10 -6.048884E+09  4.066953E+11 -7.013901E+09 -5.112478E+09 -9.482799E+07
         2  22  3.202057E+10 -3.840193E+09  3.953078E+11 -5.612109E+09 -4.913387E+09 -7.587382E+07
         2  23  3.224066E+10 -5.879233E+09  3.987435E+11 -7.816266E+09 -4.957091E+09 -1.056750E+08
         2  24  3.205801E+10 -8.181127E+09  4.021563E+11 -9.828014E+09 -5.005322E+09 -1.328747E+08
         2  25  3.647324E+10 -4.811068E+09  3.877762E+11 -8.366369E+09 -4.750919E+09 -1.131116E+08
         2  26  3.657327E+10 -7.197066E+09  3.929662E+11 -1.054343E+10 -4.820089E+09 -1.425465E+08
         2  27  3.594932E+10 -9.910472E+09  3.981206E+11 -1.252743E+10 -4.897826E+09 -1.693710E+08
         3   1  3.868634E+10 -5.258987E+09  3.835362E+11 -1.017353E+10  4.663664E+09  1.375416E+08
         3   2  3.941487E+10 -7.588102E+09  3.899733E+11 -1.234614E+10  4.741220E+09  1.669165E+08
         3   3  3.804370E+10 -1.102330E+10  3.957946E+11 -1.398292E+10  4.838049E+09  1.890466E+08
         3   4  4.278009E+10 -5.905555E+09  3.767339E+11 -1.341132E+10  4.516740E+09  1.813171E+08
         3   5  4.331513E+10 -8.935708E+09  3.845929E+11 -1.517903E+10  4.616107E+09  2.052176E+08
         3   6  4.200735E+10 -1.285760E+10  3.920989E+11 -1.644953E+10  4.734793E+09  2.223956E+08
         3   7  4.707259E+10 -6.500774E+09  3.704421E+11 -1.665082E+10  4.373207E+09  2.251158E+08
         3   8  4.740219E+10 -1.019162E+10  3.796080E+11 -1.801597E+10  4.493093E+09  2.435737E+08
         3   9  4.611748E+10 -1.456601E+10  3.886927E+11 -1.891237E+10  4.632857E+09  2.556937E+08
         3  10  3.862390E+10 -5.258727E+09  3.835995E+11 -1.017476E+10 -8.881784E-06 -4.440892E-06
         3  11  3.935164E+10 -7.587736E+09  3.900378E+11 -1.234740E+10  7.283063E-04  7.327472E-05
         3  12  3.797969E+10 -1.102270E+10  3.958606E+11 -1.398419E+10  1.709743E-04 -8.319734E-05
         3  13  4.271879E+10 -5.905660E+09  3.767948E+11 -1.341268E+10 -5.706546E-04 -4.440892E-06
         3  14  4.325276E+10 -8.935699E+09  3.846553E+11 -1.518041E+10 -2.853273E-04 -1.421085E-04
         3  15  4.194390E+10 -1.285737E+10  3.921631E+11 -1.645091E+10 -7.105427E-05  7.438494E-05
         3  16  4.701242E+10 -6.501223E+09  3.705008E+11 -1.665232E+10 -2.930989E-04 -7.105427E-05
         3  17  4.734070E+10 -1.019195E+10  3.796684E+11 -1.801747E+10  5.728751E-04  1.021405E-04
         3  18  4.605462E+10 -1.456611E+10  3.887553E+11 -1.891386E+10  4.241052E-04 -1.332268E-04
         3  19  3.868634E+10 -5.258987E+09  3.835362E+11 -1.017353E+10 -4.663664E+09 -1.375416E+08
         3  20  3.941487E+10 -7.588102E+09  3.899733E+11 -1.234614E+10 -4.741220E+09 -1.669165E+08
         3  21  3.804370E+10 -1.102330E+10  3.957946E+11 -1.398292E+10 -4.838049E+09 -1.890466E+08
         3  22  4.278009E+10 -5.905555E+09  3.767339E+11 -1.341132E+10 -4.516740E+09 -1.813171E+08
         3  23  4.331513E+10 -8.935708E+09  3.845929E+11 -1.517903E+10 -4.616107E+09 -2.052176E+08
         3  24  4.200735E+10 -1.285760E+10  3.920989E+11 -1.644953E+10 -4.734793E+09 -2.223956E+08
         3  25  4.707259E+10 -6.500774E+09  3.704421E+11 -1.665082E+10 -4.373207E+09 -2.251158E+08
         3  26  4.740219E+10 -1.019162E+10  3.796080E+11 -1.801597E+10 -4.493093E+09 -2.435737E+08
         3  27  4.611748E+10 -1.456601E+10  3.886927E+11 -1.891237E+10 -4.632857E+09 -2.556937E+08
         4   1  4.217530E+10 -2.765411E+08  3.699532E+11 -1.837235E+09  4.432887E+09  2.483525E+07
         4   2  4.068767E+10 -1.087064E+09  3.751883E+11 -5.642413E+09  4.524473E+09  7.628308E+07
         4   3  3.900863E+10 -2.981298E+09  3.804459E+11 -8.734845E+09  4.617686E+09  1.180949E+08
         4   4  4.292476E+10 -8.593540E+07  3.587222E+11 -2.428284E+09  4.271275E+09  3.282607E+07
         4   5  4.279306E+10 -1.817784E+09  3.653869E+11 -7.255633E+09  4.364088E+09  9.809409E+07
         4   6  4.254561E+10 -4.313179E+09  3.723469E+11 -1.158739E+10  4.460859E+09  1.566618E+08
         4   7  4.406593E+10  5.932041E+08  3.484717E+11 -3.673608E+09  4.117044E+09  4.966311E+07
         4   8  4.523132E+10 -1.666512E+09  3.565546E+11 -9.418409E+09  4.211598E+09  1.273355E+08
         4   9  4.636585E+10 -4.341869E+09  3.652260E+11 -1.482045E+10  4.312605E+09  2.003738E+08
         4  10  4.211591E+10 -2.763132E+08  3.700133E+11 -1.837848E+09 -2.753353E-04 -7.327472E-05
         4  11  4.062738E+10 -1.086697E+09  3.752498E+11 -5.643080E+09  2.753353E-04  4.107825E-05
         4  12  3.894744E+10 -2.980773E+09  3.805089E+11 -8.735499E+09  3.608225E-04 -2.553513E-05
         4  13  4.286704E+10 -8.592985E+07  3.587800E+11 -2.428946E+09 -1.136730E-03  1.509903E-04
         4  14  4.273426E+10 -1.817709E+09  3.654460E+11 -7.256367E+09  5.670464E-04  2.220446E-06
         4  15  4.248573E+10 -4.313002E+09  3.724074E+11 -1.158815E+10 -7.160939E-05  1.754152E-04
         4  16  4.400981E+10  5.930017E+08  3.485271E+11 -3.674318E+09  0.000000E+00  7.549517E-05
         4  17  4.517396E+10 -1.666701E+09  3.566113E+11 -9.419208E+09  1.465494E-04  1.021405E-04
         4  18  4.630725E+10 -4.342000E+09  3.652841E+11 -1.482130E+10 -2.742251E-04  2.886580E-05
         4  19  4.217530E+10 -2.765411E+08  3.699532E+11 -1.837235E+09 -4.432887E+09 -2.483525E+07
         4  20  4.068767E+10 -1.087064E+09  3.751883E+11 -5.642413E+09 -4.524473E+09 -7.628308E+07
         4  21  3.900863E+10 -2.981298E+09  3.804459E+11 -8.734845E+09 -4.617686E+09 -1.180949E+08
         4  22  4.292476E+10 -8.593540E+07  3.587222E+11 -2.428284E+09 -4.271275E+09 -3.282607E+07
         4  23  4.279306E+10 -1.817784E+09  3.653869E+11 -7.255633E+09 -4.364088E+09 -9.809409E+07
         4  24  4.254561E+10 -4.313179E+09  3.723469E+11 -1.158739E+10 -4.460859E+09 -1.566618E+08
         4  25  4.406593E+10  5.932041E+08  3.484717E+11 -3.673608E+09 -4.117044E+09 -4.966311E+07
         4  26  4.523132E+10 -1.666512E+09  3.565546E+11 -9.418409E+09 -4.211598E+09 -1.273355E+08
         4  27  4.636585E+10 -4.341869E+09  3.652260E+11 -1.482045E+10 -4.312605E+09 -2.003738E+08
         5   1  1.323162E+11 -3.585455E+10  3.556113E+11  3.048323E+10  3.019397E+09 -4.121268E+08
         5   2  1.437820E+11 -3.928758E+10  3.551687E+11  2.622795E+10  2.858352E+09 -3.545965E+08
         5   3  1.569108E+11 -4.144858E+10  3.556837E+11  2.143793E+10  2.687794E+09 -2.898364E+08
         5   4  1.258570E+11 -3.780560E+10  3.597504E+11  2.522891E+10  3.162594E+09 -3.410898E+08
         5   5  1.363834E+11 -4.079471E+10  3.586544E+11  2.051671E+10  3.005309E+09 -2.773816E+08
         5   6  1.485026E+11 -4.258211E+10  3.584522E+11  1.529453E+10  2.838799E+09 -2.067784E+08
         5   7  1.201439E+11 -3.875375E+10  3.646662E+11  2.023717E+10  3.306295E+09 -2.736028E+08
         5   8  1.297344E+11 -4.134724E+10  3.628757E+11  1.507563E+10  3.152179E+09 -2.038191E+08
         5   9  1.408490E+11 -4.280662E+10  3.619166E+11  9.427875E+09  2.989131E+09 -1.274619E+08
         5  10  1.322755E+11 -3.585450E+10  3.556522E+11  3.048598E+10  2.930989E-04  4.440892E-06
         5  11  1.437436E+11 -3.928748E+10  3.552074E+11  2.623030E+10 -7.061018E-04  2.220446E-05
         5  12  1.568746E+11 -4.144851E+10  3.557201E+11  2.143987E+10  1.842970E-04  3.413936E-05
         5  13  1.258142E+11 -3.780562E+10  3.597932E+11  2.523115E+10  1.110223E-06 -1.110223E-05
         5  14  1.363429E+11 -4.079465E+10  3.586951E+11  2.051856E+10 -8.504308E-04  0.000000E+00
         5  15  1.484644E+11 -4.258203E+10  3.584906E+11  1.529596E+10 -2.142730E-04 -2.220446E-06
         5  16  1.200989E+11 -3.875385E+10  3.647108E+11  2.023893E+10 -2.708944E-04  0.000000E+00
         5  17  1.296918E+11 -4.134721E+10  3.629184E+11  1.507699E+10 -4.307665E-04  1.021405E-04
         5  18  1.408088E+11 -4.280654E+10  3.619571E+11  9.428832E+09 -4.982126E-04  1.221245E-05
         5  19  1.323162E+11 -3.585455E+10  3.556113E+11  3.048323E+10 -3.019397E+09  4.121268E+08
         5  20  1.437820E+11 -3.928758E+10  3.551687E+11  2.622795E+10 -2.858352E+09  3.545965E+08
         5  21  1.569108E+11 -4.144858E+10  3.556837E+11  2.143793E+10 -2.687794E+09  2.898364E+08
         5  22  1.258570E+11 -3.780560E+10  3.597504E+11  2.522891E+10 -3.162594E+09  3.410898E+08
         5  23  1.363834E+11 -4.079471E+10  3.586544E+11  2.051671E+10 -3.005309E+09  2.773816E+08
         5  24  1.485026E+11 -4.258211E+10  3.584522E+11  1.529453E+10 -2.838799E+09  2.067784E+08
         5  25  1.201439E+11 -3.875375E+10  3.646662E+11  2.023717E+10 -3.306295E+09  2.736028E+08
         5  26  1.297344E+11 -4.134724E+10  3.628757E+11  1.507563E+10 -3.152179E+09  2.038191E+08
         5  27  1.408490E+11 -4.280662E+10  3.619166E+11  9.427875E+09 -2.989131E+09  1.274619E+08
         6   1  1.643265E+11 -4.239290E+10  3.560401E+11  1.792623E+10  2.592002E+09 -2.423610E+08
         6   2  1.743905E+11 -4.423184E+10  3.557081E+11  1.002955E+10  2.450944E+09 -1.355974E+08
         6   3  1.851728E+11 -4.502978E+10  3.557843E+11  1.673714E+09  2.306732E+09 -2.262612E+07
         6   4  1.545517E+11 -4.380381E+10  3.579951E+11  1.138175E+10  2.750512E+09 -1.538810E+08
         6   5  1.632714E+11 -4.490835E+10  3.569117E+11  3.483933E+09  2.617446E+09 -4.710202E+07
         6   6  1.726817E+11 -4.503544E+10  3.561976E+11 -4.856748E+09  2.481226E+09  6.566446E+07
         6   7  1.463647E+11 -4.373390E+10  3.610579E+11  5.444759E+09  2.902627E+09 -7.361434E+07
         6   8  1.537334E+11 -4.416588E+10  3.591969E+11 -2.467916E+09  2.777188E+09  3.336558E+07
         6   9  1.617656E+11 -4.368093E+10  3.576671E+11 -1.080743E+10  2.648606E+09  1.461164E+08
         6  10  1.642910E+11 -4.239310E+10  3.560750E+11  1.792763E+10  2.753353E-04  4.440892E-06
         6  11  1.743575E+11 -4.423178E+10  3.557413E+11  1.003045E+10 -1.376677E-04 -1.110223E-05
         6  12  1.851422E+11 -4.502951E+10  3.558158E+11  1.674108E+09 -3.552714E-05 -3.774758E-05
         6  13  1.545139E+11 -4.380405E+10  3.580320E+11  1.138255E+10  2.220446E-06 -4.218847E-05
         6  14  1.632362E+11 -4.490827E+10  3.569472E+11  3.484250E+09  0.000000E+00 -1.221245E-04
         6  15  1.726490E+11 -4.503509E+10  3.562315E+11 -4.856933E+09  4.440892E-06  5.329071E-05
         6  16  1.463247E+11 -4.373422E+10  3.610968E+11  5.444991E+09  2.842171E-04 -2.220446E-05
         6  17  1.536960E+11 -4.416581E+10  3.592346E+11 -2.468152E+09 -1.376677E-04  1.776357E-05
         6  18  1.617307E+11 -4.368053E+10  3.577033E+11 -1.080816E+10  1.031120E-04  1.887379E-05
         6  19  1.643265E+11 -4.239290E+10  3.560401E+11  1.792623E+10 -2.592002E+09  2.423610E+08
         6  20  1.743905E+11 -4.423184E+10  3.557081E+11  1.002955E+10 -2.450944E+09  1.355974E+08
         6  21  1.851728E+11 -4.502978E+10  3.557843E+11  1.673714E+09 -2.306732E+09  2.262612E+07
         6  22  1.545517E+11 -4.380381E+10  3.579951E+11  1.138175E+10 -2.750512E+09  1.538810E+08
         6  23  1.632714E+11 -4.490835E+10  3.569117E+11  3.483933E+09 -2.617446E+09  4.710202E+07
         6  24  1.726817E+11 -4.503544E+10  3.561976E+11 -4.856748E+09 -2.481226E+09 -6.566446E+07
         6  25  1.463647E+11 -4.373390E+10  3.610579E+11  5.444759E+09 -2.902627E+09  7.361434E+07
         6  26  1.537334E+11 -4.416588E+10  3.591969E+11 -2.467916E+09 -2.777188E+09 -3.336558E+07
         6  27  1.617656E+11 -4.368093E+10  3.576671E+11 -1.080743E+10 -2.648606E+09 -1.461164E+08
         7   1  1.403567E+11 -4.353712E+10  3.626124E+11  2.394810E+09  3.005063E+09 -3.237917E+07
         7   2  1.473213E+11 -4.356269E+10  3.604136E+11 -5.453583E+09  2.880496E+09  7.373211E+07
         7   3  1.537827E+11 -4.327428E+10  3.580152E+11 -1.346616E+10  2.761443E+09  1.820630E+08
         7   4  1.290942E+11 -4.323689E+10  3.652424E+11 -2.163766E+09  3.193163E+09  2.925120E+07
         7   5  1.351821E+11 -4.276544E+10  3.623416E+11 -9.674231E+09  3.070994E+09  1.307936E+08
         7   6  1.407898E+11 -4.199912E+10  3.592551E+11 -1.734683E+10  2.954257E+09  2.345279E+08
         7   7  1.192491E+11 -4.181602E+10  3.689744E+11 -6.235341E+09  3.376494E+09  8.429724E+07
         7   8  1.244374E+11 -4.089679E+10  3.653443E+11 -1.342812E+10  3.256554E+09  1.815444E+08
         7   9  1.291687E+11 -3.969954E+10  3.615442E+11 -2.078062E+10  3.141983E+09  2.809509E+08
         7  10  1.403150E+11 -4.353760E+10  3.626525E+11  2.394825E+09 -8.881784E-06  4.440892E-05
         7  11  1.472819E+11 -4.356287E+10  3.604524E+11 -5.453982E+09 -2.664535E-04 -5.218048E-05
         7  12  1.537456E+11 -4.327417E+10  3.580527E+11 -1.346699E+10 -2.109424E-04  2.831069E-05
         7  13  1.290503E+11 -4.323719E+10  3.652853E+11 -2.164228E+09  5.739853E-04  7.549517E-05
         7  14  1.351406E+11 -4.276540E+10  3.623831E+11 -9.675097E+09 -8.548717E-04  1.088019E-04
         7  15  1.407507E+11 -4.199875E+10  3.592954E+11 -1.734812E+10 -2.109424E-04  2.442491E-05
         7  16  1.192031E+11 -4.181616E+10  3.690199E+11 -6.236258E+09 -2.842171E-04 -1.776357E-05
         7  17  1.243939E+11 -4.089654E+10  3.653886E+11 -1.342943E+10  2.731149E-04 -1.110223E-05
         7  18  1.291277E+11 -3.969894E+10  3.615872E+11 -2.078235E+10  6.994405E-05  2.109424E-05
         7  19  1.403567E+11 -4.353712E+10  3.626124E+11  2.394810E+09 -3.005063E+09  3.237917E+07
         7  20  1.473213E+11 -4.356269E+10  3.604136E+11 -5.453583E+09 -2.880496E+09 -7.373211E+07
         7  21  1.537827E+11 -4.327428E+10  3.580152E+11 -1.346616E+10 -2.761443E+09 -1.820630E+08
         7  22  1.290942E+11 -4.323689E+10  3.652424E+11 -2.163766E+09 -3.193163E+09 -2.925120E+07
         7  23  1.351821E+11 -4.276544E+10  3.623416E+11 -9.674231E+09 -3.070994E+09 -1.307936E+08
         7  24  1.407898E+11 -4.199912E+10  3.592551E+11 -1.734683E+10 -2.954257E+09 -2.345279E+08
         7  25  1.192491E+11 -4.181602E+10  3.689744E+11 -6.235341E+09 -3.376494E+09 -8.429724E+07
         7  26  1.244374E+11 -4.089679E+10  3.653443E+11 -1.342812E+10 -3.256554E+09 -1.815444E+08
         7  27  1.291687E+11 -3.969954E+10  3.615442E+11 -2.078062E+10 -3.141983E+09 -2.809509E+08
         8   1  1.155225E+11 -3.921658E+10  3.672934E+11  1.750853E+10  3.404449E+09 -2.367119E+08
         8   2  1.249825E+11 -4.145947E+10  3.652436E+11  1.214009E+10  3.248554E+09 -1.641307E+08
         8   3  1.351557E+11 -4.284712E+10  3.636908E+11  6.409202E+09  3.090269E+09 -8.664946E+07
         8   4  1.064757E+11 -3.998260E+10  3.717829E+11  1.316584E+10  3.587664E+09 -1.780003E+08
         8   5  1.152188E+11 -4.177964E+10  3.690682E+11  7.694639E+09  3.432419E+09 -1.040299E+08
         8   6  1.246469E+11 -4.276514E+10  3.668263E+11  1.874932E+09  3.274963E+09 -2.534758E+07
         8   7  9.828173E+10 -3.984040E+10  3.772027E+11  9.090866E+09  3.771499E+09 -1.229084E+08
         8   8  1.062944E+11 -4.124123E+10  3.737775E+11  3.513403E+09  3.616451E+09 -4.750111E+07
         8   9  1.149650E+11 -4.187165E+10  3.708028E+11 -2.399034E+09  3.459386E+09  3.243502E+07
         8  10  1.154759E+11 -3.921681E+10  3.673392E+11  1.751009E+10  0.000000E+00  4.440892E-06
         8  11  1.249383E+11 -4.145958E+10  3.652874E+11  1.214125E+10 -2.797762E-04 -1.332268E-05
         8  12  1.351138E+11 -4.284715E+10  3.637326E+11  6.409958E+09  4.729550E-04  1.415534E-05
         8  13  1.064269E+11 -3.998272E+10  3.718312E+11  1.316691E+10 -1.110223E-06  2.442491E-05
         8  14  1.151725E+11 -4.177960E+10  3.691146E+11  7.695333E+09  5.706546E-04  1.421085E-04
         8  15  1.246029E+11 -4.276499E+10  3.668707E+11  1.875227E+09 -3.508305E-04  6.661338E-06
         8  16  9.823076E+10 -3.984039E+10  3.772537E+11  9.091484E+09  5.639933E-04 -4.440892E-06
         8  17  1.062459E+11 -4.124104E+10  3.738266E+11  3.513648E+09  8.570922E-04  5.551115E-05
         8  18  1.149190E+11 -4.187132E+10  3.708499E+11 -2.399180E+09 -1.368350E-04 -2.109424E-05
         8  19  1.155225E+11 -3.921658E+10  3.672934E+11  1.750853E+10 -3.404449E+09  2.367119E+08
         8  20  1.249825E+11 -4.145947E+10  3.652436E+11  1.214009E+10 -3.248554E+09  1.641307E+08
         8  21  1.351557E+11 -4.284712E+10  3.636908E+11  6.409202E+09 -3.090269E+09  8.664946E+07
         8  22  1.064757E+11 -3.998260E+10  3.717829E+11  1.316584E+10 -3.587664E+09  1.780003E+08
         8  23  1.152188E+11 -4.177964E+10  3.690682E+11  7.694639E+09 -3.432419E+09  1.040299E+08
         8  24  1.246469E+11 -4.276514E+10  3.668263E+11  1.874932E+09 -3.274963E+09  2.534758E+07
         8  25  9.828173E+10 -3.984040E+10  3.772027E+11  9.090866E+09 -3.771499E+09  1.229084E+08
         8  26  1.062944E+11 -4.124123E+10  3.737775E+11  3.513403E+09 -3.616451E+09  4.750111E+07
         8  27  1.149650E+11 -4.187165E+10  3.708028E+11 -2.399034E+09 -3.459386E+09 -3.243502E+07
         9   1  3.616528E+11 -1.122303E+10  3.948249E+11  1.020137E+10  4.458327E+08 -1.379059E+08
         9   2  3.210384E+11 -2.118527E+10  3.796589E+11  3.391507E+10  7.884472E+08 -4.585147E+08
         9   3  2.979797E+11 -1.730788E+10  3.734562E+11  5.142095E+10  1.017204E+09 -6.951921E+08
         9   4  3.805465E+11  4.467549E+09  4.035537E+11  3.874066E+10  3.061109E+08 -5.237655E+08
         9   5  3.263547E+11 -2.380881E+09  3.837411E+11  6.132931E+10  7.698965E+08 -8.291620E+08
         9   6  2.881099E+11  3.594932E+09  3.723911E+11  7.824201E+10  1.133077E+09 -1.057818E+09
         9   7  4.022466E+11  2.378207E+10  4.131792E+11  6.876798E+10  1.462966E+08 -9.297447E+08
         9   8  3.353493E+11  1.976441E+10  3.887654E+11  9.042037E+10  7.209852E+08 -1.222481E+09
         9   9  2.829526E+11  2.763671E+10  3.723680E+11  1.068899E+11  1.206948E+09 -1.445144E+09
         9  10  3.616446E+11 -1.122393E+10  3.948300E+11  1.020392E+10 -1.421085E-04 -3.996803E-05
         9  11  3.210240E+11 -2.118686E+10  3.796680E+11  3.391927E+10 -2.797762E-04 -4.218847E-05
         9  12  2.979590E+11 -1.731085E+10  3.734671E+11  5.142662E+10 -3.630429E-04  1.984524E-05
         9  13  3.805439E+11  4.468217E+09  4.035586E+11  3.874437E+10  2.220446E-06  0.000000E+00
         9  14  3.263460E+11 -2.380083E+09  3.837523E+11  6.133478E+10 -5.728751E-04 -1.776357E-05
         9  15  2.880953E+11  3.595276E+09  3.724068E+11  7.824906E+10  1.487699E-04 -2.220446E-05
         9  16  4.022489E+11  2.378394E+10  4.131830E+11  6.877282E+10  2.753353E-04  0.000000E+00
         9  17  3.353459E+11  1.976715E+10  3.887779E+11  9.042705E+10 -2.087219E-04 -8.881784E-06
         9  18  2.829435E+11  2.763983E+10  3.723875E+11  1.068983E+11 -1.261144E-04 -8.881784E-06
         9  19  3.616528E+11 -1.122303E+10  3.948249E+11  1.020137E+10 -4.458327E+08  1.379059E+08
         9  20  3.210384E+11 -2.118527E+10  3.796589E+11  3.391507E+10 -7.884472E+08  4.585147E+08
         9  21  2.979797E+11 -1.730788E+10  3.734562E+11  5.142095E+10 -1.017204E+09  6.951921E+08
         9  22  3.805465E+11  4.467549E+09  4.035537E+11  3.874066E+10 -3.061109E+08  5.237655E+08
         9  23  3.263547E+11 -2.380881E+09  3.837411E+11  6.132931E+10 -7.698965E+08  8.291620E+08
         9  24  2.881099E+11  3.594932E+09  3.723911E+11  7.824201E+10 -1.133077E+09  1.057818E+09
         9  25  4.022466E+11  2.378207E+10  4.131792E+11  6.876798E+10 -1.462966E+08  9.297447E+08
         9  26  3.353493E+11  1.976441E+10  3.887654E+11  9.042037E+10 -7.209852E+08  1.222481E+09
         9  27  2.829526E+11  2.763671E+10  3.723680E+11  1.068899E+11 -1.206948E+09  1.445144E+09
        10   1  2.764906E+11 -1.539458E+10  3.671611E+11  5.688034E+10  1.223831E+09 -7.690012E+08
        10   2  2.361145E+11 -1.523712E+10  3.545202E+11  6.454706E+10  1.599837E+09 -8.726557E+08
        10   3  2.073902E+11 -1.287018E+10  3.462331E+11  7.003239E+10  1.876084E+09 -9.468151E+08
        10   4  2.636606E+11  5.152888E+09  3.645087E+11  8.155624E+10  1.358276E+09 -1.102633E+09
        10   5  2.210918E+11  3.805590E+09  3.499438E+11  8.116482E+10  1.739391E+09 -1.097338E+09
        10   6  1.894112E+11  4.697612E+09  3.398238E+11  7.864724E+10  2.030590E+09 -1.063295E+09
        10   7  2.390849E+11  2.176697E+10  3.558620E+11  1.038274E+11  1.578071E+09 -1.403751E+09
        10   8  1.948406E+11  1.938898E+10  3.399157E+11  9.584328E+10  1.963404E+09 -1.295799E+09
        10   9  1.608115E+11  1.930096E+10  3.285359E+11  8.579648E+10  2.267859E+09 -1.159958E+09
        10  10  2.764675E+11 -1.539738E+10  3.671749E+11  5.688663E+10  2.842171E-04  0.000000E+00
        10  11  2.360887E+11 -1.523889E+10  3.545401E+11  6.455385E+10  1.421085E-04  8.881784E-06
        10  12  2.073619E+11 -1.287144E+10  3.462572E+11  7.003979E+10 -3.286260E-04  9.571337E-06
        10  13  2.636400E+11  5.151956E+09  3.645262E+11  8.156285E+10 -5.662137E-04 -2.220446E-05
        10  14  2.210687E+11  3.805765E+09  3.499675E+11  8.117175E+10 -2.864375E-04  2.553513E-05
        10  15  1.893857E+11  4.698457E+09  3.398522E+11  7.865459E+10  5.750955E-04 -2.109424E-05
        10  16  2.390663E+11  2.176813E+10  3.558845E+11  1.038344E+11 -1.465494E-04  8.881784E-06
        10  17  1.948196E+11  1.939135E+10  3.399446E+11  9.585038E+10  7.549517E-05  1.776357E-05
        10  18  1.607883E+11  1.930416E+10  3.285697E+11  8.580383E+10 -2.658984E-04  2.220446E-06
        10  19  2.764906E+11 -1.539458E+10  3.671611E+11  5.688034E+10 -1.223831E+09  7.690012E+08
        10  20  2.361145E+11 -1.523712E+10  3.545202E+11  6.454706E+10 -1.599837E+09  8.726557E+08
        10  21  2.073902E+11 -1.287018E+10  3.462331E+11  7.003239E+10 -1.876084E+09  9.468151E+08
        10  22  2.636606E+11  5.152888E+09  3.645087E+11  8.155624E+10 -1.358276E+09  1.102633E+09
        10  23  2.210918E+11  3.805590E+09  3.499438E+11  8.116482E+10 -1.739391E+09  1.097338E+09
        10  24  1.894112E+11  4.697612E+09  3.398238E+11  7.864724E+10 -2.030590E+09  1.063295E+09
        10  25  2.390849E+11  2.176697E+10  3.558620E+11  1.038274E+11 -1.578071E+09  1.403751E+09
        10  26  1.948406E+11  1.938898E+10  3.399157E+11  9.584328E+10 -1.963404E+09  1.295799E+09
        10  27  1.608115E+11  1.930096E+10  3.285359E+11  8.579648E+10 -2.267859E+09  1.159958E+09
        11   1  2.151216E+11  3.358866E+10  3.479687E+11  1.145873E+11  1.795487E+09 -1.549195E+09
        11   2  1.762839E+11  3.192778E+10  3.336633E+11  1.023189E+11  2.130592E+09 -1.383326E+09
        11   3  1.417449E+11  3.191025E+10  3.220888E+11  8.914590E+10  2.439288E+09 -1.205226E+09
        11   4  1.769742E+11  7.657237E+10  3.410697E+11  1.142812E+11  2.214535E+09 -1.545078E+09
        11   5  1.442236E+11  6.513520E+10  3.256593E+11  9.990532E+10  2.453847E+09 -1.350710E+09
        11   6  1.156780E+11  5.507806E+10  3.130335E+11  8.470669E+10  2.667950E+09 -1.145217E+09
        11   7  1.188852E+11  1.016201E+11  3.215986E+11  1.067463E+11  2.740870E+09 -1.443226E+09
        11   8  9.192811E+10  8.064938E+10  3.054554E+11  9.020138E+10  2.891278E+09 -1.219527E+09
        11   9  6.908974E+10  6.082938E+10  2.921738E+11  7.290760E+10  3.017835E+09 -9.857027E+08
        11  10  2.150874E+11  3.358443E+10  3.479887E+11  1.145982E+11 -1.421085E-04 -4.440892E-06
        11  11  1.762508E+11  3.192590E+10  3.336902E+11  1.023291E+11 -4.929390E-04 -1.110223E-05
        11  12  1.417130E+11  3.191069E+10  3.221222E+11  8.915540E+10 -1.831868E-04 -6.245005E-07
        11  13  1.769392E+11  7.657025E+10  3.410976E+11  1.142902E+11  0.000000E+00 -1.110223E-06
        11  14  1.441896E+11  6.513487E+10  3.256921E+11  9.991399E+10  5.706546E-04  1.110223E-05
        11  15  1.156453E+11  5.507951E+10  3.130711E+11  8.471502E+10  7.327472E-05  2.220446E-06
        11  16  1.188492E+11  1.016205E+11  3.216361E+11  1.067530E+11  0.000000E+00  0.000000E+00
        11  17  9.189315E+10  8.065113E+10  3.054962E+11  9.020815E+10 -2.109424E-04  2.220446E-06
        11  18  6.905610E+10  6.083244E+10  2.922177E+11  7.291441E+10  2.285325E-04 -1.276756E-05
        11  19  2.151216E+11  3.358866E+10  3.479687E+11  1.145873E+11 -1.795487E+09  1.549195E+09
        11  20  1.762839E+11  3.192778E+10  3.336633E+11  1.023189E+11 -2.130592E+09  1.383326E+09
        11  21  1.417449E+11  3.191025E+10  3.220888E+11  8.914590E+10 -2.439288E+09  1.205226E+09
        11  22  1.769742E+11  7.657237E+10  3.410697E+11  1.142812E+11 -2.214535E+09  1.545078E+09
        11  23  1.442236E+11  6.513520E+10  3.256593E+11  9.990532E+10 -2.453847E+09  1.350710E+09
        11  24  1.156780E+11  5.507806E+10  3.130335E+11  8.470669E+10 -2.667950E+09  1.145217E+09
        11  25  1.188852E+11  1.016201E+11  3.215986E+11  1.067463E+11 -2.740870E+09  1.443226E+09
        11  26  9.192811E+10  8.064938E+10  3.054554E+11  9.020138E+10 -2.891278E+09  1.219527E+09
        11  27  6.908974E+10  6.082938E+10  2.921738E+11  7.290760E+10 -3.017835E+09  9.857027E+08
        12   1  4.175663E+11  4.125202E+10  4.210188E+11  9.808851E+10  4.169931E+07 -1.326118E+09
        12   2  3.159152E+11  3.841022E+10  3.853143E+11  1.144837E+11  9.365475E+08 -1.547786E+09
        12   3  2.570973E+11  4.031073E+10  3.643970E+11  1.224261E+11  1.448836E+09 -1.655162E+09
        12   4  3.869503E+11  1.040990E+11  4.249932E+11  1.601511E+11  5.026723E+08 -2.165243E+09
        12   5  2.760193E+11  8.879324E+10  3.808757E+11  1.472386E+11  1.414413E+09 -1.990659E+09
        12   6  2.055613E+11  7.857915E+10  3.520865E+11  1.260730E+11  1.976683E+09 -1.704482E+09
        12   7  3.235101E+11  1.549552E+11  4.123245E+11  2.127608E+11  1.200232E+09 -2.876560E+09
        12   8  2.051272E+11  1.290904E+11  3.617395E+11  1.720514E+11  2.126261E+09 -2.326149E+09
        12   9  1.251089E+11  1.087182E+11  3.271045E+11  1.233107E+11  2.733642E+09 -1.667146E+09
        12  10  4.175503E+11  4.124543E+10  4.210129E+11  9.809985E+10  1.421085E-04 -3.108624E-05
        12  11  3.158948E+11  3.840696E+10  3.853237E+11  1.144957E+11  4.307665E-04 -2.220446E-06
        12  12  2.570733E+11  4.030886E+10  3.644148E+11  1.224392E+11  7.438494E-05  3.712308E-06
        12  13  3.869371E+11  1.040963E+11  4.249975E+11  1.601626E+11  5.662137E-04  1.776357E-05
        12  14  2.760019E+11  8.879400E+10  3.808956E+11  1.472502E+11 -5.684342E-04  8.881784E-06
        12  15  2.055405E+11  7.858170E+10  3.521159E+11  1.260852E+11 -3.552714E-04 -2.220446E-06
        12  16  3.234987E+11  1.549572E+11  4.123429E+11  2.127725E+11 -4.440892E-06  1.776357E-05
        12  17  2.051118E+11  1.290961E+11  3.617738E+11  1.720627E+11 -3.663736E-04  8.881784E-06
        12  18  1.250903E+11  1.087261E+11  3.271493E+11  1.233220E+11 -8.784640E-05 -1.554312E-05
        12  19  4.175663E+11  4.125202E+10  4.210188E+11  9.808851E+10 -4.169931E+07  1.326118E+09
        12  20  3.159152E+11  3.841022E+10  3.853143E+11  1.144837E+11 -9.365475E+08  1.547786E+09
        12  21  2.570973E+11  4.031073E+10  3.643970E+11  1.224261E+11 -1.448836E+09  1.655162E+09
        12  22  3.869503E+11  1.040990E+11  4.249932E+11  1.601511E+11 -5.026723E+08  2.165243E+09
        12  23  2.760193E+11  8.879324E+10  3.808757E+11  1.472386E+11 -1.414413E+09  1.990659E+09
        12  24  2.055613E+11  7.857915E+10  3.520865E+11  1.260730E+11 -1.976683E+09  1.704482E+09
        12  25  3.235101E+11  1.549552E+11  4.123245E+11  2.127608E+11 -1.200232E+09  2.876560E+09
        12  26  2.051272E+11  1.290904E+11  3.617395E+11  1.720514E+11 -2.126261E+09  2.326149E+09
        12  27  1.251089E+11  1.087182E+11  3.271045E+11  1.233107E+11 -2.733642E+09  1.667146E+09
        13   1  4.636635E+09 -2.967966E+10  4.411222E+11  2.459460E+09  5.902894E+09 -3.325450E+07
        13   2  3.243606E+09 -2.219633E+10  4.418198E+11  2.031993E+09  5.931207E+09 -2.747506E+07
        13   3  3.106006E+09 -1.417482E+10  4.430803E+11  1.737479E+09  5.950018E+09 -2.349309E+07
        13   4  1.630937E+10 -2.422997E+10  4.287266E+11  7.675201E+09  5.578361E+09 -1.037696E+08
        13   5  1.425249E+10 -1.829711E+10  4.302626E+11  6.802600E+09  5.627044E+09 -9.197174E+07
        13   6  1.372157E+10 -1.179620E+10  4.324903E+11  6.243001E+09  5.664129E+09 -8.440548E+07
        13   7  2.706739E+10 -1.967575E+10  4.171134E+11  1.221945E+10  5.275004E+09 -1.652060E+08
        13   8  2.380859E+10 -1.615935E+10  4.188964E+11  1.067598E+10  5.343404E+09 -1.443378E+08
        13   9  2.229776E+10 -1.223608E+10  4.214390E+11  9.610090E+09  5.397950E+09 -1.299260E+08
        13  10  4.558202E+09 -2.967907E+10  4.412026E+11  2.459656E+09 -2.842171E-04 -1.221245E-05
        13  11  3.165016E+09 -2.219564E+10  4.419007E+11  2.032174E+09  1.465494E-04  5.551115E-06
        13  12  3.027227E+09 -1.417411E+10  4.431615E+11  1.737658E+09  1.243450E-04  3.330669E-06
        13  13  1.623378E+10 -2.423005E+10  4.288019E+11  7.675850E+09  2.220446E-06  2.220446E-06
        13  14  1.417652E+10 -1.829708E+10  4.303387E+11  6.803231E+09  2.819966E-04 -2.220446E-06
        13  15  1.364518E+10 -1.179613E+10  4.325669E+11  6.243648E+09  1.487699E-04  2.220446E-06
        13  16  2.699457E+10 -1.967640E+10  4.171841E+11  1.222053E+10 -2.708944E-04  2.220446E-06
        13  17  2.373518E+10 -1.615986E+10  4.189681E+11  1.067704E+10 -1.332268E-04  4.440892E-06
        13  18  2.222372E+10 -1.223654E+10  4.215115E+11  9.611173E+09 -4.293788E-04 -1.942890E-06
        13  19  4.636635E+09 -2.967966E+10  4.411222E+11  2.459460E+09 -5.902894E+09  3.325450E+07
        13  20  3.243606E+09 -2.219633E+10  4.418198E+11  2.031993E+09 -5.931207E+09  2.747506E+07
        13  21  3.106006E+09 -1.417482E+10  4.430803E+11  1.737479E+09 -5.950018E+09  2.349309E+07
        13  22  1.630937E+10 -2.422997E+10  4.287266E+11  7.675201E+09 -5.578361E+09  1.037696E+08
        13  23  1.425249E+10 -1.829711E+10  4.302626E+11  6.802600E+09 -5.627044E+09  9.197174E+07
        13  24  1.372157E+10 -1.179620E+10  4.324903E+11  6.243001E+09 -5.664129E+09  8.440548E+07
        13  25  2.706739E+10 -1.967575E+10  4.171134E+11  1.221945E+10 -5.275004E+09  1.652060E+08
        13  26  2.380859E+10 -1.615935E+10  4.188964E+11  1.067598E+10 -5.343404E+09  1.443378E+08
        13  27  2.229776E+10 -1.223608E+10  4.214390E+11  9.610090E+09 -5.397950E+09  1.299260E+08
        14   1  4.002395E+09 -8.018384E+09  4.445697E+11  1.902081E+09  5.958426E+09 -2.572071E+07
        14   2  2.599432E+09 -2.377358E+09  4.449516E+11  1.037053E+09  5.983177E+09 -1.402296E+07
        14   3  2.729988E+09  3.977712E+09  4.462793E+11  7.343310E+08  5.998563E+09 -9.927367E+06
        14   4  1.231807E+10 -9.522740E+09  4.330478E+11  5.189369E+09  5.690844E+09 -7.016297E+07
        14   5  1.019993E+10 -4.962247E+09  4.344693E+11  3.433647E+09  5.739069E+09 -4.642350E+07
        14   6  8.911726E+09 -1.282658E+08  4.364524E+11  2.186302E+09  5.782491E+09 -2.955709E+07
        14   7  2.109446E+10 -9.757326E+09  4.229425E+11  8.409231E+09  5.434666E+09 -1.136934E+08
        14   8  1.849431E+10 -6.149400E+09  4.253346E+11  5.828533E+09  5.502554E+09 -7.880079E+07
        14   9  1.591541E+10 -2.760166E+09  4.278717E+11  3.708527E+09  5.571179E+09 -5.013660E+07
        14  10  3.922793E+09 -8.017981E+09  4.446506E+11  1.902007E+09 -2.753353E-04 -2.220446E-06
        14  11  2.519735E+09 -2.376856E+09  4.450329E+11  1.037158E+09  5.861978E-04 -1.776357E-05
        14  12  2.650204E+09  3.978271E+09  4.463610E+11  7.346672E+08 -1.842970E-04 -1.942890E-05
        14  13  1.224061E+10 -9.522973E+09  4.331245E+11  5.189652E+09  1.143530E-03 -1.776357E-05
        14  14  1.012214E+10 -4.962344E+09  4.345468E+11  3.434015E+09 -5.739853E-04  3.552714E-05
        14  15  8.833594E+09 -1.282531E+08  4.365306E+11  2.186806E+09 -4.979350E-04  2.220446E-06
        14  16  2.101910E+10 -9.758142E+09  4.230152E+11  8.409891E+09 -2.753353E-04  8.881784E-06
        14  17  1.841839E+10 -6.150059E+09  4.254083E+11  5.829184E+09 -1.123546E-03  4.440892E-06
        14  18  1.583891E+10 -2.760677E+09  4.279465E+11  3.709215E+09  4.285461E-04 -7.216450E-06
        14  19  4.002395E+09 -8.018384E+09  4.445697E+11  1.902081E+09 -5.958426E+09  2.572071E+07
        14  20  2.599432E+09 -2.377358E+09  4.449516E+11  1.037053E+09 -5.983177E+09  1.402296E+07
        14  21  2.729988E+09  3.977712E+09  4.462793E+11  7.343310E+08 -5.998563E+09  9.927367E+06
        14  22  1.231807E+10 -9.522740E+09  4.330478E+11  5.189369E+09 -5.690844E+09  7.016297E+07
        14  23  1.019993E+10 -4.962247E+09  4.344693E+11  3.433647E+09 -5.739069E+09  4.642350E+07
        14  24  8.911726E+09 -1.282658E+08  4.364524E+11  2.186302E+09 -5.782491E+09  2.955709E+07
        14  25  2.109446E+10 -9.757326E+09  4.229425E+11  8.409231E+09 -5.434666E+09  1.136934E+08
        14  26  1.849431E+10 -6.149400E+09  4.253346E+11  5.828533E+09 -5.502554E+09  7.880079E+07
        14  27  1.591541E+10 -2.760166E+09  4.278717E+11  3.708527E+09 -5.571179E+09  5.013660E+07
        15   1  2.475895E+10 -9.431538E+09  4.171487E+11  9.132490E+09  5.306578E+09 -1.234730E+08
        15   2  2.125415E+10 -6.794472E+09  4.197165E+11  6.749539E+09  5.389053E+09 -9.125398E+07
        15   3  1.859111E+10 -3.774980E+09  4.228518E+11  4.347756E+09  5.466987E+09 -5.878019E+07
        15   4  2.998117E+10 -9.514502E+09  4.072414E+11  1.022837E+10  5.102435E+09 -1.382878E+08
        15   5  2.635814E+10 -7.270960E+09  4.108135E+11  7.751083E+09  5.199942E+09 -1.047934E+08
        15   6  2.301103E+10 -5.007827E+09  4.146836E+11  5.341027E+09  5.297045E+09 -7.220763E+07
        15   7  3.523206E+10 -8.909436E+09  3.982221E+11  1.112567E+10  4.908926E+09 -1.504173E+08
        15   8  3.170484E+10 -7.143182E+09  4.027142E+11  8.626175E+09  5.017599E+09 -1.166225E+08
        15   9  2.771630E+10 -5.971958E+09  4.071156E+11  6.390236E+09  5.130711E+09 -8.639052E+07
        15  10  2.468765E+10 -9.431352E+09  4.172206E+11  9.133046E+09  2.842171E-04  1.665335E-05
        15  11  2.118206E+10 -6.794148E+09  4.197897E+11  6.750102E+09 -1.421085E-04  2.997602E-05
        15  12  1.851813E+10 -3.774585E+09  4.229261E+11  4.348341E+09  3.108624E-05  2.553513E-05
        15  13  2.991177E+10 -9.514686E+09  4.073101E+11  1.022914E+10  5.662137E-04  3.552714E-05
        15  14  2.628777E+10 -7.270997E+09  4.108837E+11  7.751856E+09 -1.132427E-03  4.440892E-05
        15  15  2.293953E+10 -5.007783E+09  4.147553E+11  5.341838E+09 -4.984901E-04  6.661338E-06
        15  16  3.516457E+10 -8.909919E+09  3.982880E+11  1.112670E+10 -2.842171E-04 -3.552714E-05
        15  17  3.163622E+10 -7.143521E+09  4.027817E+11  8.627213E+09 -7.105427E-04 -4.884981E-05
        15  18  2.764630E+10 -5.972229E+09  4.071847E+11  6.391368E+09 -1.709743E-04  1.332268E-05
        15  19  2.475895E+10 -9.431538E+09  4.171487E+11  9.132490E+09 -5.306578E+09  1.234730E+08
        15  20  2.125415E+10 -6.794472E+09  4.197165E+11  6.749539E+09 -5.389053E+09  9.125398E+07
        15  21  1.859111E+10 -3.774980E+09  4.228518E+11  4.347756E+09 -5.466987E+09  5.878019E+07
        15  22  2.998117E+10 -9.514502E+09  4.072414E+11  1.022837E+10 -5.102435E+09  1.382878E+08
        15  23  2.635814E+10 -7.270960E+09  4.108135E+11  7.751083E+09 -5.199942E+09  1.047934E+08
        15  24  2.301103E+10 -5.007827E+09  4.146836E+11  5.341027E+09 -5.297045E+09  7.220763E+07
        15  25  3.523206E+10 -8.909436E+09  3.982221E+11  1.112567E+10 -4.908926E+09  1.504173E+08
        15  26  3.170484E+10 -7.143182E+09  4.027142E+11  8.626175E+09 -5.017599E+09  1.166225E+08
        15  27  2.771630E+10 -5.971958E+09  4.071156E+11  6.390236E+09 -5.130711E+09  8.639052E+07
        16   1  3.291643E+10 -1.783952E+10  4.105607E+11  1.444504E+10  5.107196E+09 -1.952966E+08
        16   2  2.944613E+10 -1.511941E+10  4.127472E+11  1.252737E+10  5.183918E+09 -1.693691E+08
        16   3  2.658597E+10 -1.201021E+10  4.153698E+11  1.047394E+10  5.257753E+09 -1.416061E+08
        16   4  3.901600E+10 -1.513200E+10  3.988548E+11  1.606313E+10  4.867060E+09 -2.171719E+08
        16   5  3.544055E+10 -1.288156E+10  4.019682E+11  1.401094E+10  4.957684E+09 -1.894254E+08
        16   6  3.244369E+10 -1.032514E+10  4.055135E+11  1.188053E+10  5.045790E+09 -1.606215E+08
        16   7  4.446805E+10 -1.242464E+10  3.879557E+11  1.729030E+10  4.645294E+09 -2.337614E+08
        16   8  4.054689E+10 -1.113800E+10  3.916450E+11  1.496315E+10  4.748436E+09 -2.022974E+08
        16   9  3.709730E+10 -9.816984E+09  3.956885E+11  1.258261E+10  4.849461E+09 -1.701113E+08
        16  10  3.284785E+10 -1.783932E+10  4.106299E+11  1.444616E+10  0.000000E+00  3.330669E-06
        16  11  2.937694E+10 -1.511903E+10  4.128176E+11  1.252844E+10 -4.307665E-04  2.265549E-05
        16  12  2.651614E+10 -1.200968E+10  4.154414E+11  1.047497E+10 -1.509903E-04 -1.276756E-05
        16  13  3.894978E+10 -1.513219E+10  3.989204E+11  1.606448E+10 -5.773160E-04  4.440892E-06
        16  14  3.537357E+10 -1.288155E+10  4.020352E+11  1.401225E+10  2.864375E-04 -2.220446E-05
        16  15  3.237590E+10 -1.032497E+10  4.055819E+11  1.188181E+10 -4.263256E-04  2.220446E-05
        16  16  4.440414E+10 -1.242512E+10  3.880180E+11  1.729189E+10  1.139089E-03 -4.440892E-06
        16  17  4.048209E+10 -1.113827E+10  3.917089E+11  1.496471E+10 -2.875478E-04 -2.220446E-06
        16  18  3.703155E+10 -9.817067E+09  3.957539E+11  1.258416E+10  2.126077E-04 -3.830269E-05
        16  19  3.291643E+10 -1.783952E+10  4.105607E+11  1.444504E+10 -5.107196E+09  1.952966E+08
        16  20  2.944613E+10 -1.511941E+10  4.127472E+11  1.252737E+10 -5.183918E+09  1.693691E+08
        16  21  2.658597E+10 -1.201021E+10  4.153698E+11  1.047394E+10 -5.257753E+09  1.416061E+08
        16  22  3.901600E+10 -1.513200E+10  3.988548E+11  1.606313E+10 -4.867060E+09  2.171719E+08
        16  23  3.544055E+10 -1.288156E+10  4.019682E+11  1.401094E+10 -4.957684E+09  1.894254E+08
        16  24  3.244369E+10 -1.032514E+10  4.055135E+11  1.188053E+10 -5.045790E+09  1.606215E+08
        16  25  4.446805E+10 -1.242464E+10  3.879557E+11  1.729030E+10 -4.645294E+09  2.337614E+08
        16  26  4.054689E+10 -1.113800E+10  3.916450E+11  1.496315E+10 -4.748436E+09  2.022974E+08
        16  27  3.709730E+10 -9.816984E+09  3.956885E+11  1.258261E+10 -4.849461E+09  1.701113E+08
        17   1  2.645185E+10  7.131217E+08  3.991440E+11 -7.724785E+08  5.040232E+09  1.044372E+07
        17   2  3.325608E+10 -8.923487E+06  3.869228E+11  7.015088E+07  4.783863E+09 -9.482263E+05
        17   3  4.076502E+10  1.074257E+08  3.762688E+11  1.259156E+09  4.537523E+09 -1.702336E+07
        17   4  2.518883E+10 -1.167380E+09  3.995542E+11  9.834894E+07  5.062834E+09 -1.330287E+06
        17   5  3.148979E+10 -1.476045E+09  3.889271E+11  1.844695E+09  4.834828E+09 -2.494117E+07
        17   6  3.832180E+10 -1.210866E+09  3.795031E+11  3.596171E+09  4.614584E+09 -4.862139E+07
        17   7  2.673702E+10 -1.777122E+09  4.012295E+11  1.209955E+09  5.064354E+09 -1.635968E+07
        17   8  3.149417E+10 -2.058705E+09  3.918575E+11  3.863991E+09  4.873886E+09 -5.224326E+07
        17   9  3.686729E+10 -1.948041E+09  3.834420E+11  6.103821E+09  4.687027E+09 -8.252647E+07
        17  10  2.638508E+10  7.137056E+08  3.992127E+11 -7.724642E+08 -7.771561E-06  0.000000E+00
        17  11  3.319143E+10 -8.920847E+06  3.869875E+11  7.024348E+07 -5.684342E-04  2.664535E-05
        17  12  4.070242E+10  1.068809E+08  3.763296E+11  1.259331E+09 -3.519407E-04 -3.552714E-05
        17  13  2.512179E+10 -1.166778E+09  3.996232E+11  9.837334E+07  5.573320E-04 -3.830269E-05
        17  14  3.142463E+10 -1.475962E+09  3.889925E+11  1.844787E+09 -5.684342E-04  3.885781E-05
        17  15  3.825847E+10 -1.211277E+09  3.795650E+11  3.596337E+09  3.508305E-04  5.551115E-06
        17  16  2.666974E+10 -1.776614E+09  4.012984E+11  1.210000E+09 -1.110223E-06 -3.552714E-05
        17  17  3.142853E+10 -2.058604E+09  3.919235E+11  3.864089E+09 -4.261869E-04 -5.329071E-05
        17  18  3.680323E+10 -1.948339E+09  3.835050E+11  6.103979E+09 -5.317968E-04  1.110223E-05
        17  19  2.645185E+10  7.131217E+08  3.991440E+11 -7.724785E+08 -5.040232E+09 -1.044372E+07
        17  20  3.325608E+10 -8.923487E+06  3.869228E+11  7.015088E+07 -4.783863E+09  9.482263E+05
        17  21  4.076502E+10  1.074257E+08  3.762688E+11  1.259156E+09 -4.537523E+09  1.702336E+07
        17  22  2.518883E+10 -1.167380E+09  3.995542E+11  9.834894E+07 -5.062834E+09  1.330287E+06
        17  23  3.148979E+10 -1.476045E+09  3.889271E+11  1.844695E+09 -4.834828E+09  2.494117E+07
        17  24  3.832180E+10 -1.210866E+09  3.795031E+11  3.596171E+09 -4.614584E+09  4.862139E+07
        17  25  2.673702E+10 -1.777122E+09  4.012295E+11  1.209955E+09 -5.064354E+09  1.635968E+07
        17  26  3.149417E+10 -2.058705E+09  3.918575E+11  3.863991E+09 -4.873886E+09  5.224326E+07
        17  27  3.686729E+10 -1.948041E+09  3.834420E+11  6.103821E+09 -4.687027E+09  8.252647E+07
        18   1  4.229802E+10 -1.076278E+08  3.695900E+11  1.559569E+09  4.426206E+09 -2.108167E+07
        18   2  4.297026E+10 -1.117441E+08  3.582504E+11  1.869499E+09  4.264139E+09 -2.527190E+07
        18   3  4.419760E+10  7.048844E+08  3.480440E+11  2.825459E+09  4.109309E+09 -3.819682E+07
        18   4  4.076034E+10 -6.671089E+08  3.740417E+11  4.804617E+09  4.507684E+09 -6.495646E+07
        18   5  4.245625E+10 -1.343065E+09  3.639456E+11  6.027989E+09  4.348742E+09 -8.149682E+07
        18   6  4.466701E+10 -9.131608E+08  3.549475E+11  7.829740E+09  4.197039E+09 -1.058572E+08
        18   7  3.932686E+10 -1.881773E+09  3.786256E+11  7.610813E+09  4.588613E+09 -1.028982E+08
        18   8  4.211968E+10 -3.046622E+09  3.699638E+11  9.890787E+09  4.434147E+09 -1.337242E+08
        18   9  4.539360E+10 -2.777531E+09  3.623866E+11  1.264381E+10  4.287138E+09 -1.709461E+08
        18  10  4.223872E+10 -1.074027E+08  3.696500E+11  1.560116E+09 -2.764455E-04 -8.881784E-06
        18  11  4.291263E+10 -1.117405E+08  3.583080E+11  1.870061E+09  5.684342E-04 -4.440892E-06
        18  12  4.414158E+10  7.046797E+08  3.480993E+11  2.826039E+09 -6.827872E-04 -1.082467E-05
        18  13  4.070016E+10 -6.667894E+08  3.741029E+11  4.805189E+09 -5.750955E-04  3.996803E-05
        18  14  4.239760E+10 -1.343012E+09  3.640044E+11  6.028591E+09  1.136868E-03 -5.329071E-05
        18  15  4.460983E+10 -9.133531E+08  3.550041E+11  7.830376E+09  5.662137E-04  2.442491E-05
        18  16  3.926579E+10 -1.881363E+09  3.786880E+11  7.611363E+09  5.739853E-04  8.881784E-06
        18  17  4.205999E+10 -3.046513E+09  3.700238E+11  9.891395E+09  1.412759E-04 -3.108624E-05
        18  18  4.533526E+10 -2.777697E+09  3.624444E+11  1.264448E+10  2.886580E-05 -2.442491E-05
        18  19  4.229802E+10 -1.076278E+08  3.695900E+11  1.559569E+09 -4.426206E+09  2.108167E+07
        18  20  4.297026E+10 -1.117441E+08  3.582504E+11  1.869499E+09 -4.264139E+09  2.527190E+07
        18  21  4.419760E+10  7.048844E+08  3.480440E+11  2.825459E+09 -4.109309E+09  3.819682E+07
        18  22  4.076034E+10 -6.671089E+08  3.740417E+11  4.804617E+09 -4.507684E+09  6.495646E+07
        18  23  4.245625E+10 -1.343065E+09  3.639456E+11  6.027989E+09 -4.348742E+09  8.149682E+07
        18  24  4.466701E+10 -9.131608E+08  3.549475E+11  7.829740E+09 -4.197039E+09  1.058572E+08
        18  25  3.932686E+10 -1.881773E+09  3.786256E+11  7.610813E+09 -4.588613E+09  1.028982E+08
        18  26  4.211968E+10 -3.046622E+09  3.699638E+11  9.890787E+09 -4.434147E+09  1.337242E+08
        18  27  4.539360E+10 -2.777531E+09  3.623866E+11  1.264381E+10 -4.287138E+09  1.709461E+08
        19   1  3.884667E+10 -3.646325E+09  3.812175E+11  8.797991E+09  4.630032E+09 -1.189448E+08
        19   2  4.235072E+10 -4.040612E+09  3.737848E+11  1.145067E+10  4.482507E+09 -1.548094E+08
        19   3  4.597932E+10 -4.246743E+09  3.668935E+11  1.423957E+10  4.339920E+09 -1.925160E+08
        19   4  3.885136E+10 -5.823558E+09  3.863697E+11  1.069221E+10  4.699907E+09 -1.445557E+08
        19   5  4.247399E+10 -6.579812E+09  3.802904E+11  1.327069E+10  4.569078E+09 -1.794172E+08
        19   6  4.614844E+10 -7.157968E+09  3.746164E+11  1.594913E+10  4.442402E+09 -2.156303E+08
        19   7  3.809224E+10 -8.541975E+09  3.913819E+11  1.228065E+10  4.777632E+09 -1.660324E+08
        19   8  4.185585E+10 -9.591434E+09  3.867806E+11  1.479610E+10  4.664814E+09 -2.000418E+08
        19   9  4.561251E+10 -1.045576E+10  3.824718E+11  1.736454E+10  4.555495E+09 -2.347676E+08
        19  10  3.878468E+10 -3.646066E+09  3.812804E+11  8.799076E+09 -4.440892E-06  0.000000E+00
        19  11  4.228997E+10 -4.040677E+09  3.738453E+11  1.145187E+10  0.000000E+00 -8.881784E-06
        19  12  4.591979E+10 -4.247111E+09  3.669518E+11  1.424088E+10  1.059153E-03  2.831069E-05
        19  13  3.878862E+10 -5.823218E+09  3.864336E+11  1.069331E+10  5.684342E-04 -8.881784E-06
        19  14  4.241228E+10 -6.579792E+09  3.803521E+11  1.327190E+10 -2.886580E-04 -1.776357E-05
        19  15  4.608774E+10 -7.158247E+09  3.746761E+11  1.595044E+10  8.659740E-04  1.332268E-05
        19  16  3.802876E+10 -8.541501E+09  3.914470E+11  1.228175E+10 -2.664535E-04  1.776357E-05
        19  17  4.179316E+10 -9.591276E+09  3.868439E+11  1.479731E+10  5.739853E-04 -3.996803E-05
        19  18  4.555061E+10 -1.045589E+10  3.825332E+11  1.736585E+10 -2.464695E-04 -1.665335E-05
        19  19  3.884667E+10 -3.646325E+09  3.812175E+11  8.797991E+09 -4.630032E+09  1.189448E+08
        19  20  4.235072E+10 -4.040612E+09  3.737848E+11  1.145067E+10 -4.482507E+09  1.548094E+08
        19  21  4.597932E+10 -4.246743E+09  3.668935E+11  1.423957E+10 -4.339920E+09  1.925160E+08
        19  22  3.885136E+10 -5.823558E+09  3.863697E+11  1.069221E+10 -4.699907E+09  1.445557E+08
        19  23  4.247399E+10 -6.579812E+09  3.802904E+11  1.327069E+10 -4.569078E+09  1.794172E+08
        19  24  4.614844E+10 -7.157968E+09  3.746164E+11  1.594913E+10 -4.442402E+09  2.156303E+08
        19  25  3.809224E+10 -8.541975E+09  3.913819E+11  1.228065E+10 -4.777632E+09  1.660324E+08
        19  26  4.185585E+10 -9.591434E+09  3.867806E+11  1.479610E+10 -4.664814E+09  2.000418E+08
        19  27  4.561251E+10 -1.045576E+10  3.824718E+11  1.736454E+10 -4.555495E+09  2.347676E+08
        20   1  2.751546E+10 -2.621365E+09  4.020458E+11  2.534307E+09  5.064885E+09 -3.426252E+07
        20   2  3.194476E+10 -3.322163E+09  3.934741E+11  4.733865E+09  4.889531E+09 -6.400040E+07
        20   3  3.650954E+10 -3.737065E+09  3.855745E+11  7.145817E+09  4.720576E+09 -9.661016E+07
        20   4  2.797129E+10 -4.072439E+09  4.032514E+11  4.418640E+09  5.075164E+09 -5.973959E+07
        20   5  3.220970E+10 -5.004706E+09  3.963356E+11  6.737519E+09  4.924759E+09 -9.109072E+07
        20   6  3.657825E+10 -5.622338E+09  3.899479E+11  9.142467E+09  4.779013E+09 -1.236058E+08
        20   7  2.888483E+10 -5.370901E+09  4.047200E+11  6.157063E+09  5.082435E+09 -8.324399E+07
        20   8  3.238433E+10 -6.780664E+09  3.992717E+11  8.628384E+09  4.961755E+09 -1.166561E+08
        20   9  3.624061E+10 -7.705282E+09  3.943417E+11  1.100803E+10  4.842679E+09 -1.488291E+08
        20  10  2.744785E+10 -2.620997E+09  4.021146E+11  2.534708E+09  8.881784E-06  3.552714E-05
        20  11  3.187855E+10 -3.322213E+09  3.935401E+11  4.734416E+09 -1.465494E-04 -1.776357E-05
        20  12  3.644471E+10 -3.737500E+09  3.856379E+11  7.146499E+09  1.154632E-04 -1.054712E-05
        20  13  2.790374E+10 -4.071984E+09  4.033205E+11  4.419070E+09  1.123546E-03 -3.441691E-05
        20  14  3.214324E+10 -5.004660E+09  3.964022E+11  6.738105E+09 -5.684342E-04  3.774758E-05
        20  15  3.651288E+10 -5.622665E+09  3.900121E+11  9.143185E+09 -4.396483E-04  8.881784E-06
        20  16  2.881750E+10 -5.370312E+09  4.047893E+11  6.157514E+09 -2.842171E-04 -8.881784E-06
        20  17  3.231771E+10 -6.780472E+09  3.993390E+11  8.629004E+09 -8.504308E-04 -1.776357E-05
        20  18  3.617476E+10 -7.705446E+09  3.944070E+11  1.100879E+10 -3.474998E-04  4.440892E-06
        20  19  2.751546E+10 -2.621365E+09  4.020458E+11  2.534307E+09 -5.064885E+09  3.426252E+07
        20  20  3.194476E+10 -3.322163E+09  3.934741E+11  4.733865E+09 -4.889531E+09  6.400040E+07
        20  21  3.650954E+10 -3.737065E+09  3.855745E+11  7.145817E+09 -4.720576E+09  9.661016E+07
        20  22  2.797129E+10 -4.072439E+09  4.032514E+11  4.418640E+09 -5.075164E+09  5.973959E+07
        20  23  3.220970E+10 -5.004706E+09  3.963356E+11  6.737519E+09 -4.924759E+09  9.109072E+07
        20  24  3.657825E+10 -5.622338E+09  3.899479E+11  9.142467E+09 -4.779013E+09  1.236058E+08
        20  25  2.888483E+10 -5.370901E+09  4.047200E+11  6.157063E+09 -5.082435E+09  8.324399E+07
        20  26  3.238433E+10 -6.780664E+09  3.992717E+11  8.628384E+09 -4.961755E+09  1.166561E+08
        20  27  3.624061E+10 -7.705282E+09  3.943417E+11  1.100803E+10 -4.842679E+09  1.488291E+08
        21   1  1.525784E+10  8.191272E+09  2.729616E+11 -1.348243E+10  3.486191E+09  1.822810E+08
        21   2  3.458798E+10  7.414642E+09  2.845459E+11 -2.446814E+10  3.381379E+09  3.308048E+08
        21   3  5.017343E+10  3.795332E+09  2.942985E+11 -3.415914E+10  3.302427E+09  4.618237E+08
        21   4  2.518375E+10  1.826478E+10  2.745448E+11 -2.359636E+10  3.375314E+09  3.190260E+08
        21   5  4.571729E+10  1.515023E+10  2.863202E+11 -3.387621E+10  3.256431E+09  4.580052E+08
        21   6  6.252869E+10  9.117910E+09  2.961610E+11 -4.286376E+10  3.162255E+09  5.795123E+08
        21   7  3.598895E+10  2.813876E+10  2.773231E+11 -3.380569E+10  3.264413E+09  4.570605E+08
        21   8  5.770080E+10  2.267377E+10  2.892124E+11 -4.338137E+10  3.130982E+09  5.865182E+08
        21   9  7.571388E+10  1.421978E+10  2.990689E+11 -5.166718E+10  3.021141E+09  6.985366E+08
        21  10  1.521365E+10  8.192525E+09  2.730100E+11 -1.348414E+10  1.421085E-04 -3.552714E-05
        21  11  3.454491E+10  7.415767E+09  2.845927E+11 -2.447080E+10  4.440892E-06 -8.881784E-05
        21  12  5.013151E+10  3.796496E+09  2.943443E+11 -3.416269E+10 -2.220446E-06 -7.771561E-06
        21  13  2.513845E+10  1.826490E+10  2.745906E+11 -2.359833E+10  4.440892E-06 -1.421085E-04
        21  14  4.567301E+10  1.515011E+10  2.863641E+11 -3.387920E+10  5.706546E-04  2.864375E-04
        21  15  6.248546E+10  9.117688E+09  2.962035E+11 -4.286772E+10  2.109424E-04 -1.110223E-05
        21  16  3.594266E+10  2.813783E+10  2.773663E+11 -3.380794E+10  0.000000E+00  0.000000E+00
        21  17  5.765544E+10  2.267247E+10  2.892534E+11 -4.338470E+10 -6.350476E-04 -5.107026E-05
        21  18  7.566945E+10  1.421824E+10  2.991082E+11 -5.167156E+10  2.507716E-04 -8.326673E-05
        21  19  1.525784E+10  8.191272E+09  2.729616E+11 -1.348243E+10 -3.486191E+09 -1.822810E+08
        21  20  3.458798E+10  7.414642E+09  2.845459E+11 -2.446814E+10 -3.381379E+09 -3.308048E+08
        21  21  5.017343E+10  3.795332E+09  2.942985E+11 -3.415914E+10 -3.302427E+09 -4.618237E+08
        21  22  2.518375E+10  1.826478E+10  2.745448E+11 -2.359636E+10 -3.375314E+09 -3.190260E+08
        21  23  4.571729E+10  1.515023E+10  2.863202E+11 -3.387621E+10 -3.256431E+09 -4.580052E+08
        21  24  6.252869E+10  9.117910E+09  2.961610E+11 -4.286376E+10 -3.162255E+09 -5.795123E+08
        21  25  3.598895E+10  2.813876E+10  2.773231E+11 -3.380569E+10 -3.264413E+09 -4.570605E+08
        21  26  5.770080E+10  2.267377E+10  2.892124E+11 -4.338137E+10 -3.130982E+09 -5.865182E+08
        21  27  7.571388E+10  1.421978E+10  2.990689E+11 -5.166718E+10 -3.021141E+09 -6.985366E+08
        22   1  5.968843E+10  1.687419E+09  3.001694E+11 -3.859796E+10  3.252866E+09  5.218365E+08
        22   2  7.616616E+10 -1.126237E+09  3.105626E+11 -4.401604E+10  3.170119E+09  5.950866E+08
        22   3  8.749158E+10 -7.277451E+09  3.184311E+11 -4.798930E+10  3.123578E+09  6.488022E+08
        22   4  7.223041E+10  5.553709E+09  3.018712E+11 -4.681836E+10  3.107887E+09  6.329807E+08
        22   5  8.985363E+10  7.721832E+08  3.123186E+11 -5.080460E+10  3.009876E+09  6.868709E+08
        22   6  1.023320E+11 -7.443315E+09  3.201040E+11 -5.331828E+10  2.946752E+09  7.208518E+08
        22   7  8.663880E+10  9.446271E+09  3.049609E+11 -5.489736E+10  2.952757E+09  7.422127E+08
        22   8  1.054212E+11  2.673040E+09  3.153754E+11 -5.745421E+10  2.838503E+09  7.767762E+08
        22   9  1.190698E+11 -7.626596E+09  3.229955E+11 -5.851168E+10  2.757818E+09  7.910677E+08
        22  10  5.964761E+10  1.688765E+09  3.002147E+11 -3.860175E+10  0.000000E+00 -3.774758E-05
        22  11  7.612548E+10 -1.125304E+09  3.106064E+11 -4.402039E+10  2.842171E-04 -6.883383E-05
        22  12  8.745100E+10 -7.276746E+09  3.184740E+11 -4.799414E+10  4.884981E-05  3.580469E-05
        22  13  7.218940E+10  5.554126E+09  3.019136E+11 -4.682227E+10  0.000000E+00  0.000000E+00
        22  14  8.981275E+10  7.720919E+08  3.123592E+11 -5.080910E+10  4.440892E-06 -7.105427E-05
        22  15  1.022912E+11 -7.443747E+09  3.201434E+11 -5.332332E+10 -2.819966E-04  5.551115E-05
        22  16  8.659771E+10  9.445765E+09  3.050003E+11 -5.490141E+10 -1.376677E-04 -3.552714E-05
        22  17  1.053802E+11  2.671922E+09  3.154127E+11 -5.745889E+10  2.819966E-04 -1.265654E-04
        22  18  1.190288E+11 -7.628177E+09  3.230312E+11 -5.851694E+10  1.622313E-04 -5.662137E-05
        22  19  5.968843E+10  1.687419E+09  3.001694E+11 -3.859796E+10 -3.252866E+09 -5.218365E+08
        22  20  7.616616E+10 -1.126237E+09  3.105626E+11 -4.401604E+10 -3.170119E+09 -5.950866E+08
        22  21  8.749158E+10 -7.277451E+09  3.184311E+11 -4.798930E+10 -3.123578E+09 -6.488022E+08
        22  22  7.223041E+10  5.553709E+09  3.018712E+11 -4.681836E+10 -3.107887E+09 -6.329807E+08
        22  23  8.985363E+10  7.721832E+08  3.123186E+11 -5.080460E+10 -3.009876E+09 -6.868709E+08
        22  24  1.023320E+11 -7.443315E+09  3.201040E+11 -5.331828E+10 -2.946752E+09 -7.208518E+08
        22  25  8.663880E+10  9.446271E+09  3.049609E+11 -5.489736E+10 -2.952757E+09 -7.422127E+08
        22  26  1.054212E+11  2.673040E+09  3.153754E+11 -5.745421E+10 -2.838503E+09 -7.767762E+08
        22  27  1.190698E+11 -7.626596E+09  3.229955E+11 -5.851168E+10 -2.757818E+09 -7.910677E+08
        23   1  9.524693E+10  1.188685E+10  3.072323E+11 -5.993183E+10  2.867108E+09  8.102689E+08
        23   2  1.163273E+11  4.488065E+09  3.182494E+11 -6.170623E+10  2.729634E+09  8.342543E+08
        23   3  1.307773E+11 -7.146415E+09  3.257377E+11 -6.165421E+10  2.636441E+09  8.335460E+08
        23   4  1.152537E+11  1.691834E+10  3.135926E+11 -6.945692E+10  2.684297E+09  9.390538E+08
        23   5  1.367368E+11  6.393826E+09  3.238924E+11 -6.861152E+10  2.530989E+09  9.276178E+08
        23   6  1.515250E+11 -8.546759E+09  3.304486E+11 -6.586265E+10  2.420692E+09  8.904462E+08
        23   7  1.384553E+11  2.166632E+10  3.216257E+11 -7.867494E+10  2.476907E+09  1.063686E+09
        23   8  1.604062E+11  7.956263E+09  3.310909E+11 -7.522071E+10  2.305919E+09  1.016977E+09
        23   9  1.756066E+11 -1.034604E+10  3.366034E+11 -6.978862E+10  2.176618E+09  9.435264E+08
        23  10  9.521278E+10  1.188883E+10  3.072731E+11 -5.993733E+10 -4.440892E-06 -6.661338E-06
        23  11  1.162926E+11  4.489007E+09  3.182872E+11 -6.171223E+10 -7.105427E-05 -3.219647E-05
        23  12  1.307418E+11 -7.146327E+09  3.257734E+11 -6.166065E+10  2.819966E-04 -5.856426E-05
        23  13  1.152200E+11  1.691941E+10  3.136299E+11 -6.946247E+10 -6.661338E-06  1.487699E-04
        23  14  1.367025E+11  6.393798E+09  3.239266E+11 -6.861757E+10 -8.526513E-04  0.000000E+00
        23  15  1.514900E+11 -8.547727E+09  3.304803E+11 -6.586915E+10 -3.619327E-04 -1.487699E-04
        23  16  1.384221E+11  2.166643E+10  3.216593E+11 -7.868060E+10 -1.421085E-04  0.000000E+00
        23  17  1.603724E+11  7.955181E+09  3.311210E+11 -7.522688E+10  2.220446E-06 -4.440892E-06
        23  18  1.755722E+11 -1.034816E+10  3.366307E+11 -6.979523E+10 -2.528533E-04 -4.773959E-05
        23  19  9.524693E+10  1.188685E+10  3.072323E+11 -5.993183E+10 -2.867108E+09 -8.102689E+08
        23  20  1.163273E+11  4.488065E+09  3.182494E+11 -6.170623E+10 -2.729634E+09 -8.342543E+08
        23  21  1.307773E+11 -7.146415E+09  3.257377E+11 -6.165421E+10 -2.636441E+09 -8.335460E+08
        23  22  1.152537E+11  1.691834E+10  3.135926E+11 -6.945692E+10 -2.684297E+09 -9.390538E+08
        23  23  1.367368E+11  6.393826E+09  3.238924E+11 -6.861152E+10 -2.530989E+09 -9.276178E+08
        23  24  1.515250E+11 -8.546759E+09  3.304486E+11 -6.586265E+10 -2.420692E+09 -8.904462E+08
        23  25  1.384553E+11  2.166632E+10  3.216257E+11 -7.867494E+10 -2.476907E+09 -1.063686E+09
        23  26  1.604062E+11  7.956263E+09  3.310909E+11 -7.522071E+10 -2.305919E+09 -1.016977E+09
        23  27  1.756066E+11 -1.034604E+10  3.366034E+11 -6.978862E+10 -2.176618E+09 -9.435264E+08
        24   1  4.168799E+10  3.413553E+10  2.792597E+11 -4.002330E+10  3.213540E+09  5.411115E+08
        24   2  6.494292E+10  2.757550E+10  2.915304E+11 -4.922883E+10  3.064271E+09  6.655644E+08
        24   3  8.368444E+10  1.755829E+10  3.013300E+11 -5.694910E+10  2.944009E+09  7.699362E+08
        24   4  5.546670E+10  4.604943E+10  2.849946E+11 -5.249386E+10  3.106741E+09  7.097181E+08
        24   5  8.121920E+10  3.707428E+10  2.976889E+11 -6.072573E+10  2.929079E+09  8.210061E+08
        24   6  1.025435E+11  2.456464E+10  3.078155E+11 -6.747054E+10  2.778560E+09  9.121886E+08
        24   7  6.873552E+10  5.653423E+10  2.910552E+11 -6.556329E+10  3.006844E+09  8.864216E+08
        24   8  9.687914E+10  4.507284E+10  3.040853E+11 -7.285718E+10  2.801147E+09  9.850270E+08
        24   9  1.206737E+11  2.999935E+10  3.144531E+11 -7.866424E+10  2.620819E+09  1.063530E+09
        24  10  4.164852E+10  3.413723E+10  2.793049E+11 -4.002725E+10  0.000000E+00 -6.661338E-06
        24  11  6.490418E+10  2.757665E+10  2.915730E+11 -4.923387E+10  2.220446E-04  3.330669E-06
        24  12  8.364641E+10  1.755905E+10  3.013705E+11 -5.695517E+10 -1.498801E-04  5.717649E-05
        24  13  5.542609E+10  4.605000E+10  2.850371E+11 -5.249816E+10  2.864375E-04 -1.465494E-04
        24  14  8.117928E+10  3.707413E+10  2.977283E+11 -6.073117E+10 -2.842171E-04 -2.131628E-04
        24  15  1.025042E+11  2.456389E+10  3.078523E+11 -6.747707E+10 -6.439294E-05 -2.886580E-05
        24  16  6.869388E+10  5.653381E+10  2.910954E+11 -6.556799E+10  0.000000E+00  0.000000E+00
        24  17  9.683815E+10  4.507150E+10  3.041218E+11 -7.286307E+10 -3.574918E-04 -8.659740E-05
        24  18  1.206333E+11  2.999722E+10  3.144864E+11 -7.867128E+10 -5.037637E-05  0.000000E+00
        24  19  4.168799E+10  3.413553E+10  2.792597E+11 -4.002330E+10 -3.213540E+09 -5.411115E+08
        24  20  6.494292E+10  2.757550E+10  2.915304E+11 -4.922883E+10 -3.064271E+09 -6.655644E+08
        24  21  8.368444E+10  1.755829E+10  3.013300E+11 -5.694910E+10 -2.944009E+09 -7.699362E+08
        24  22  5.546670E+10  4.604943E+10  2.849946E+11 -5.249386E+10 -3.106741E+09 -7.097181E+08
        24  23  8.121920E+10  3.707428E+10  2.976889E+11 -6.072573E+10 -2.929079E+09 -8.210061E+08
        24  24  1.025435E+11  2.456464E+10  3.078155E+11 -6.747054E+10 -2.778560E+09 -9.121886E+08
        24  25  6.873552E+10  5.653423E+10  2.910552E+11 -6.556329E+10 -3.006844E+09 -8.864216E+08
        24  26  9.687914E+10  4.507284E+10  3.040853E+11 -7.285718E+10 -2.801147E+09 -9.850270E+08
        24  27  1.206737E+11  2.999935E+10  3.144531E+11 -7.866424E+10 -2.620819E+09 -1.063530E+09
        25   1  3.159520E+11  1.572177E+11  4.105733E+11 -2.147249E+11  1.279211E+09  2.903115E+09
        25   2  2.002515E+11  1.305104E+11  3.605367E+11 -1.721925E+11  2.176493E+09  2.328056E+09
        25   3  1.236368E+11  1.084496E+11  3.264684E+11 -1.216573E+11  2.745331E+09  1.644789E+09
        25   4  3.794482E+11  1.060797E+11  4.227787E+11 -1.640771E+11  5.752760E+08  2.218324E+09
        25   5  2.686701E+11  9.081320E+10  3.786431E+11 -1.491187E+11  1.484887E+09  2.016077E+09
        25   6  1.984653E+11  7.970507E+10  3.496890E+11 -1.260514E+11  2.041134E+09  1.704189E+09
        25   7  4.132934E+11  4.361521E+10  4.196967E+11 -1.038823E+11  8.224473E+07  1.404451E+09
        25   8  3.087623E+11  4.136954E+10  3.831370E+11 -1.176492E+11  1.004851E+09  1.590583E+09
        25   9  2.464429E+11  4.282375E+10  3.610177E+11 -1.232204E+11  1.547787E+09  1.665899E+09
        25  10  3.159396E+11  1.572198E+11  4.105927E+11 -2.147367E+11  1.376677E-04 -5.329071E-05
        25  11  2.002351E+11  1.305160E+11  3.605716E+11 -1.722040E+11  1.421085E-04 -8.881784E-06
        25  12  1.236173E+11  1.084572E+11  3.265130E+11 -1.216688E+11  5.412337E-06 -5.884182E-05
        25  13  3.794342E+11  1.060771E+11  4.227841E+11 -1.640888E+11  5.684342E-04 -4.440892E-06
        25  14  2.686519E+11  9.081403E+10  3.786640E+11 -1.491304E+11 -5.684342E-04 -6.661338E-05
        25  15  1.984437E+11  7.970767E+10  3.497193E+11 -1.260638E+11  6.439294E-05  8.215650E-05
        25  16  4.132769E+11  4.360866E+10  4.196913E+11 -1.038939E+11  1.421085E-04  3.108624E-05
        25  17  3.087416E+11  4.136647E+10  3.831476E+11 -1.176613E+11 -1.376677E-04 -7.327472E-05
        25  18  2.464185E+11  4.282227E+10  3.610372E+11 -1.232336E+11  2.176037E-04 -1.517883E-05
        25  19  3.159520E+11  1.572177E+11  4.105733E+11 -2.147249E+11 -1.279211E+09 -2.903115E+09
        25  20  2.002515E+11  1.305104E+11  3.605367E+11 -1.721925E+11 -2.176493E+09 -2.328056E+09
        25  21  1.236368E+11  1.084496E+11  3.264684E+11 -1.216573E+11 -2.745331E+09 -1.644789E+09
        25  22  3.794482E+11  1.060797E+11  4.227787E+11 -1.640771E+11 -5.752760E+08 -2.218324E+09
        25  23  2.686701E+11  9.081320E+10  3.786431E+11 -1.491187E+11 -1.484887E+09 -2.016077E+09
        25  24  1.984653E+11  7.970507E+10  3.496890E+11 -1.260514E+11 -2.041134E+09 -1.704189E+09
        25  25  4.132934E+11  4.361521E+10  4.196967E+11 -1.038823E+11 -8.224473E+07 -1.404451E+09
        25  26  3.087623E+11  4.136954E+10  3.831370E+11 -1.176492E+11 -1.004851E+09 -1.590583E+09
        25  27  2.464429E+11  4.282375E+10  3.610177E+11 -1.232204E+11 -1.547787E+09 -1.665899E+09
        26   1  1.193568E+11  1.016216E+11  3.216671E+11 -1.059082E+11  2.735650E+09  1.431895E+09
        26   2  9.248614E+10  8.059140E+10  3.055764E+11 -8.964565E+10  2.885469E+09  1.212013E+09
        26   3  6.973352E+10  6.109845E+10  2.924558E+11 -7.255244E+10  3.012955E+09  9.809000E+08
        26   4  1.711390E+11  7.687831E+10  3.388614E+11 -1.132677E+11  2.264229E+09  1.531376E+09
        26   5  1.391239E+11  6.501767E+10  3.236544E+11 -9.858595E+10  2.496119E+09  1.332872E+09
        26   6  1.112754E+11  5.491262E+10  3.113538E+11 -8.300862E+10  2.704868E+09  1.122259E+09
        26   7  2.060501E+11  3.571136E+10  3.449979E+11 -1.142111E+11  1.878307E+09  1.544111E+09
        26   8  1.686638E+11  3.316595E+10  3.309794E+11 -1.010347E+11  2.197668E+09  1.365964E+09
        26   9  1.354964E+11  3.261846E+10  3.198207E+11 -8.689181E+10  2.493214E+09  1.174750E+09
        26  10  1.193208E+11  1.016220E+11  3.217045E+11 -1.059150E+11  0.000000E+00  0.000000E+00
        26  11  9.245112E+10  8.059309E+10  3.056170E+11 -8.965245E+10  2.886580E-04  2.220446E-05
        26  12  6.969967E+10  6.110139E+10  2.924995E+11 -7.255931E+10 -1.641048E-05 -6.661338E-06
        26  13  1.711038E+11  7.687638E+10  3.388901E+11 -1.132766E+11  0.000000E+00  7.771561E-05
        26  14  1.390896E+11  6.501743E+10  3.236879E+11 -9.859454E+10 -2.831069E-04  1.032507E-04
        26  15  1.112422E+11  5.491405E+10  3.113918E+11 -8.301692E+10 -7.327472E-05  3.774758E-05
        26  16  2.060154E+11  3.570740E+10  3.450193E+11 -1.142219E+11 -1.421085E-04  2.220446E-05
        26  17  1.686299E+11  3.316417E+10  3.310073E+11 -1.010448E+11 -1.554312E-04  5.329071E-05
        26  18  1.354637E+11  3.261885E+10  3.198548E+11 -8.690123E+10  1.276756E-04  3.497203E-05
        26  19  1.193568E+11  1.016216E+11  3.216671E+11 -1.059082E+11 -2.735650E+09 -1.431895E+09
        26  20  9.248614E+10  8.059140E+10  3.055764E+11 -8.964565E+10 -2.885469E+09 -1.212013E+09
        26  21  6.973352E+10  6.109845E+10  2.924558E+11 -7.255244E+10 -3.012955E+09 -9.809000E+08
        26  22  1.711390E+11  7.687831E+10  3.388614E+11 -1.132677E+11 -2.264229E+09 -1.531376E+09
        26  23  1.391239E+11  6.501767E+10  3.236544E+11 -9.858595E+10 -2.496119E+09 -1.332872E+09
        26  24  1.112754E+11  5.491262E+10  3.113538E+11 -8.300862E+10 -2.704868E+09 -1.122259E+09
        26  25  2.060501E+11  3.571136E+10  3.449979E+11 -1.142111E+11 -1.878307E+09 -1.544111E+09
        26  26  1.686638E+11  3.316595E+10  3.309794E+11 -1.010347E+11 -2.197668E+09 -1.365964E+09
        26  27  1.354964E+11  3.261846E+10  3.198207E+11 -8.689181E+10 -2.493214E+09 -1.174750E+09
        27   1  2.286250E+11  2.491009E+10  3.526562E+11 -1.045248E+11  1.676596E+09  1.413179E+09
        27   2  1.857128E+11  2.197649E+10  3.370395E+11 -9.528969E+10  2.048482E+09  1.288313E+09
        27   3  1.525615E+11  2.082555E+10  3.257625E+11 -8.416791E+10  2.342259E+09  1.137938E+09
        27   4  2.510503E+11  7.746006E+09  3.604361E+11 -8.495439E+10  1.474724E+09  1.148576E+09
        27   5  2.093386E+11  6.407058E+09  3.461741E+11 -8.275867E+10  1.848458E+09  1.118886E+09
        27   6  1.778245E+11  6.749910E+09  3.360718E+11 -7.865018E+10  2.137297E+09  1.063334E+09
        27   7  2.643248E+11 -1.252381E+10  3.634517E+11 -6.314156E+10  1.338725E+09  8.536540E+08
        27   8  2.241718E+11 -1.188082E+10  3.509866E+11 -6.831263E+10  1.714350E+09  9.235666E+08
        27   9  1.947011E+11 -9.646994E+09  3.425158E+11 -7.155160E+10  1.997857E+09  9.673545E+08
        27  10  2.286045E+11  2.491103E+10  3.526798E+11 -1.045319E+11  1.465494E-04  0.000000E+00
        27  11  1.856900E+11  2.197861E+10  3.370693E+11 -9.529689E+10 -1.421085E-04 -4.440892E-06
        27  12  1.525367E+11  2.082851E+10  3.257971E+11 -8.417534E+10 -1.075832E-04  1.665335E-05
        27  13  2.510281E+11  7.745066E+09  3.604552E+11 -8.496123E+10  0.000000E+00  7.549517E-05
        27  14  2.093140E+11  6.407257E+09  3.461993E+11 -8.276577E+10  5.684342E-04  2.220446E-06
        27  15  1.777977E+11  6.750847E+09  3.361017E+11 -7.865766E+10  2.109424E-04 -4.218847E-05
        27  16  2.643005E+11 -1.252645E+10  3.634672E+11 -6.314816E+10 -1.465494E-04  6.217249E-05
        27  17  2.241451E+11 -1.188235E+10  3.510082E+11 -6.831965E+10 -7.061018E-04 -1.088019E-04
        27  18  1.946720E+11 -9.647877E+09  3.425419E+11 -7.155916E+10 -4.551914E-05  9.146330E-05
        27  19  2.286250E+11  2.491009E+10  3.526562E+11 -1.045248E+11 -1.676596E+09 -1.413179E+09
        27  20  1.857128E+11  2.197649E+10  3.370395E+11 -9.528969E+10 -2.048482E+09 -1.288313E+09
        27  21  1.525615E+11  2.082555E+10  3.257625E+11 -8.416791E+10 -2.342259E+09 -1.137938E+09
        27  22  2.510503E+11  7.746006E+09  3.604361E+11 -8.495439E+10 -1.474724E+09 -1.148576E+09
        27  23  2.093386E+11  6.407058E+09  3.461741E+11 -8.275867E+10 -1.848458E+09 -1.118886E+09
        27  24  1.778245E+11  6.749910E+09  3.360718E+11 -7.865018E+10 -2.137297E+09 -1.063334E+09
        27  25  2.643248E+11 -1.252381E+10  3.634517E+11 -6.314156E+10 -1.338725E+09 -8.536540E+08
        27  26  2.241718E+11 -1.188082E+10  3.509866E+11 -6.831263E+10 -1.714350E+09 -9.235666E+08
        27  27  1.947011E+11 -9.646994E+09  3.425158E+11 -7.155160E+10 -1.997857E+09 -9.673545E+08
        28   1  3.946668E+11  2.481301E+10  4.104838E+11 -7.699888E+10  2.128057E+08  1.041026E+09
        28   2  3.246992E+11  2.122944E+10  3.850459E+11 -9.580682E+10  8.156777E+08  1.295305E+09
        28   3  2.707713E+11  3.012314E+10  3.684218E+11 -1.090609E+11  1.318926E+09  1.474494E+09
        28   4  3.763350E+11  5.754950E+09  4.021373E+11 -4.796988E+10  3.446037E+08  6.485447E+08
        28   5  3.182108E+11 -5.299430E+08  3.809983E+11 -6.863561E+10  8.441917E+08  9.279423E+08
        28   6  2.772951E+11  6.350531E+09  3.689364E+11 -8.335685E+10  1.233684E+09  1.126969E+09
        28   7  3.601324E+11 -1.021831E+10  3.944358E+11 -2.012258E+10  4.615186E+08  2.720409E+08
        28   8  3.145083E+11 -1.938789E+10  3.776482E+11 -4.283774E+10  8.503351E+08  5.791489E+08
        28   9  2.873622E+11 -1.465827E+10  3.702277E+11 -5.919584E+10  1.117667E+09  8.003076E+08
        28  10  3.946675E+11  2.481454E+10  4.104882E+11 -7.700432E+10  1.509903E-04 -1.776357E-05
        28  11  3.246941E+11  2.123200E+10  3.850595E+11 -9.581405E+10  2.176037E-04  4.440892E-06
        28  12  2.707606E+11  3.012620E+10  3.684427E+11 -1.090698E+11 -2.321754E-04  7.771561E-06
        28  13  3.763313E+11  5.755348E+09  4.021424E+11 -4.797422E+10 -4.440892E-06  8.881784E-06
        28  14  3.182011E+11 -5.291859E+08  3.810105E+11 -6.864167E+10 -1.421085E-03 -3.552714E-05
        28  15  2.772795E+11  6.351037E+09  3.689537E+11 -8.336447E+10  2.819966E-04  3.996803E-05
        28  16  3.601238E+11 -1.021932E+10  3.944411E+11 -2.012581E+10 -1.421085E-04 -1.332268E-05
        28  17  3.144935E+11 -1.938927E+10  3.776583E+11 -4.284261E+10 -2.886580E-04 -3.774758E-05
        28  18  2.873413E+11 -1.466073E+10  3.702404E+11 -5.920218E+10  2.542411E-04  4.302114E-06
        28  19  3.946668E+11  2.481301E+10  4.104838E+11 -7.699888E+10 -2.128057E+08 -1.041026E+09
        28  20  3.246992E+11  2.122944E+10  3.850459E+11 -9.580682E+10 -8.156777E+08 -1.295305E+09
        28  21  2.707713E+11  3.012314E+10  3.684218E+11 -1.090609E+11 -1.318926E+09 -1.474494E+09
        28  22  3.763350E+11  5.754950E+09  4.021373E+11 -4.796988E+10 -3.446037E+08 -6.485447E+08
        28  23  3.182108E+11 -5.299430E+08  3.809983E+11 -6.863561E+10 -8.441917E+08 -9.279423E+08
        28  24  2.772951E+11  6.350531E+09  3.689364E+11 -8.335685E+10 -1.233684E+09 -1.126969E+09
        28  25  3.601324E+11 -1.021831E+10  3.944358E+11 -2.012258E+10 -4.615186E+08 -2.720409E+08
        28  26  3.145083E+11 -1.938789E+10  3.776482E+11 -4.283774E+10 -8.503351E+08 -5.791489E+08
        28  27  2.873622E+11 -1.465827E+10  3.702277E+11 -5.919584E+10 -1.117667E+09 -8.003076E+08
        29   1  1.551331E+10  9.099440E+09  2.729222E+11  1.401228E+10  3.482509E+09 -1.894444E+08
        29   2  2.556054E+10  1.895403E+10  2.745870E+11  2.413381E+10  3.370979E+09 -3.262910E+08
        29   3  3.634779E+10  2.867095E+10  2.774024E+11  3.436221E+10  3.260791E+09 -4.645824E+08
        29   4  3.778186E+10  8.895197E+09  2.848499E+11  2.676455E+10  3.343051E+09 -3.618535E+08
        29   5  4.893383E+10  1.643913E+10  2.869766E+11  3.603927E+10  3.222244E+09 -4.872498E+08
        29   6  6.087333E+10  2.384439E+10  2.901519E+11  4.539665E+10  3.101174E+09 -6.137635E+08
        29   7  5.581074E+10  6.037403E+09  2.949900E+11  3.815315E+10  3.235734E+09 -5.158258E+08
        29   8  6.801263E+10  1.107298E+10  2.973814E+11  4.656974E+10  3.104491E+09 -6.296184E+08
        29   9  8.106691E+10  1.598538E+10  3.007360E+11  5.504218E+10  2.971346E+09 -7.441660E+08
        29  10  1.546894E+10  9.100595E+09  2.729704E+11  1.401406E+10 -4.440892E-06 -8.881784E-06
        29  11  2.551473E+10  1.895390E+10  2.746324E+11  2.413596E+10 -1.421085E-04  2.220446E-06
        29  12  3.630067E+10  2.866964E+10  2.774451E+11  3.436475E+10 -1.831868E-04 -8.604228E-06
        29  13  3.773959E+10  8.896441E+09  2.848963E+11  2.676723E+10  6.661338E-06  1.665335E-06
        29  14  4.888990E+10  1.643895E+10  2.870199E+11  3.604243E+10 -5.662137E-04  5.551115E-07
        29  15  6.082787E+10  2.384286E+10  2.901923E+11  4.540029E+10  1.354472E-04  1.332268E-05
        29  16  5.577086E+10  6.039051E+09  2.950353E+11  3.815668E+10 -1.332268E-04  1.776357E-05
        29  17  6.797081E+10  1.107302E+10  2.974234E+11  4.657385E+10 -7.549517E-05 -4.440892E-06
        29  18  8.102330E+10  1.598390E+10  3.007747E+11  5.504686E+10  2.002565E-04  7.771561E-06
        29  19  1.551331E+10  9.099440E+09  2.729222E+11  1.401228E+10 -3.482509E+09  1.894444E+08
        29  20  2.556054E+10  1.895403E+10  2.745870E+11  2.413381E+10 -3.370979E+09  3.262910E+08
        29  21  3.634779E+10  2.867095E+10  2.774024E+11  3.436221E+10 -3.260791E+09  4.645824E+08
        29  22  3.778186E+10  8.895197E+09  2.848499E+11  2.676455E+10 -3.343051E+09  3.618535E+08
        29  23  4.893383E+10  1.643913E+10  2.869766E+11  3.603927E+10 -3.222244E+09  4.872498E+08
        29  24  6.087333E+10  2.384439E+10  2.901519E+11  4.539665E+10 -3.101174E+09  6.137635E+08
        29  25  5.581074E+10  6.037403E+09  2.949900E+11  3.815315E+10 -3.235734E+09  5.158258E+08
        29  26  6.801263E+10  1.107298E+10  2.973814E+11  4.656974E+10 -3.104491E+09  6.296184E+08
        29  27  8.106691E+10  1.598538E+10  3.007360E+11  5.504218E+10 -2.971346E+09  7.441660E+08
        30   1  4.185659E+10  3.439124E+10  2.792429E+11  4.053936E+10  3.211159E+09 -5.480888E+08
        30   2  5.580804E+10  4.634444E+10  2.851056E+11  5.286998E+10  3.103661E+09 -7.148031E+08
        30   3  6.899211E+10  5.681091E+10  2.911855E+11  6.586012E+10  3.005139E+09 -8.904339E+08
        30   4  6.815147E+10  2.865914E+10  2.926190E+11  5.124426E+10  3.035901E+09 -6.928139E+08
        30   5  8.449592E+10  3.778200E+10  2.989234E+11  6.245080E+10  2.901485E+09 -8.443291E+08
        30   6  9.994161E+10  4.527526E+10  3.052878E+11  7.436415E+10  2.775980E+09 -1.005400E+09
        30   7  8.917715E+10  1.913219E+10  3.032500E+11  6.025502E+10  2.895711E+09 -8.146339E+08
        30   8  1.080306E+11  2.522830E+10  3.098476E+11  7.030704E+10  2.731586E+09 -9.505385E+08
        30   9  1.258401E+11  2.954724E+10  3.163476E+11  8.111988E+10  2.576468E+09 -1.096729E+09
        30  10  4.181715E+10  3.439294E+10  2.792880E+11  4.054331E+10  1.421085E-04 -4.440892E-06
        30  11  5.576727E+10  4.634494E+10  2.851480E+11  5.287436E+10 -2.176037E-04  8.881784E-06
        30  12  6.895014E+10  5.681033E+10  2.912256E+11  6.586494E+10 -8.881784E-05  1.249001E-06
        30  13  6.811331E+10  2.866037E+10  2.926613E+11  5.124934E+10 -2.220446E-06  2.220446E-06
        30  14  8.445630E+10  3.778183E+10  2.989624E+11  6.245636E+10  5.662137E-04  0.000000E+00
        30  15  9.990066E+10  4.527380E+10  3.053239E+11  7.437023E+10 -1.132427E-04 -1.110223E-06
        30  16  8.914040E+10  1.913321E+10  3.032902E+11  6.026115E+10  1.332268E-04  4.440892E-06
        30  17  1.079922E+11  2.522766E+10  3.098838E+11  7.031374E+10 -2.797762E-04 -4.440892E-06
        30  18  1.258002E+11  2.954508E+10  3.163802E+11  8.112717E+10  1.598721E-04  6.106227E-06
        30  19  4.185659E+10  3.439124E+10  2.792429E+11  4.053936E+10 -3.211159E+09  5.480888E+08
        30  20  5.580804E+10  4.634444E+10  2.851056E+11  5.286998E+10 -3.103661E+09  7.148031E+08
        30  21  6.899211E+10  5.681091E+10  2.911855E+11  6.586012E+10 -3.005139E+09  8.904339E+08
        30  22  6.815147E+10  2.865914E+10  2.926190E+11  5.124426E+10 -3.035901E+09  6.928139E+08
        30  23  8.449592E+10  3.778200E+10  2.989234E+11  6.245080E+10 -2.901485E+09  8.443291E+08
        30  24  9.994161E+10  4.527526E+10  3.052878E+11  7.436415E+10 -2.775980E+09  1.005400E+09
        30  25  8.917715E+10  1.913219E+10  3.032500E+11  6.025502E+10 -2.895711E+09  8.146339E+08
        30  26  1.080306E+11  2.522830E+10  3.098476E+11  7.030704E+10 -2.731586E+09  9.505385E+08
        30  27  1.258401E+11  2.954724E+10  3.163476E+11  8.111988E+10 -2.576468E+09  1.096729E+09
        31   1  1.026101E+11  1.286962E+10  3.095559E+11  6.363037E+10  2.798679E+09 -8.602743E+08
        31   2  1.230555E+11  1.694369E+10  3.162174E+11  7.244784E+10  2.613704E+09 -9.794913E+08
        31   3  1.464926E+11  2.090483E+10  3.244267E+11  8.096929E+10  2.405723E+09 -1.094705E+09
        31   4  1.286433E+11  4.739879E+09  3.218114E+11  6.512220E+10  2.610756E+09 -8.804389E+08
        31   5  1.488293E+11  5.861409E+09  3.277049E+11  7.096940E+10  2.418047E+09 -9.594960E+08
        31   6  1.723471E+11  6.837465E+09  3.350832E+11  7.649598E+10  2.197677E+09 -1.034217E+09
        31   7  1.457129E+11 -8.518858E+09  3.294744E+11  6.462364E+10  2.484602E+09 -8.736931E+08
        31   8  1.653501E+11 -1.076599E+10  3.342267E+11  6.726503E+10  2.283946E+09 -9.094056E+08
        31   9  1.887287E+11 -1.316929E+10  3.404297E+11  6.956715E+10  2.050419E+09 -9.405304E+08
        31  10  1.025773E+11  1.287180E+10  3.095959E+11  6.363601E+10  1.376677E-04 -6.106227E-06
        31  11  1.230231E+11  1.694493E+10  3.162539E+11  7.245356E+10 -2.042810E-04 -3.885781E-06
        31  12  1.464607E+11  2.090508E+10  3.244595E+11  8.097513E+10  8.104628E-05  4.857226E-07
        31  13  1.286101E+11  4.740768E+09  3.218477E+11  6.512836E+10  4.440892E-06 -2.220446E-06
        31  14  1.487965E+11  5.861343E+09  3.277375E+11  7.097563E+10  5.706546E-04 -2.220446E-06
        31  15  1.723147E+11  6.836342E+09  3.351118E+11  7.650233E+10  2.087219E-04 -4.440892E-06
        31  16  1.456790E+11 -8.518991E+09  3.295079E+11  6.463025E+10  1.199041E-04  3.885781E-06
        31  17  1.653166E+11 -1.076712E+10  3.342565E+11  6.727169E+10 -1.354472E-04 -2.775558E-07
        31  18  1.886957E+11 -1.317155E+10  3.404552E+11  6.957394E+10 -1.193490E-04  5.551115E-06
        31  19  1.026101E+11  1.286962E+10  3.095559E+11  6.363037E+10 -2.798679E+09  8.602743E+08
        31  20  1.230555E+11  1.694369E+10  3.162174E+11  7.244784E+10 -2.613704E+09  9.794913E+08
        31  21  1.464926E+11  2.090483E+10  3.244267E+11  8.096929E+10 -2.405723E+09  1.094705E+09
        31  22  1.286433E+11  4.739879E+09  3.218114E+11  6.512220E+10 -2.610756E+09  8.804389E+08
        31  23  1.488293E+11  5.861409E+09  3.277049E+11  7.096940E+10 -2.418047E+09  9.594960E+08
        31  24  1.723471E+11  6.837465E+09  3.350832E+11  7.649598E+10 -2.197677E+09  1.034217E+09
        31  25  1.457129E+11 -8.518858E+09  3.294744E+11  6.462364E+10 -2.484602E+09  8.736931E+08
        31  26  1.653501E+11 -1.076599E+10  3.342267E+11  6.726503E+10 -2.283946E+09  9.094056E+08
        31  27  1.887287E+11 -1.316929E+10  3.404297E+11  6.956715E+10 -2.050419E+09  9.405304E+08
        32   1  6.602969E+10  3.676103E+09  3.007304E+11  4.353276E+10  3.174559E+09 -5.885558E+08
        32   2  7.919521E+10  7.393776E+09  3.033641E+11  5.118682E+10  3.033424E+09 -6.920419E+08
        32   3  9.375235E+10  1.092304E+10  3.070379E+11  5.881935E+10  2.884399E+09 -7.952366E+08
        32   4  8.799736E+10  1.530499E+08  3.121094E+11  4.938153E+10  3.030926E+09 -6.676286E+08
        32   5  1.020730E+11  1.918794E+09  3.149197E+11  5.542396E+10  2.879213E+09 -7.493240E+08
        32   6  1.176838E+11  3.479202E+09  3.186926E+11  6.142859E+10  2.717136E+09 -8.305081E+08
        32   7  1.028817E+11 -7.339715E+09  3.201591E+11  5.361709E+10  2.938606E+09 -7.248908E+08
        32   8  1.177928E+11 -7.770628E+09  3.229149E+11  5.795475E+10  2.775014E+09 -7.835361E+08
        32   9  1.344160E+11 -8.406968E+09  3.265753E+11  6.223985E+10  2.598375E+09 -8.414705E+08
        32  10  6.599014E+10  3.677541E+09  3.007748E+11  4.353686E+10  8.881784E-06  8.881784E-06
        32  11  7.915526E+10  7.394216E+09  3.034055E+11  5.119111E+10  1.421085E-04  0.000000E+00
        32  12  9.371210E+10  1.092250E+10  3.070763E+11  5.882385E+10 -1.620926E-04 -1.110223E-06
        32  13  8.795856E+10  1.539808E+08  3.121513E+11  4.938620E+10 -4.440892E-06 -8.881784E-06
        32  14  1.020337E+11  1.918627E+09  3.149584E+11  5.542886E+10 -2.819966E-04  0.000000E+00
        32  15  1.176441E+11  3.477939E+09  3.187281E+11  6.143375E+10  7.549517E-05  2.220446E-06
        32  16  1.028438E+11 -7.338964E+09  3.201996E+11  5.362226E+10  2.886580E-04  0.000000E+00
        32  17  1.177541E+11 -7.771101E+09  3.229519E+11  5.796020E+10 -7.061018E-04  0.000000E+00
        32  18  1.343769E+11 -8.408683E+09  3.266087E+11  6.224561E+10 -2.683964E-04  0.000000E+00
        32  19  6.602969E+10  3.676103E+09  3.007304E+11  4.353276E+10 -3.174559E+09  5.885558E+08
        32  20  7.919521E+10  7.393776E+09  3.033641E+11  5.118682E+10 -3.033424E+09  6.920419E+08
        32  21  9.375235E+10  1.092304E+10  3.070379E+11  5.881935E+10 -2.884399E+09  7.952366E+08
        32  22  8.799736E+10  1.530499E+08  3.121094E+11  4.938153E+10 -3.030926E+09  6.676286E+08
        32  23  1.020730E+11  1.918794E+09  3.149197E+11  5.542396E+10 -2.879213E+09  7.493240E+08
        32  24  1.176838E+11  3.479202E+09  3.186926E+11  6.142859E+10 -2.717136E+09  8.305081E+08
        32  25  1.028817E+11 -7.339715E+09  3.201591E+11  5.361709E+10 -2.938606E+09  7.248908E+08
        32  26  1.177928E+11 -7.770628E+09  3.229149E+11  5.795475E+10 -2.775014E+09  7.835361E+08
        32  27  1.344160E+11 -8.406968E+09  3.265753E+11  6.223985E+10 -2.598375E+09  8.414705E+08
        33   1  4.177948E+10  1.940580E+08  3.374049E+11  2.092835E+09  3.997974E+09 -2.828842E+07
        33   2  3.713732E+10  8.108050E+08  3.263192E+11  1.827526E+09  3.910584E+09 -2.470281E+07
        33   3  3.234152E+10  6.910497E+08  3.154199E+11  1.668716E+09  3.828017E+09 -2.255716E+07
        33   4  4.208129E+10 -1.253490E+09  3.318640E+11  9.028733E+09  3.919750E+09 -1.220656E+08
        33   5  3.737341E+10 -4.196420E+08  3.216785E+11  7.965989E+09  3.845172E+09 -1.076984E+08
        33   6  3.222433E+10 -6.443096E+08  3.114087E+11  6.627707E+09  3.775708E+09 -8.960592E+07
        33   7  4.449460E+10 -1.405818E+09  3.277979E+11  1.544688E+10  3.831297E+09 -2.088425E+08
        33   8  3.922574E+10 -4.886651E+08  3.181977E+11  1.363921E+10  3.772419E+09 -1.844039E+08
        33   9  3.302299E+10 -9.475085E+08  3.081948E+11  1.124877E+10  3.721059E+09 -1.520859E+08
        33  10  4.172518E+10  1.939476E+08  3.374588E+11  2.093731E+09  2.831069E-04 -1.776357E-05
        33  11  3.708439E+10  8.107785E+08  3.263720E+11  1.828286E+09  1.432188E-04 -4.440892E-05
        33  12  3.228989E+10  6.911020E+08  3.154717E+11  1.669335E+09 -2.853273E-04 -2.220446E-06
        33  13  4.202771E+10 -1.253747E+09  3.319167E+11  9.029681E+09  4.440892E-06  3.996803E-05
        33  14  3.732108E+10 -4.197898E+08  3.217303E+11  7.966774E+09 -2.220446E-06  3.552714E-05
        33  15  3.217320E+10 -6.443495E+08  3.114597E+11  6.628319E+09 -6.883383E-05 -3.108624E-05
        33  16  4.444179E+10 -1.406256E+09  3.278493E+11  1.544787E+10  4.218847E-04  7.105427E-05
        33  17  3.917405E+10 -4.889586E+08  3.182484E+11  1.364001E+10  7.105427E-04  1.332268E-05
        33  18  3.297237E+10 -9.476442E+08  3.082450E+11  1.124936E+10 -5.695444E-04  6.106227E-06
        33  19  4.177948E+10  1.940580E+08  3.374049E+11  2.092835E+09 -3.997974E+09  2.828842E+07
        33  20  3.713732E+10  8.108050E+08  3.263192E+11  1.827526E+09 -3.910584E+09  2.470281E+07
        33  21  3.234152E+10  6.910497E+08  3.154199E+11  1.668716E+09 -3.828017E+09  2.255716E+07
        33  22  4.208129E+10 -1.253490E+09  3.318640E+11  9.028733E+09 -3.919750E+09  1.220656E+08
        33  23  3.737341E+10 -4.196420E+08  3.216785E+11  7.965989E+09 -3.845172E+09  1.076984E+08
        33  24  3.222433E+10 -6.443096E+08  3.114087E+11  6.627707E+09 -3.775708E+09  8.960592E+07
        33  25  4.449460E+10 -1.405818E+09  3.277979E+11  1.544688E+10 -3.831297E+09  2.088425E+08
        33  26  3.922574E+10 -4.886651E+08  3.181977E+11  1.363921E+10 -3.772419E+09  1.844039E+08
        33  27  3.302299E+10 -9.475085E+08  3.081948E+11  1.124877E+10 -3.721059E+09  1.520859E+08
        34   1  2.741085E+10 -1.167564E+09  3.080874E+11  1.590610E+09  3.795289E+09 -2.149930E+07
        34   2  1.886492E+10  2.632423E+08  2.970918E+11 -1.757793E+08  3.761721E+09  2.378211E+06
        34   3  1.005306E+10  1.090222E+08  2.858180E+11  9.037539E+08  3.728733E+09 -1.222461E+07
        34   4  2.733808E+10 -1.141083E+09  3.049028E+11  5.769585E+09  3.753461E+09 -7.800251E+07
        34   5  1.880520E+10  5.623677E+08  2.946221E+11  3.450232E+09  3.729238E+09 -4.665043E+07
        34   6  9.152579E+09 -5.227127E+08  2.833772E+11  9.918305E+08  3.707926E+09 -1.342212E+07
        34   7  2.882297E+10 -3.708875E+08  3.025720E+11  9.387870E+09  3.701569E+09 -1.269244E+08
        34   8  1.957553E+10  1.333795E+09  2.926468E+11  6.322760E+09  3.691905E+09 -8.548868E+07
        34   9  7.452903E+09 -7.640044E+08  2.808645E+11  1.613842E+09  3.696868E+09 -2.183069E+07
        34  10  2.735884E+10 -1.167865E+09  3.081384E+11  1.591462E+09 -1.391942E-04  1.776357E-05
        34  11  1.881405E+10  2.632349E+08  2.971426E+11 -1.753782E+08  1.411371E-04 -1.776357E-05
        34  12  1.000320E+10  1.091702E+08  2.858687E+11  9.033378E+08 -1.761091E-04 -5.329071E-05
        34  13  2.728646E+10 -1.141459E+09  3.049532E+11  5.770389E+09  5.639933E-04 -3.552714E-05
        34  14  1.875461E+10  5.622954E+08  2.946724E+11  3.450555E+09  0.000000E+00 -3.996803E-05
        34  15  9.102792E+09 -5.225601E+08  2.834275E+11  9.914249E+08  0.000000E+00  2.664535E-05
        34  16  2.877175E+10 -3.713938E+08  3.026215E+11  9.388632E+09  2.930989E-04  5.329071E-05
        34  17  1.952517E+10  1.333617E+09  2.926966E+11  6.323017E+09  7.105427E-05  3.552714E-05
        34  18  7.403143E+09 -7.638697E+08  2.809145E+11  1.613396E+09  8.437695E-05  5.551115E-05
        34  19  2.741085E+10 -1.167564E+09  3.080874E+11  1.590610E+09 -3.795289E+09  2.149930E+07
        34  20  1.886492E+10  2.632423E+08  2.970918E+11 -1.757793E+08 -3.761721E+09 -2.378211E+06
        34  21  1.005306E+10  1.090222E+08  2.858180E+11  9.037539E+08 -3.728733E+09  1.222461E+07
        34  22  2.733808E+10 -1.141083E+09  3.049028E+11  5.769585E+09 -3.753461E+09  7.800251E+07
        34  23  1.880520E+10  5.623677E+08  2.946221E+11  3.450232E+09 -3.729238E+09  4.665043E+07
        34  24  9.152579E+09 -5.227127E+08  2.833772E+11  9.918305E+08 -3.707926E+09  1.342212E+07
        34  25  2.882297E+10 -3.708875E+08  3.025720E+11  9.387870E+09 -3.701569E+09  1.269244E+08
        34  26  1.957553E+10  1.333795E+09  2.926468E+11  6.322760E+09 -3.691905E+09  8.548868E+07
        34  27  7.452903E+09 -7.640044E+08  2.808645E+11  1.613842E+09 -3.696868E+09  2.183069E+07
        35   1  2.978787E+10 -6.993793E+08  3.011048E+11  1.185248E+10  3.668734E+09 -1.602392E+08
        35   2  1.890261E+10  5.370746E+08  2.908391E+11  7.162660E+09  3.676627E+09 -9.683762E+07
        35   3  8.019511E+09 -3.818482E+08  2.800549E+11  2.831089E+09  3.678301E+09 -3.828340E+07
        35   4  3.140178E+10 -9.200636E+08  2.988436E+11  1.586968E+10  3.616719E+09 -2.145555E+08
        35   5  2.069094E+10  9.166801E+08  2.892492E+11  1.013849E+10  3.631300E+09 -1.370791E+08
        35   6  8.064923E+09 -2.798026E+08  2.782926E+11  3.543441E+09  3.653997E+09 -4.793032E+07
        35   7  3.417321E+10 -4.605773E+08  2.973085E+11  1.948754E+10  3.558221E+09 -2.634711E+08
        35   8  2.272719E+10  1.608346E+09  2.879555E+11  1.274590E+10  3.586222E+09 -1.723298E+08
        35   9  7.081374E+09 -3.765519E+08  2.762475E+11  4.301066E+09  3.639617E+09 -5.816522E+07
        35  10  2.973816E+10 -6.994264E+08  3.011543E+11  1.185420E+10  1.643130E-04 -1.776357E-05
        35  11  1.885357E+10  5.373454E+08  2.908891E+11  7.163797E+09  3.463896E-04  8.881784E-06
        35  12  7.970675E+09 -3.815542E+08  2.801050E+11  2.831355E+09 -1.221245E-05 -6.661338E-06
        35  13  3.135230E+10 -9.203146E+08  2.988923E+11  1.587136E+10  4.440892E-06 -3.774758E-05
        35  14  2.064195E+10  9.167313E+08  2.892983E+11  1.013958E+10  8.548717E-04 -3.330669E-05
        35  15  8.015916E+09 -2.796265E+08  2.783422E+11  3.543678E+09  7.149836E-04 -2.220446E-06
        35  16  3.412394E+10 -4.610744E+08  2.973561E+11  1.948919E+10  1.421085E-04 -2.664535E-05
        35  17  2.267821E+10  1.608155E+09  2.880038E+11  1.274694E+10  6.306067E-04 -1.332268E-05
        35  18  7.032108E+09 -3.765075E+08  2.762967E+11  4.301268E+09 -1.665335E-04 -3.330669E-06
        35  19  2.978787E+10 -6.993793E+08  3.011048E+11  1.185248E+10 -3.668734E+09  1.602392E+08
        35  20  1.890261E+10  5.370746E+08  2.908391E+11  7.162660E+09 -3.676627E+09  9.683762E+07
        35  21  8.019511E+09 -3.818482E+08  2.800549E+11  2.831089E+09 -3.678301E+09  3.828340E+07
        35  22  3.140178E+10 -9.200636E+08  2.988436E+11  1.586968E+10 -3.616719E+09  2.145555E+08
        35  23  2.069094E+10  9.166801E+08  2.892492E+11  1.013849E+10 -3.631300E+09  1.370791E+08
        35  24  8.064923E+09 -2.798026E+08  2.782926E+11  3.543441E+09 -3.653997E+09  4.793032E+07
        35  25  3.417321E+10 -4.605773E+08  2.973085E+11  1.948754E+10 -3.558221E+09  2.634711E+08
        35  26  2.272719E+10  1.608346E+09  2.879555E+11  1.274590E+10 -3.586222E+09  1.723298E+08
        35  27  7.081374E+09 -3.765519E+08  2.762475E+11  4.301066E+09 -3.639617E+09  5.816522E+07
        36   1  4.687997E+10 -2.181881E+09  3.257306E+11  1.940588E+10  3.771138E+09 -2.623580E+08
        36   2  4.142906E+10 -6.507792E+08  3.166346E+11  1.723285E+10  3.721521E+09 -2.329806E+08
        36   3  3.476426E+10 -9.905978E+08  3.068660E+11  1.444505E+10  3.679581E+09 -1.952920E+08
        36   4  5.135533E+10 -4.103497E+09  3.224864E+11  2.540824E+10  3.667604E+09 -3.435132E+08
        36   5  4.515734E+10 -1.820704E+09  3.139515E+11  2.252709E+10  3.635440E+09 -3.045617E+08
        36   6  3.721039E+10 -1.367711E+09  3.045415E+11  1.882477E+10  3.615480E+09 -2.545083E+08
        36   7  5.757277E+10 -4.921413E+09  3.205340E+11  3.098997E+10  3.556243E+09 -4.189813E+08
        36   8  5.008005E+10 -2.207166E+09  3.121857E+11  2.751926E+10  3.544329E+09 -3.720588E+08
        36   9  4.012306E+10 -1.401390E+09  3.026781E+11  2.309289E+10  3.550463E+09 -3.122158E+08
        36  10  4.682937E+10 -2.181720E+09  3.257818E+11  1.940828E+10 -4.352074E-04  0.000000E+00
        36  11  4.137935E+10 -6.505217E+08  3.166851E+11  1.723492E+10  2.897682E-04  1.776357E-05
        36  12  3.471528E+10 -9.902675E+08  3.069161E+11  1.444672E+10 -2.484124E-04  2.775558E-05
        36  13  5.130510E+10 -4.103783E+09  3.225357E+11  2.541071E+10 -5.662137E-04 -2.220446E-06
        36  14  4.510786E+10 -1.820849E+09  3.140005E+11  2.252921E+10 -8.526513E-04  3.108624E-05
        36  15  3.716150E+10 -1.367719E+09  3.045903E+11  1.882648E+10  2.886580E-04 -4.440892E-06
        36  16  5.752296E+10 -4.922159E+09  3.205814E+11  3.099249E+10 -5.684342E-04  4.440892E-06
        36  17  5.003085E+10 -2.207713E+09  3.122331E+11  2.752142E+10  1.376677E-04  3.996803E-05
        36  18  4.007429E+10 -1.401720E+09  3.027258E+11  2.309463E+10  3.819167E-04 -4.718448E-06
        36  19  4.687997E+10 -2.181881E+09  3.257306E+11  1.940588E+10 -3.771138E+09  2.623580E+08
        36  20  4.142906E+10 -6.507792E+08  3.166346E+11  1.723285E+10 -3.721521E+09  2.329806E+08
        36  21  3.476426E+10 -9.905978E+08  3.068660E+11  1.444505E+10 -3.679581E+09  1.952920E+08
        36  22  5.135533E+10 -4.103497E+09  3.224864E+11  2.540824E+10 -3.667604E+09  3.435132E+08
        36  23  4.515734E+10 -1.820704E+09  3.139515E+11  2.252709E+10 -3.635440E+09  3.045617E+08
        36  24  3.721039E+10 -1.367711E+09  3.045415E+11  1.882477E+10 -3.615480E+09  2.545083E+08
        36  25  5.757277E+10 -4.921413E+09  3.205340E+11  3.098997E+10 -3.556243E+09  4.189813E+08
        36  26  5.008005E+10 -2.207166E+09  3.121857E+11  2.751926E+10 -3.544329E+09  3.720588E+08
        36  27  4.012306E+10 -1.401390E+09  3.026781E+11  2.309289E+10 -3.550463E+09  3.122158E+08
        37   1  8.105039E+10 -2.289475E+10  3.622184E+11  3.204443E+10  3.802286E+09 -4.332321E+08
        37   2  8.943956E+10 -2.585839E+10  3.597852E+11  3.300932E+10  3.656401E+09 -4.462792E+08
        37   3  9.912008E+10 -2.801413E+10  3.582782E+11  3.366010E+10  3.504635E+09 -4.550794E+08
        37   4  7.955075E+10 -2.487680E+10  3.675488E+11  2.989672E+10  3.894501E+09 -4.041958E+08
        37   5  8.722047E+10 -2.780327E+10  3.651115E+11  3.029307E+10  3.758159E+09 -4.095560E+08
        37   6  9.626349E+10 -2.992012E+10  3.635666E+11  3.037092E+10  3.614609E+09 -4.106097E+08
        37   7  7.771377E+10 -2.684296E+10  3.729507E+11  2.763681E+10  3.992362E+09 -3.736425E+08
        37   8  8.462457E+10 -2.974689E+10  3.705091E+11  2.743308E+10  3.866117E+09 -3.708893E+08
        37   9  9.300311E+10 -3.183527E+10  3.689299E+11  2.690932E+10  3.731224E+09 -3.638089E+08
        37  10  8.099983E+10 -2.289439E+10  3.622702E+11  3.204751E+10  0.000000E+00 -1.443290E-05
        37  11  8.939040E+10 -2.585828E+10  3.598347E+11  3.301226E+10  1.465494E-04  1.332268E-05
        37  12  9.907228E+10 -2.801431E+10  3.583254E+11  3.366290E+10 -3.352874E-04 -2.775558E-07
        37  13  7.949867E+10 -2.487656E+10  3.676017E+11  2.989958E+10  5.684342E-04  8.881784E-06
        37  14  8.716981E+10 -2.780321E+10  3.651624E+11  3.029579E+10  1.139089E-03 -6.661338E-06
        37  15  9.621420E+10 -2.992030E+10  3.636153E+11  3.037351E+10 -1.398881E-04  0.000000E+00
        37  16  7.766009E+10 -2.684284E+10  3.730048E+11  2.763944E+10  2.930989E-04  1.110223E-06
        37  17  8.457235E+10 -2.974688E+10  3.705614E+11  2.743558E+10  2.842171E-04  5.551115E-06
        37  18  9.295227E+10 -3.183544E+10  3.689802E+11  2.691168E+10  4.230644E-04 -5.689893E-06
        37  19  8.105039E+10 -2.289475E+10  3.622184E+11  3.204443E+10 -3.802286E+09  4.332321E+08
        37  20  8.943956E+10 -2.585839E+10  3.597852E+11  3.300932E+10 -3.656401E+09  4.462792E+08
        37  21  9.912008E+10 -2.801413E+10  3.582782E+11  3.366010E+10 -3.504635E+09  4.550794E+08
        37  22  7.955075E+10 -2.487680E+10  3.675488E+11  2.989672E+10 -3.894501E+09  4.041958E+08
        37  23  8.722047E+10 -2.780327E+10  3.651115E+11  3.029307E+10 -3.758159E+09  4.095560E+08
        37  24  9.626349E+10 -2.992012E+10  3.635666E+11  3.037092E+10 -3.614609E+09  4.106097E+08
        37  25  7.771377E+10 -2.684296E+10  3.729507E+11  2.763681E+10 -3.992362E+09  3.736425E+08
        37  26  8.462457E+10 -2.974689E+10  3.705091E+11  2.743308E+10 -3.866117E+09  3.708893E+08
        37  27  9.300311E+10 -3.183527E+10  3.689299E+11  2.690932E+10 -3.731224E+09  3.638089E+08
        38   1  1.047772E+11 -2.947835E+10  3.574748E+11  3.365082E+10  3.417194E+09 -4.549505E+08
        38   2  1.144218E+11 -3.240148E+10  3.561340E+11  3.284023E+10  3.268987E+09 -4.439931E+08
        38   3  1.252512E+11 -3.450872E+10  3.556134E+11  3.170753E+10  3.115185E+09 -4.286805E+08
        38   4  1.012480E+11 -3.150868E+10  3.625798E+11  2.996730E+10  3.533778E+09 -4.051503E+08
        38   5  1.098671E+11 -3.425566E+10  3.610332E+11  2.862403E+10  3.396552E+09 -3.869907E+08
        38   6  1.197671E+11 -3.618556E+10  3.602815E+11  2.694890E+10  3.252333E+09 -3.643441E+08
        38   7  9.783994E+10 -3.312041E+10  3.680567E+11  2.630783E+10  3.653917E+09 -3.556754E+08
        38   8  1.053597E+11 -3.572030E+10  3.662970E+11  2.438827E+10  3.528531E+09 -3.297240E+08
        38   9  1.142712E+11 -3.749739E+10  3.653099E+11  2.213036E+10  3.394610E+09 -2.991978E+08
        38  10  1.047317E+11 -2.947807E+10  3.575213E+11  3.365401E+10 -8.881784E-06  0.000000E+00
        38  11  1.143779E+11 -3.240137E+10  3.561783E+11  3.284317E+10 -1.421085E-04 -1.998401E-05
        38  12  1.252088E+11 -3.450883E+10  3.556554E+11  3.171022E+10  3.441691E-05 -9.992007E-06
        38  13  1.012006E+11 -3.150852E+10  3.626277E+11  2.997013E+10 -1.139089E-03  6.661338E-06
        38  14  1.098213E+11 -3.425558E+10  3.610792E+11  2.862661E+10 -8.526513E-04 -8.881784E-06
        38  15  1.197230E+11 -3.618563E+10  3.603254E+11  2.695124E+10  4.263256E-04  1.998401E-05
        38  16  9.779059E+10 -3.312039E+10  3.681061E+11  2.631029E+10 -1.332268E-05  0.000000E+00
        38  17  1.053121E+11 -3.572026E+10  3.663447E+11  2.439048E+10 -6.661338E-06  4.440892E-06
        38  18  1.142252E+11 -3.749743E+10  3.653558E+11  2.213235E+10 -1.061651E-04  1.387779E-05
        38  19  1.047772E+11 -2.947835E+10  3.574748E+11  3.365082E+10 -3.417194E+09  4.549505E+08
        38  20  1.144218E+11 -3.240148E+10  3.561340E+11  3.284023E+10 -3.268987E+09  4.439931E+08
        38  21  1.252512E+11 -3.450872E+10  3.556134E+11  3.170753E+10 -3.115185E+09  4.286805E+08
        38  22  1.012480E+11 -3.150868E+10  3.625798E+11  2.996730E+10 -3.533778E+09  4.051503E+08
        38  23  1.098671E+11 -3.425566E+10  3.610332E+11  2.862403E+10 -3.396552E+09  3.869907E+08
        38  24  1.197671E+11 -3.618556E+10  3.602815E+11  2.694890E+10 -3.252333E+09  3.643441E+08
        38  25  9.783994E+10 -3.312041E+10  3.680567E+11  2.630783E+10 -3.653917E+09  3.556754E+08
        38  26  1.053597E+11 -3.572030E+10  3.662970E+11  2.438827E+10 -3.528531E+09  3.297240E+08
        38  27  1.142712E+11 -3.749739E+10  3.653099E+11  2.213036E+10 -3.394610E+09  2.991978E+08
        39   1  9.492082E+10 -3.396418E+10  3.710959E+11  2.412620E+10  3.734557E+09 -3.261805E+08
        39   2  1.021783E+11 -3.629386E+10  3.693910E+11  2.191886E+10  3.613421E+09 -2.963378E+08
        39   3  1.099886E+11 -3.810928E+10  3.680857E+11  1.950557E+10  3.490175E+09 -2.637104E+08
        39   4  8.852319E+10 -3.545862E+10  3.761204E+11  2.041330E+10  3.889038E+09 -2.759834E+08
        39   5  9.481522E+10 -3.751197E+10  3.743267E+11  1.802839E+10  3.779734E+09 -2.437398E+08
        39   6  1.017634E+11 -3.903981E+10  3.729265E+11  1.541730E+10  3.667000E+09 -2.084380E+08
        39   7  8.253050E+10 -3.649159E+10  3.817155E+11  1.679814E+10  4.045590E+09 -2.271080E+08
        39   8  8.777521E+10 -3.828234E+10  3.798490E+11  1.419394E+10  3.949323E+09 -1.918993E+08
        39   9  9.379776E+10 -3.953116E+10  3.783748E+11  1.134601E+10  3.848139E+09 -1.533953E+08
        39  10  9.487029E+10 -3.396420E+10  3.711464E+11  2.412844E+10  0.000000E+00 -2.220446E-05
        39  11  1.021294E+11 -3.629390E+10  3.694398E+11  2.192090E+10 -1.332268E-04  4.107825E-05
        39  12  1.099411E+11 -3.810939E+10  3.681327E+11  1.950740E+10  3.486100E-04 -2.220446E-05
        39  13  8.847064E+10 -3.545861E+10  3.761729E+11  2.041515E+10  5.706546E-04  6.661338E-06
        39  14  9.476429E+10 -3.751190E+10  3.743779E+11  1.803004E+10 -8.548717E-04  0.000000E+00
        39  15  1.017140E+11 -3.903973E+10  3.729761E+11  1.541876E+10 -7.172041E-04  3.996803E-05
        39  16  8.247583E+10 -3.649158E+10  3.817702E+11  1.679958E+10  2.930989E-04  0.000000E+00
        39  17  8.772222E+10 -3.828216E+10  3.799026E+11  1.419519E+10  4.263256E-04  6.661338E-05
        39  18  9.374633E+10 -3.953090E+10  3.784271E+11  1.134709E+10  3.926026E-04  5.218048E-05
        39  19  9.492082E+10 -3.396418E+10  3.710959E+11  2.412620E+10 -3.734557E+09  3.261805E+08
        39  20  1.021783E+11 -3.629386E+10  3.693910E+11  2.191886E+10 -3.613421E+09  2.963378E+08
        39  21  1.099886E+11 -3.810928E+10  3.680857E+11  1.950557E+10 -3.490175E+09  2.637104E+08
        39  22  8.852319E+10 -3.545862E+10  3.761204E+11  2.041330E+10 -3.889038E+09  2.759834E+08
        39  23  9.481522E+10 -3.751197E+10  3.743267E+11  1.802839E+10 -3.779734E+09  2.437398E+08
        39  24  1.017634E+11 -3.903981E+10  3.729265E+11  1.541730E+10 -3.667000E+09  2.084380E+08
        39  25  8.253050E+10 -3.649159E+10  3.817155E+11  1.679814E+10 -4.045590E+09  2.271080E+08
        39  26  8.777521E+10 -3.828234E+10  3.798490E+11  1.419394E+10 -3.949323E+09  1.918993E+08
        39  27  9.379776E+10 -3.953116E+10  3.783748E+11  1.134601E+10 -3.848139E+09  1.533953E+08
        40   1  7.584033E+10 -2.806743E+10  3.759112E+11  2.620452E+10  4.057737E+09 -3.542787E+08
        40   2  8.262591E+10 -3.078984E+10  3.736194E+11  2.568092E+10  3.935171E+09 -3.472005E+08
        40   3  9.030363E+10 -3.284771E+10  3.719401E+11  2.490361E+10  3.808488E+09 -3.366919E+08
        40   4  7.186040E+10 -2.996039E+10  3.809997E+11  2.352906E+10  4.180317E+09 -3.181076E+08
        40   5  7.787390E+10 -3.243147E+10  3.788010E+11  2.266070E+10  4.069380E+09 -3.063679E+08
        40   6  8.488584E+10 -3.423125E+10  3.772000E+11  2.152690E+10  3.952875E+09 -2.910393E+08
        40   7  6.789419E+10 -3.160278E+10  3.863884E+11  2.084936E+10  4.306733E+09 -2.818792E+08
        40   8  7.306506E+10 -3.384382E+10  3.842894E+11  1.959688E+10  4.208421E+09 -2.649459E+08
        40   9  7.936081E+10 -3.540011E+10  3.827803E+11  1.807072E+10  4.102920E+09 -2.443123E+08
        40  10  7.578576E+10 -2.806730E+10  3.759662E+11  2.620699E+10  2.842171E-04 -4.440892E-06
        40  11  8.257278E+10 -3.078981E+10  3.736726E+11  2.568326E+10 -2.930989E-04 -1.776357E-05
        40  12  9.025187E+10 -3.284783E+10  3.719914E+11  2.490582E+10 -5.795364E-04 -8.881784E-06
        40  13  7.180409E+10 -2.996030E+10  3.810563E+11  2.353125E+10  5.551115E-04  2.220446E-05
        40  14  7.781906E+10 -3.243139E+10  3.788561E+11  2.266276E+10 -2.864375E-04  1.776357E-05
        40  15  8.483238E+10 -3.423126E+10  3.772535E+11  2.152883E+10 -2.220446E-06  3.108624E-05
        40  16  6.783604E+10 -3.160275E+10  3.864467E+11  2.085125E+10 -8.881784E-06  8.881784E-06
        40  17  7.300842E+10 -3.384371E+10  3.843464E+11  1.959864E+10 -5.684342E-04 -1.332268E-05
        40  18  7.930555E+10 -3.540002E+10  3.828359E+11  1.807236E+10  4.989065E-04 -2.720046E-05
        40  19  7.584033E+10 -2.806743E+10  3.759112E+11  2.620452E+10 -4.057737E+09  3.542787E+08
        40  20  8.262591E+10 -3.078984E+10  3.736194E+11  2.568092E+10 -3.935171E+09  3.472005E+08
        40  21  9.030363E+10 -3.284771E+10  3.719401E+11  2.490361E+10 -3.808488E+09  3.366919E+08
        40  22  7.186040E+10 -2.996039E+10  3.809997E+11  2.352906E+10 -4.180317E+09  3.181076E+08
        40  23  7.787390E+10 -3.243147E+10  3.788010E+11  2.266070E+10 -4.069380E+09  3.063679E+08
        40  24  8.488584E+10 -3.423125E+10  3.772000E+11  2.152690E+10 -3.952875E+09  2.910393E+08
        40  25  6.789419E+10 -3.160278E+10  3.863884E+11  2.084936E+10 -4.306733E+09  2.818792E+08
        40  26  7.306506E+10 -3.384382E+10  3.842894E+11  1.959688E+10 -4.208421E+09  2.649459E+08
        40  27  7.936081E+10 -3.540011E+10  3.827803E+11  1.807072E+10 -4.102920E+09  2.443123E+08
        41   1  9.104512E+10 -1.129756E+10  3.247272E+11 -4.675160E+10  3.159377E+09  6.320778E+08
        41   2  8.720360E+10 -1.259996E+10  3.281744E+11 -4.412313E+10  3.258381E+09  5.965393E+08
        41   3  8.351776E+10 -1.357993E+10  3.320578E+11 -4.162228E+10  3.360600E+09  5.627263E+08
        41   4  1.040873E+11 -1.662166E+10  3.346959E+11 -4.573745E+10  3.116816E+09  6.183628E+08
        41   5  9.824119E+10 -1.694992E+10  3.376034E+11 -4.334879E+10  3.235987E+09  5.860668E+08
        41   6  9.256384E+10 -1.665287E+10  3.410847E+11 -4.114064E+10  3.359807E+09  5.562116E+08
        41   7  1.132322E+11 -2.459659E+10  3.425178E+11 -4.361798E+10  3.100072E+09  5.897037E+08
        41   8  1.048697E+11 -2.441676E+10  3.446738E+11 -4.123820E+10  3.243021E+09  5.575282E+08
        41   9  9.661282E+10 -2.340733E+10  3.474933E+11 -3.905353E+10  3.392412E+09  5.279910E+08
        41  10  9.100184E+10 -1.129781E+10  3.247697E+11 -4.675528E+10  4.396483E-04  1.065814E-04
        41  11  8.715959E+10 -1.259994E+10  3.282185E+11 -4.412679E+10 -2.836620E-04  2.664535E-05
        41  12  8.347304E+10 -1.357962E+10  3.321036E+11 -4.162589E+10 -4.429790E-04 -1.110223E-05
        41  13  1.040437E+11 -1.662224E+10  3.347374E+11 -4.574143E+10 -6.661338E-06 -1.332268E-04
        41  14  9.819695E+10 -1.695012E+10  3.376469E+11 -4.335272E+10 -5.684342E-04 -2.220446E-06
        41  15  9.251891E+10 -1.665265E+10  3.411304E+11 -4.114451E+10  6.217249E-05  8.659740E-05
        41  16  1.131883E+11 -2.459746E+10  3.425588E+11 -4.362219E+10  1.421085E-04 -4.440892E-06
        41  17  1.048251E+11 -2.441710E+10  3.447173E+11 -4.124233E+10  2.864375E-04  6.217249E-05
        41  18  9.656750E+10 -2.340710E+10  3.475394E+11 -3.905756E+10  5.639933E-04  5.971786E-06
        41  19  9.104512E+10 -1.129756E+10  3.247272E+11 -4.675160E+10 -3.159377E+09 -6.320778E+08
        41  20  8.720360E+10 -1.259996E+10  3.281744E+11 -4.412313E+10 -3.258381E+09 -5.965393E+08
        41  21  8.351776E+10 -1.357993E+10  3.320578E+11 -4.162228E+10 -3.360600E+09 -5.627263E+08
        41  22  1.040873E+11 -1.662166E+10  3.346959E+11 -4.573745E+10 -3.116816E+09 -6.183628E+08
        41  23  9.824119E+10 -1.694992E+10  3.376034E+11 -4.334879E+10 -3.235987E+09 -5.860668E+08
        41  24  9.256384E+10 -1.665287E+10  3.410847E+11 -4.114064E+10 -3.359807E+09 -5.562116E+08
        41  25  1.132322E+11 -2.459659E+10  3.425178E+11 -4.361798E+10 -3.100072E+09 -5.897037E+08
        41  26  1.048697E+11 -2.441676E+10  3.446738E+11 -4.123820E+10 -3.243021E+09 -5.575282E+08
        41  27  9.661282E+10 -2.340733E+10  3.474933E+11 -3.905353E+10 -3.392412E+09 -5.279910E+08
        42   1  8.139250E+10 -1.353972E+10  3.346485E+11 -4.027613E+10  3.424458E+09  5.445285E+08
        42   2  7.727139E+10 -1.368870E+10  3.391556E+11 -3.756214E+10  3.541557E+09  5.078337E+08
        42   3  7.334700E+10 -1.348904E+10  3.441744E+11 -3.495650E+10  3.662251E+09  4.726040E+08
        42   4  8.832351E+10 -1.728595E+10  3.427532E+11 -3.939160E+10  3.439883E+09  5.325678E+08
        42   5  8.269621E+10 -1.694499E+10  3.468434E+11 -3.681934E+10  3.571955E+09  4.977894E+08
        42   6  7.727578E+10 -1.602700E+10  3.515549E+11 -3.439062E+10  3.708760E+09  4.649521E+08
        42   7  9.323795E+10 -2.228325E+10  3.499028E+11 -3.795357E+10  3.470681E+09  5.131236E+08
        42   8  8.580806E+10 -2.174988E+10  3.534475E+11 -3.537235E+10  3.619730E+09  4.782246E+08
        42   9  7.854161E+10 -2.049165E+10  3.576861E+11 -3.293917E+10  3.774858E+09  4.453271E+08
        42  10  8.134551E+10 -1.354002E+10  3.346945E+11 -4.027941E+10 -1.397493E-04  3.552714E-05
        42  11  7.722351E+10 -1.368870E+10  3.392035E+11 -3.756539E+10  2.864375E-04 -4.884981E-05
        42  12  7.329820E+10 -1.348873E+10  3.442242E+11 -3.495971E+10 -5.495604E-04  6.661338E-05
        42  13  8.827582E+10 -1.728645E+10  3.427992E+11 -3.939499E+10  0.000000E+00  2.220446E-06
        42  14  8.264762E+10 -1.694512E+10  3.468915E+11 -3.682269E+10 -2.842171E-04  6.883383E-05
        42  15  7.722628E+10 -1.602673E+10  3.516054E+11 -3.439393E+10  2.886580E-04  1.509903E-04
        42  16  9.318947E+10 -2.228392E+10  3.499491E+11 -3.795705E+10 -2.842171E-04 -5.773160E-05
        42  17  8.575867E+10 -2.175008E+10  3.534962E+11 -3.537579E+10 -4.285461E-04  3.996803E-05
        42  18  7.849130E+10 -2.049134E+10  3.577375E+11 -3.294253E+10  1.731948E-04  5.752343E-05
        42  19  8.139250E+10 -1.353972E+10  3.346485E+11 -4.027613E+10 -3.424458E+09 -5.445285E+08
        42  20  7.727139E+10 -1.368870E+10  3.391556E+11 -3.756214E+10 -3.541557E+09 -5.078337E+08
        42  21  7.334700E+10 -1.348904E+10  3.441744E+11 -3.495650E+10 -3.662251E+09 -4.726040E+08
        42  22  8.832351E+10 -1.728595E+10  3.427532E+11 -3.939160E+10 -3.439883E+09 -5.325678E+08
        42  23  8.269621E+10 -1.694499E+10  3.468434E+11 -3.681934E+10 -3.571955E+09 -4.977894E+08
        42  24  7.727578E+10 -1.602700E+10  3.515549E+11 -3.439062E+10 -3.708760E+09 -4.649521E+08
        42  25  9.323795E+10 -2.228325E+10  3.499028E+11 -3.795357E+10 -3.470681E+09 -5.131236E+08
        42  26  8.580806E+10 -2.174988E+10  3.534475E+11 -3.537235E+10 -3.619730E+09 -4.782246E+08
        42  27  7.854161E+10 -2.049165E+10  3.576861E+11 -3.293917E+10 -3.774858E+09 -4.453271E+08
        43   1  9.518267E+10 -2.455216E+10  3.539906E+11 -3.624262E+10  3.499639E+09  4.899964E+08
        43   2  8.668043E+10 -2.355072E+10  3.573525E+11 -3.429757E+10  3.660774E+09  4.636974E+08
        43   3  7.892000E+10 -2.225451E+10  3.614645E+11 -3.206362E+10  3.820870E+09  4.334921E+08
        43   4  9.620461E+10 -2.820654E+10  3.603943E+11 -3.225939E+10  3.571808E+09  4.361419E+08
        43   5  8.753412E+10 -2.651728E+10  3.639828E+11 -3.114786E+10  3.738452E+09  4.211126E+08
        43   6  7.949064E+10 -2.446349E+10  3.683057E+11 -2.986990E+10  3.905433E+09  4.038330E+08
        43   7  9.567844E+10 -3.252091E+10  3.661406E+11 -2.798447E+10  3.657195E+09  3.783435E+08
        43   8  8.643629E+10 -3.037452E+10  3.698397E+11 -2.755840E+10  3.832871E+09  3.725822E+08
        43   9  7.765226E+10 -2.784130E+10  3.742299E+11 -2.705300E+10  4.010604E+09  3.657482E+08
        43  10  9.513458E+10 -2.455249E+10  3.540376E+11 -3.624545E+10  8.881784E-06 -3.552714E-05
        43  11  8.663114E+10 -2.355064E+10  3.574020E+11 -3.430049E+10 -2.220446E-06 -1.065814E-04
        43  12  7.886946E+10 -2.225403E+10  3.615166E+11 -3.206666E+10 -4.624079E-04  8.215650E-05
        43  13  9.615507E+10 -2.820707E+10  3.604421E+11 -3.226209E+10 -6.661338E-06 -6.661338E-06
        43  14  8.748331E+10 -2.651739E+10  3.640332E+11 -3.115064E+10 -8.526513E-04 -1.398881E-04
        43  15  7.943853E+10 -2.446320E+10  3.683588E+11 -2.987278E+10  2.109424E-04  1.776357E-05
        43  16  9.562739E+10 -3.252159E+10  3.661894E+11 -2.798705E+10 -2.797762E-04  0.000000E+00
        43  17  8.638394E+10 -3.037475E+10  3.698913E+11 -2.756104E+10 -4.218847E-04  3.774758E-05
        43  18  7.759856E+10 -2.784108E+10  3.742844E+11 -2.705573E+10 -1.720846E-04 -3.265617E-05
        43  19  9.518267E+10 -2.455216E+10  3.539906E+11 -3.624262E+10 -3.499639E+09 -4.899964E+08
        43  20  8.668043E+10 -2.355072E+10  3.573525E+11 -3.429757E+10 -3.660774E+09 -4.636974E+08
        43  21  7.892000E+10 -2.225451E+10  3.614645E+11 -3.206362E+10 -3.820870E+09 -4.334921E+08
        43  22  9.620461E+10 -2.820654E+10  3.603943E+11 -3.225939E+10 -3.571808E+09 -4.361419E+08
        43  23  8.753412E+10 -2.651728E+10  3.639828E+11 -3.114786E+10 -3.738452E+09 -4.211126E+08
        43  24  7.949064E+10 -2.446349E+10  3.683057E+11 -2.986990E+10 -3.905433E+09 -4.038330E+08
        43  25  9.567844E+10 -3.252091E+10  3.661406E+11 -2.798447E+10 -3.657195E+09 -3.783435E+08
        43  26  8.643629E+10 -3.037452E+10  3.698397E+11 -2.755840E+10 -3.832871E+09 -3.725822E+08
        43  27  7.765226E+10 -2.784130E+10  3.742299E+11 -2.705300E+10 -4.010604E+09 -3.657482E+08
        44   1  1.175627E+11 -2.793567E+10  3.470649E+11 -4.062957E+10  3.102855E+09  5.493095E+08
        44   2  1.079270E+11 -2.712171E+10  3.489960E+11 -3.904753E+10  3.260056E+09  5.279181E+08
        44   3  9.917786E+10 -2.596989E+10  3.516867E+11 -3.708071E+10  3.414387E+09  5.013242E+08
        44   4  1.216538E+11 -3.204945E+10  3.541238E+11 -3.379791E+10  3.141580E+09  4.569426E+08
        44   5  1.119131E+11 -3.053144E+10  3.562922E+11 -3.351471E+10  3.303667E+09  4.531124E+08
        44   6  1.028912E+11 -2.865572E+10  3.591591E+11 -3.300823E+10  3.464440E+09  4.462632E+08
        44   7  1.226716E+11 -3.753557E+10  3.595456E+11 -2.653360E+10  3.202440E+09  3.587259E+08
        44   8  1.121918E+11 -3.561304E+10  3.617938E+11 -2.736400E+10  3.375246E+09  3.699523E+08
        44   9  1.021898E+11 -3.336029E+10  3.646473E+11 -2.809484E+10  3.548826E+09  3.798325E+08
        44  10  1.175203E+11 -2.793588E+10  3.471066E+11 -4.063256E+10  4.440892E-06 -3.552714E-05
        44  11  1.078834E+11 -2.712148E+10  3.490403E+11 -3.905063E+10  4.204970E-04  3.108624E-05
        44  12  9.913319E+10 -2.596924E+10  3.517336E+11 -3.708397E+10  1.088019E-04  6.217249E-05
        44  13  1.216098E+11 -3.205008E+10  3.541657E+11 -3.380074E+10 -5.662137E-04  2.220446E-06
        44  14  1.118680E+11 -3.053163E+10  3.563367E+11 -3.351767E+10  2.220446E-06  2.486900E-04
        44  15  1.028449E+11 -2.865549E+10  3.592062E+11 -3.301133E+10  7.127632E-04  5.995204E-05
        44  16  1.226260E+11 -3.753654E+10  3.595879E+11 -2.653629E+10  2.886580E-04  3.552714E-05
        44  17  1.121451E+11 -3.561353E+10  3.618389E+11 -2.736681E+10 -4.285461E-04  1.776357E-05
        44  18  1.021418E+11 -3.336031E+10  3.646953E+11 -2.809778E+10  2.087219E-04 -6.409803E-05
        44  19  1.175627E+11 -2.793567E+10  3.470649E+11 -4.062957E+10 -3.102855E+09 -5.493095E+08
        44  20  1.079270E+11 -2.712171E+10  3.489960E+11 -3.904753E+10 -3.260056E+09 -5.279181E+08
        44  21  9.917786E+10 -2.596989E+10  3.516867E+11 -3.708071E+10 -3.414387E+09 -5.013242E+08
        44  22  1.216538E+11 -3.204945E+10  3.541238E+11 -3.379791E+10 -3.141580E+09 -4.569426E+08
        44  23  1.119131E+11 -3.053144E+10  3.562922E+11 -3.351471E+10 -3.303667E+09 -4.531124E+08
        44  24  1.028912E+11 -2.865572E+10  3.591591E+11 -3.300823E+10 -3.464440E+09 -4.462632E+08
        44  25  1.226716E+11 -3.753557E+10  3.595456E+11 -2.653360E+10 -3.202440E+09 -3.587259E+08
        44  26  1.121918E+11 -3.561304E+10  3.617938E+11 -2.736400E+10 -3.375246E+09 -3.699523E+08
        44  27  1.021898E+11 -3.336029E+10  3.646473E+11 -2.809484E+10 -3.548826E+09 -3.798325E+08
        45   1  6.275183E+10 -3.226394E+10  3.901861E+11  1.944608E+10  4.428305E+09 -2.629051E+08
        45   2  6.802261E+10 -3.434933E+10  3.883937E+11  1.805813E+10  4.332800E+09 -2.441398E+08
        45   3  7.317147E+10 -3.628936E+10  3.866240E+11  1.654030E+10  4.239412E+09 -2.236184E+08
        45   4  5.067122E+10 -3.241306E+10  3.990637E+11  1.680416E+10  4.712801E+09 -2.271896E+08
        45   5  5.486457E+10 -3.473767E+10  3.974370E+11  1.542486E+10  4.634135E+09 -2.085407E+08
        45   6  5.894000E+10 -3.697607E+10  3.957581E+11  1.388427E+10  4.556739E+09 -1.877111E+08
        45   7  3.863639E+10 -3.323933E+10  4.089638E+11  1.438247E+10  5.008217E+09 -1.944509E+08
        45   8  4.193235E+10 -3.559909E+10  4.077512E+11  1.294887E+10  4.947039E+09 -1.750674E+08
        45   9  4.509161E+10 -3.794554E+10  4.063997E+11  1.133778E+10  4.886446E+09 -1.532844E+08
        45  10  6.269007E+10 -3.226476E+10  3.902452E+11  1.944806E+10  0.000000E+00  1.332268E-05
        45  11  6.796217E+10 -3.435014E+10  3.884515E+11  1.806003E+10 -2.753353E-04  9.575674E-06
        45  12  7.311219E+10 -3.629021E+10  3.866804E+11  1.654213E+10  3.652634E-04  2.109424E-05
        45  13  5.060753E+10 -3.241307E+10  3.991274E+11  1.680565E+10 -1.135758E-03 -8.881784E-06
        45  14  5.480199E+10 -3.473765E+10  3.974996E+11  1.542633E+10  5.680179E-04 -4.440892E-06
        45  15  5.887840E+10 -3.697608E+10  3.958197E+11  1.388571E+10 -7.809031E-04  8.881784E-06
        45  16  3.857067E+10 -3.323849E+10  4.090323E+11  1.438354E+10  2.930989E-04 -1.776357E-05
        45  17  4.186755E+10 -3.559820E+10  4.078189E+11  1.294995E+10 -4.307665E-04  8.881784E-06
        45  18  4.502763E+10 -3.794465E+10  4.064666E+11  1.133888E+10 -5.551115E-06  1.332268E-05
        45  19  6.275183E+10 -3.226394E+10  3.901861E+11  1.944608E+10 -4.428305E+09  2.629051E+08
        45  20  6.802261E+10 -3.434933E+10  3.883937E+11  1.805813E+10 -4.332800E+09  2.441398E+08
        45  21  7.317147E+10 -3.628936E+10  3.866240E+11  1.654030E+10 -4.239412E+09  2.236184E+08
        45  22  5.067122E+10 -3.241306E+10  3.990637E+11  1.680416E+10 -4.712801E+09  2.271896E+08
        45  23  5.486457E+10 -3.473767E+10  3.974370E+11  1.542486E+10 -4.634135E+09  2.085407E+08
        45  24  5.894000E+10 -3.697607E+10  3.957581E+11  1.388427E+10 -4.556739E+09  1.877111E+08
        45  25  3.863639E+10 -3.323933E+10  4.089638E+11  1.438247E+10 -5.008217E+09  1.944509E+08
        45  26  4.193235E+10 -3.559909E+10  4.077512E+11  1.294887E+10 -4.947039E+09  1.750674E+08
        45  27  4.509161E+10 -3.794554E+10  4.063997E+11  1.133778E+10 -4.886446E+09  1.532844E+08
        46   1  7.623001E+10 -3.703276E+10  3.857323E+11  1.523602E+10  4.185957E+09 -2.059865E+08
        46   2  8.131636E+10 -3.833314E+10  3.841163E+11  1.237363E+10  4.095199E+09 -1.672864E+08
        46   3  8.633365E+10 -3.945025E+10  3.824990E+11  9.346785E+09  4.005784E+09 -1.263628E+08
        46   4  6.137335E+10 -3.783119E+10  3.949101E+11  1.256779E+10  4.512385E+09 -1.699153E+08
        46   5  6.544472E+10 -3.909294E+10  3.934005E+11  9.842370E+09  4.436788E+09 -1.330664E+08
        46   6  6.938184E+10 -4.026652E+10  3.917732E+11  6.921016E+09  4.362124E+09 -9.356840E+07
        46   7  4.649048E+10 -3.998092E+10  4.052285E+11  9.990830E+09  4.851611E+09 -1.350775E+08
        46   8  4.971773E+10 -4.097516E+10  4.040754E+11  7.359787E+09  4.791965E+09 -9.950396E+07
        46   9  5.273627E+10 -4.198766E+10  4.026782E+11  4.511733E+09  4.732861E+09 -6.099653E+07
        46  10  7.617140E+10 -3.703363E+10  3.857880E+11  1.523754E+10 -2.930989E-04 -3.330669E-05
        46  11  8.125909E+10 -3.833397E+10  3.841708E+11  1.237502E+10  4.218847E-04  3.573530E-05
        46  12  8.627757E+10 -3.945108E+10  3.825523E+11  9.348046E+09  1.887379E-05 -2.442491E-05
        46  13  6.131229E+10 -3.783123E+10  3.949711E+11  1.256880E+10  1.136313E-03  2.664535E-05
        46  14  6.538485E+10 -3.909290E+10  3.934605E+11  9.843324E+09  1.110223E-06  1.776357E-05
        46  15  6.932304E+10 -4.026646E+10  3.918322E+11  6.921905E+09 -7.049916E-05 -1.332268E-05
        46  16  4.642691E+10 -3.998006E+10  4.052950E+11  9.991394E+09  4.440892E-06  1.332268E-05
        46  17  4.965521E+10 -4.097419E+10  4.041411E+11  7.360355E+09 -5.684342E-04  6.661338E-06
        46  18  5.267469E+10 -4.198663E+10  4.027432E+11  4.512290E+09 -1.043610E-04  3.330669E-06
        46  19  7.623001E+10 -3.703276E+10  3.857323E+11  1.523602E+10 -4.185957E+09  2.059865E+08
        46  20  8.131636E+10 -3.833314E+10  3.841163E+11  1.237363E+10 -4.095199E+09  1.672864E+08
        46  21  8.633365E+10 -3.945025E+10  3.824990E+11  9.346785E+09 -4.005784E+09  1.263628E+08
        46  22  6.137335E+10 -3.783119E+10  3.949101E+11  1.256779E+10 -4.512385E+09  1.699153E+08
        46  23  6.544472E+10 -3.909294E+10  3.934005E+11  9.842370E+09 -4.436788E+09  1.330664E+08
        46  24  6.938184E+10 -4.026652E+10  3.917732E+11  6.921016E+09 -4.362124E+09  9.356840E+07
        46  25  4.649048E+10 -3.998092E+10  4.052285E+11  9.990830E+09 -4.851611E+09  1.350775E+08
        46  26  4.971773E+10 -4.097516E+10  4.040754E+11  7.359787E+09 -4.791965E+09  9.950396E+07
        46  27  5.273627E+10 -4.198766E+10  4.026782E+11  4.511733E+09 -4.732861E+09  6.099653E+07
        47   1  3.717864E+10 -4.129067E+10  4.118088E+11  8.667343E+09  5.066517E+09 -1.171826E+08
        47   2  3.991239E+10 -4.219562E+10  4.109115E+11  5.778649E+09  5.016934E+09 -7.812544E+07
        47   3  4.212454E+10 -4.340081E+10  4.095506E+11  2.918705E+09  4.969331E+09 -3.945699E+07
        47   4  2.153755E+10 -4.507728E+10  4.242671E+11  5.085635E+09  5.448146E+09 -6.875991E+07
        47   5  2.287097E+10 -4.689396E+10  4.234673E+11  3.494321E+09  5.418850E+09 -4.724256E+07
        47   6  2.371395E+10 -4.898024E+10  4.221542E+11  1.752559E+09  5.390747E+09 -2.369118E+07
        47   7  4.611150E+09 -5.354280E+10  4.370152E+11  1.474229E+09  5.847630E+09 -1.993566E+07
        47   8  4.982536E+09 -5.545225E+10  4.369012E+11  1.074350E+09  5.840277E+09 -1.452574E+07
        47   9  4.853900E+09 -5.767901E+10  4.361888E+11  3.798983E+08  5.833429E+09 -5.133309E+06
        47  10  3.710790E+10 -4.129163E+10  4.118764E+11  8.667978E+09  2.842171E-04  1.373901E-05
        47  11  3.984243E+10 -4.219653E+10  4.109784E+11  5.779296E+09  2.797762E-04  5.107026E-05
        47  12  4.205526E+10 -4.340171E+10  4.096169E+11  2.919368E+09 -3.597123E-04  3.441691E-05
        47  13  2.146379E+10 -4.507734E+10  4.243406E+11  5.085855E+09  8.326673E-07  4.440892E-05
        47  14  2.279781E+10 -4.689393E+10  4.235406E+11  3.494700E+09 -8.554268E-04  1.065814E-04
        47  15  2.364132E+10 -4.898015E+10  4.222271E+11  1.753082E+09 -1.415534E-04 -5.773160E-05
        47  16  4.534243E+09 -5.354188E+10  4.370952E+11  1.474045E+09 -2.664535E-04 -1.221245E-05
        47  17  4.906057E+09 -5.545119E+10  4.369813E+11  1.074460E+09 -1.421085E-03  1.887379E-05
        47  18  4.777766E+09 -5.767785E+10  4.362688E+11  3.802754E+08  1.765255E-04 -3.330669E-06
        47  19  3.717864E+10 -4.129067E+10  4.118088E+11  8.667343E+09 -5.066517E+09  1.171826E+08
        47  20  3.991239E+10 -4.219562E+10  4.109115E+11  5.778649E+09 -5.016934E+09  7.812544E+07
        47  21  4.212454E+10 -4.340081E+10  4.095506E+11  2.918705E+09 -4.969331E+09  3.945699E+07
        47  22  2.153755E+10 -4.507728E+10  4.242671E+11  5.085635E+09 -5.448146E+09  6.875991E+07
        47  23  2.287097E+10 -4.689396E+10  4.234673E+11  3.494321E+09 -5.418850E+09  4.724256E+07
        47  24  2.371395E+10 -4.898024E+10  4.221542E+11  1.752559E+09 -5.390747E+09  2.369118E+07
        47  25  4.611150E+09 -5.354280E+10  4.370152E+11  1.474229E+09 -5.847630E+09  1.993566E+07
        47  26  4.982536E+09 -5.545225E+10  4.369012E+11  1.074350E+09 -5.840277E+09  1.452574E+07
        47  27  4.853900E+09 -5.767901E+10  4.361888E+11  3.798983E+08 -5.833429E+09  5.133309E+06
        48   1  3.112500E+10 -3.349307E+10  4.152475E+11  1.221099E+10  5.194818E+09 -1.650918E+08
        48   2  3.387611E+10 -3.644722E+10  4.141654E+11  1.090566E+10  5.142693E+09 -1.474422E+08
        48   3  3.589357E+10 -3.989349E+10  4.125826E+11  9.938129E+09  5.094457E+09 -1.343596E+08
        48   4  1.759845E+10 -3.472919E+10  4.267834E+11  7.400156E+09  5.535075E+09 -1.000518E+08
        48   5  1.930429E+10 -3.938370E+10  4.258144E+11  6.579867E+09  5.498645E+09 -8.895960E+07
        48   6  2.033955E+10 -4.441990E+10  4.243513E+11  5.933059E+09  5.465531E+09 -8.021286E+07
        48   7  3.956381E+09 -3.755497E+10  4.394076E+11  2.581912E+09  5.888832E+09 -3.491135E+07
        48   8  4.915760E+09 -4.328833E+10  4.390078E+11  2.161178E+09  5.869970E+09 -2.922087E+07
        48   9  5.233741E+09 -4.937099E+10  4.380908E+11  1.785225E+09  5.853927E+09 -2.413581E+07
        48  10  3.105275E+10 -3.349393E+10  4.153169E+11  1.221204E+10 -2.842171E-04  3.920475E-06
        48  11  3.380453E+10 -3.644810E+10  4.142340E+11  1.090677E+10 -7.238654E-04  1.665335E-06
        48  12  3.582258E+10 -3.989440E+10  4.126506E+11  9.939316E+09  6.006307E-04 -4.052314E-05
        48  13  1.752366E+10 -3.472918E+10  4.268582E+11  7.400684E+09  5.700995E-04 -3.552714E-05
        48  14  1.922999E+10 -3.938370E+10  4.258887E+11  6.580509E+09  5.678097E-04  7.105427E-05
        48  15  2.026566E+10 -4.441992E+10  4.244251E+11  5.933832E+09  1.208200E-03 -1.110223E-05
        48  16  3.878945E+09 -3.755404E+10  4.394881E+11  2.581948E+09  8.881784E-06 -3.219647E-05
        48  17  4.838615E+09 -4.328738E+10  4.390881E+11  2.161381E+09  2.842171E-04 -4.440892E-06
        48  18  5.156817E+09 -4.937004E+10  4.381709E+11  1.785599E+09 -1.054712E-04  1.887379E-05
        48  19  3.112500E+10 -3.349307E+10  4.152475E+11  1.221099E+10 -5.194818E+09  1.650918E+08
        48  20  3.387611E+10 -3.644722E+10  4.141654E+11  1.090566E+10 -5.142693E+09  1.474422E+08
        48  21  3.589357E+10 -3.989349E+10  4.125826E+11  9.938129E+09 -5.094457E+09  1.343596E+08
        48  22  1.759845E+10 -3.472919E+10  4.267834E+11  7.400156E+09 -5.535075E+09  1.000518E+08
        48  23  1.930429E+10 -3.938370E+10  4.258144E+11  6.579867E+09 -5.498645E+09  8.895960E+07
        48  24  2.033955E+10 -4.441990E+10  4.243513E+11  5.933059E+09 -5.465531E+09  8.021286E+07
        48  25  3.956381E+09 -3.755497E+10  4.394076E+11  2.581912E+09 -5.888832E+09  3.491135E+07
        48  26  4.915760E+09 -4.328833E+10  4.390078E+11  2.161178E+09 -5.869970E+09  2.922087E+07
        48  27  5.233741E+09 -4.937099E+10  4.380908E+11  1.785225E+09 -5.853927E+09  2.413581E+07
        49   1  1.128484E+10  5.307542E+09  2.725806E+11 -1.003762E+10  3.533431E+09  1.357397E+08
        49   2  9.211941E+09  4.090069E+09  2.723546E+11 -7.767934E+09  3.558529E+09  1.050853E+08
        49   3  6.099637E+09  1.211316E+09  2.714572E+11 -5.753807E+09  3.588291E+09  7.781351E+07
        49   4  3.012199E+10  5.105572E+09  2.837684E+11 -2.076991E+10  3.430142E+09  2.808225E+08
        49   5  2.420165E+10  4.339170E+09  2.816568E+11 -1.701838E+10  3.481824E+09  2.301142E+08
        49   6  1.937463E+10  4.100402E+09  2.801761E+11 -1.320696E+10  3.526713E+09  1.785652E+08
        49   7  4.511560E+10  3.786625E+09  2.936222E+11 -3.107489E+10  3.360646E+09  4.201338E+08
        49   8  3.644852E+10  2.624317E+09  2.896476E+11 -2.538540E+10  3.424446E+09  3.432123E+08
        49   9  3.042485E+10  2.796434E+09  2.870204E+11 -1.912806E+10  3.469959E+09  2.586090E+08
        49  10  1.123586E+10  5.307167E+09  2.726279E+11 -1.003847E+10 -2.220446E-05  5.329071E-05
        49  11  9.163746E+09  4.090046E+09  2.724027E+11 -7.768714E+09  4.229950E-04  1.110223E-04
        49  12  6.052228E+09  1.211643E+09  2.715061E+11 -5.754526E+09 -3.996803E-05  1.287859E-04
        49  13  3.007407E+10  5.104960E+09  2.838141E+11 -2.077160E+10  0.000000E+00  1.776357E-05
        49  14  2.415455E+10  4.339159E+09  2.817038E+11 -1.702000E+10  2.842171E-04  1.376677E-04
        49  15  1.932840E+10  4.100976E+09  2.802244E+11 -1.320853E+10  1.332268E-04 -4.440892E-05
        49  16  4.506828E+10  3.785824E+09  2.936668E+11 -3.107739E+10 -2.842171E-04 -1.110223E-06
        49  17  3.640198E+10  2.624210E+09  2.896937E+11 -2.538773E+10 -2.131628E-04 -7.105427E-05
        49  18  3.037919E+10  2.796963E+09  2.870679E+11 -1.913019E+10  3.552714E-05 -2.775558E-05
        49  19  1.128484E+10  5.307542E+09  2.725806E+11 -1.003762E+10 -3.533431E+09 -1.357397E+08
        49  20  9.211941E+09  4.090069E+09  2.723546E+11 -7.767934E+09 -3.558529E+09 -1.050853E+08
        49  21  6.099637E+09  1.211316E+09  2.714572E+11 -5.753807E+09 -3.588291E+09 -7.781351E+07
        49  22  3.012199E+10  5.105572E+09  2.837684E+11 -2.076991E+10 -3.430142E+09 -2.808225E+08
        49  23  2.420165E+10  4.339170E+09  2.816568E+11 -1.701838E+10 -3.481824E+09 -2.301142E+08
        49  24  1.937463E+10  4.100402E+09  2.801761E+11 -1.320696E+10 -3.526713E+09 -1.785652E+08
        49  25  4.511560E+10  3.786625E+09  2.936222E+11 -3.107489E+10 -3.360646E+09 -4.201338E+08
        49  26  3.644852E+10  2.624317E+09  2.896476E+11 -2.538540E+10 -3.424446E+09 -3.432123E+08
        49  27  3.042485E+10  2.796434E+09  2.870204E+11 -1.912806E+10 -3.469959E+09 -2.586090E+08
        50   1  5.485337E+09  1.856911E+09  2.720568E+11 -4.956852E+09  3.604671E+09  6.704259E+07
        50   2  6.204478E+09  2.841078E+09  2.736779E+11 -2.857007E+09  3.617022E+09  3.867537E+07
        50   3  2.171471E+09 -1.765657E+09  2.723088E+11 -2.299675E+09  3.652942E+09  3.110440E+07
        50   4  1.552353E+10  1.933676E+09  2.784733E+11 -1.024716E+10  3.555760E+09  1.385591E+08
        50   5  1.003018E+10  1.528830E+09  2.770174E+11 -6.361496E+09  3.610719E+09  8.604224E+07
        50   6  6.335947E+09  2.157592E+09  2.765579E+11 -2.029830E+09  3.654235E+09  2.747093E+07
        50   7  2.373782E+10  2.704878E+09  2.845900E+11 -1.532601E+10  3.527559E+09  2.072147E+08
        50   8  1.363982E+10  7.004045E+08  2.804876E+11 -9.622754E+09  3.609130E+09  1.301091E+08
        50   9  7.659030E+09  7.916455E+08  2.784341E+11 -2.964516E+09  3.661801E+09  4.008856E+07
        50  10  5.435809E+09  1.856702E+09  2.721052E+11 -4.957123E+09  8.881784E-06 -8.881784E-06
        50  11  6.154959E+09  2.840824E+09  2.737265E+11 -2.857414E+09  4.263256E-04 -1.154632E-04
        50  12  2.120826E+09 -1.766574E+09  2.723575E+11 -2.300741E+09 -3.996803E-05 -1.332268E-04
        50  13  1.547375E+10  1.933004E+09  2.785207E+11 -1.024773E+10  5.595524E-04 -1.509903E-04
        50  14  9.980442E+09  1.528460E+09  2.770658E+11 -6.362098E+09  1.136868E-03 -7.105427E-05
        50  15  6.285958E+09  2.157311E+09  2.766071E+11 -2.030505E+09  3.569367E-04  7.993606E-05
        50  16  2.368783E+10  2.703906E+09  2.846367E+11 -1.532696E+10 -1.421085E-04  7.355228E-05
        50  17  1.359000E+10  6.999708E+08  2.805360E+11 -9.623626E+09  1.953993E-04 -7.049916E-05
        50  18  7.609339E+09  7.915726E+08  2.784835E+11 -2.965247E+09  1.243450E-04 -1.110223E-05
        50  19  5.485337E+09  1.856911E+09  2.720568E+11 -4.956852E+09 -3.604671E+09 -6.704259E+07
        50  20  6.204478E+09  2.841078E+09  2.736779E+11 -2.857007E+09 -3.617022E+09 -3.867537E+07
        50  21  2.171471E+09 -1.765657E+09  2.723088E+11 -2.299675E+09 -3.652942E+09 -3.110440E+07
        50  22  1.552353E+10  1.933676E+09  2.784733E+11 -1.024716E+10 -3.555760E+09 -1.385591E+08
        50  23  1.003018E+10  1.528830E+09  2.770174E+11 -6.361496E+09 -3.610719E+09 -8.604224E+07
        50  24  6.335947E+09  2.157592E+09  2.765579E+11 -2.029830E+09 -3.654235E+09 -2.747093E+07
        50  25  2.373782E+10  2.704878E+09  2.845900E+11 -1.532601E+10 -3.527559E+09 -2.072147E+08
        50  26  1.363982E+10  7.004045E+08  2.804876E+11 -9.622754E+09 -3.609130E+09 -1.301091E+08
        50  27  7.659030E+09  7.916455E+08  2.784341E+11 -2.964516E+09 -3.661801E+09 -4.008856E+07
        51   1  2.804034E+10  1.985962E+09  2.876912E+11 -1.872732E+10  3.511424E+09  2.531976E+08
        51   2  1.911634E+10  1.645444E+09  2.839683E+11 -1.048222E+10  3.582382E+09  1.417220E+08
        51   3  6.688968E+09 -2.488697E+08  2.789616E+11 -3.587617E+09  3.682131E+09  4.850477E+07
        51   4  3.653995E+10  8.203166E+08  2.934378E+11 -2.283138E+10  3.474389E+09  3.086852E+08
        51   5  2.288960E+10  6.170163E+08  2.874876E+11 -1.325637E+10  3.579499E+09  1.792295E+08
        51   6  1.008984E+10  9.233267E+08  2.823123E+11 -3.880417E+09  3.681690E+09  5.246557E+07
        51   7  4.460706E+10  6.068683E+08  2.993887E+11 -2.705755E+10  3.446032E+09  3.658225E+08
        51   8  2.699563E+10 -2.210112E+07  2.912641E+11 -1.606447E+10  3.575621E+09  2.171921E+08
        51   9  1.276065E+10  7.985947E+08  2.850937E+11 -4.553631E+09  3.683401E+09  6.156252E+07
        51  10  2.799036E+10  1.984887E+09  2.877375E+11 -1.872850E+10  1.776357E-04 -3.774758E-05
        51  11  1.906608E+10  1.644652E+09  2.840159E+11 -1.048320E+10 -1.598721E-04 -3.774758E-05
        51  12  6.638256E+09 -2.492708E+08  2.790110E+11 -3.588509E+09  7.993606E-05 -5.329071E-05
        51  13  3.648956E+10  8.188522E+08  2.934833E+11 -2.283275E+10  4.440892E-06 -4.440892E-06
        51  14  2.283917E+10  6.161358E+08  2.875351E+11 -1.325754E+10  8.615331E-04  7.105427E-05
        51  15  1.003939E+10  9.230352E+08  2.823618E+11 -3.881413E+09  2.856049E-04 -1.043610E-04
        51  16  4.455634E+10  6.050919E+08  2.994335E+11 -2.705917E+10  0.000000E+00 -7.327472E-05
        51  17  2.694511E+10 -2.304897E+07  2.913115E+11 -1.606587E+10 -4.796163E-04 -1.398881E-04
        51  18  1.271046E+10  7.984220E+08  2.851433E+11 -4.554763E+09 -2.708944E-04  8.437695E-05
        51  19  2.804034E+10  1.985962E+09  2.876912E+11 -1.872732E+10 -3.511424E+09 -2.531976E+08
        51  20  1.911634E+10  1.645444E+09  2.839683E+11 -1.048222E+10 -3.582382E+09 -1.417220E+08
        51  21  6.688968E+09 -2.488697E+08  2.789616E+11 -3.587617E+09 -3.682131E+09 -4.850477E+07
        51  22  3.653995E+10  8.203166E+08  2.934378E+11 -2.283138E+10 -3.474389E+09 -3.086852E+08
        51  23  2.288960E+10  6.170163E+08  2.874876E+11 -1.325637E+10 -3.579499E+09 -1.792295E+08
        51  24  1.008984E+10  9.233267E+08  2.823123E+11 -3.880417E+09 -3.681690E+09 -5.246557E+07
        51  25  4.460706E+10  6.068683E+08  2.993887E+11 -2.705755E+10 -3.446032E+09 -3.658225E+08
        51  26  2.699563E+10 -2.210112E+07  2.912641E+11 -1.606447E+10 -3.575621E+09 -2.171921E+08
        51  27  1.276065E+10  7.985947E+08  2.850937E+11 -4.553631E+09 -3.683401E+09 -6.156252E+07
        52   1  5.394490E+10  2.268167E+09  2.992297E+11 -3.521000E+10  3.316923E+09  4.760379E+08
        52   2  4.143548E+10  7.956953E+08  2.934602E+11 -2.850554E+10  3.408549E+09  3.853920E+08
        52   3  3.457695E+10  1.730307E+09  2.902734E+11 -2.314017E+10  3.457825E+09  3.128502E+08
        52   4  6.885768E+10 -1.315889E+09  3.085412E+11 -4.029158E+10  3.240997E+09  5.447394E+08
        52   5  5.457447E+10 -5.409286E+08  3.019812E+11 -3.405407E+10  3.346061E+09  4.604066E+08
        52   6  4.525178E+10  2.495676E+09  2.977821E+11 -2.837845E+10  3.414988E+09  3.836703E+08
        52   7  8.141089E+10 -4.865660E+09  3.172081E+11 -4.548534E+10  3.188704E+09  6.149571E+08
        52   8  6.424805E+10 -3.551379E+09  3.090094E+11 -3.885201E+10  3.310531E+09  5.252729E+08
        52   9  5.128285E+10 -4.548388E+08  3.028331E+11 -3.199704E+10  3.401837E+09  4.325922E+08
        52  10  5.389852E+10  2.267510E+09  2.992739E+11 -3.521282E+10 -1.509903E-04  4.440892E-06
        52  11  4.138968E+10  7.958116E+08  2.935064E+11 -2.850812E+10 -2.131628E-04 -1.065814E-04
        52  12  3.453197E+10  1.731064E+09  2.903209E+11 -2.314264E+10 -1.379452E-04 -4.996004E-05
        52  13  6.881127E+10 -1.316998E+09  3.085839E+11 -4.029483E+10 -2.220446E-05  0.000000E+00
        52  14  5.452872E+10 -5.411520E+08  3.020262E+11 -3.405713E+10  2.842171E-04 -7.105427E-05
        52  15  4.520690E+10  2.496228E+09  2.978288E+11 -2.838135E+10  6.217249E-05 -1.776357E-05
        52  16  8.136428E+10 -4.867161E+09  3.172497E+11 -4.548907E+10 -1.421085E-04  1.043610E-04
        52  17  6.420217E+10 -3.551867E+09  3.090537E+11 -3.885551E+10  7.105427E-04 -5.329071E-05
        52  18  5.123789E+10 -4.544001E+08  3.028796E+11 -3.200029E+10  2.176037E-04 -3.774758E-05
        52  19  5.394490E+10  2.268167E+09  2.992297E+11 -3.521000E+10 -3.316923E+09 -4.760379E+08
        52  20  4.143548E+10  7.956953E+08  2.934602E+11 -2.850554E+10 -3.408549E+09 -3.853920E+08
        52  21  3.457695E+10  1.730307E+09  2.902734E+11 -2.314017E+10 -3.457825E+09 -3.128502E+08
        52  22  6.885768E+10 -1.315889E+09  3.085412E+11 -4.029158E+10 -3.240997E+09 -5.447394E+08
        52  23  5.457447E+10 -5.409286E+08  3.019812E+11 -3.405407E+10 -3.346061E+09 -4.604066E+08
        52  24  4.525178E+10  2.495676E+09  2.977821E+11 -2.837845E+10 -3.414988E+09 -3.836703E+08
        52  25  8.141089E+10 -4.865660E+09  3.172081E+11 -4.548534E+10 -3.188704E+09 -6.149571E+08
        52  26  6.424805E+10 -3.551379E+09  3.090094E+11 -3.885201E+10 -3.310531E+09 -5.252729E+08
        52  27  5.128285E+10 -4.548388E+08  3.028331E+11 -3.199704E+10 -3.401837E+09 -4.325922E+08
        53   1  4.693445E+10 -1.760972E+10  3.926501E+11 -1.961183E+10  4.675387E+09  2.651460E+08
        53   2  4.004385E+10 -2.005452E+10  4.025275E+11 -1.725027E+10  4.902641E+09  2.332203E+08
        53   3  3.200821E+10 -2.324405E+10  4.127387E+11 -1.423964E+10  5.148716E+09  1.925187E+08
        53   4  5.101732E+10 -2.042442E+10  3.894340E+11 -2.125595E+10  4.576943E+09  2.873754E+08
        53   5  4.333688E+10 -2.346753E+10  3.996990E+11 -1.825306E+10  4.819983E+09  2.467783E+08
        53   6  3.485610E+10 -2.694770E+10  4.105860E+11 -1.473622E+10  5.081100E+09  1.992322E+08
        53   7  5.643673E+10 -2.255166E+10  3.869985E+11 -2.267444E+10  4.470451E+09  3.065541E+08
        53   8  4.780200E+10 -2.626607E+10  3.975064E+11 -1.906719E+10  4.729793E+09  2.577854E+08
        53   9  3.867568E+10 -3.014739E+10  4.089039E+11 -1.505632E+10  5.006687E+09  2.035596E+08
        53  10  4.687090E+10 -1.760987E+10  3.927131E+11 -1.961387E+10 -2.842171E-04 -1.776357E-05
        53  11  3.997777E+10 -2.005444E+10  4.025939E+11 -1.725191E+10  2.797762E-04  1.820766E-04
        53  12  3.193956E+10 -2.324364E+10  4.128087E+11 -1.424088E+10 -2.953193E-04 -4.107825E-05
        53  13  5.095487E+10 -2.042467E+10  3.894956E+11 -2.125798E+10 -5.684342E-04 -1.409983E-04
        53  14  4.327181E+10 -2.346750E+10  3.997641E+11 -1.825471E+10  5.706546E-04  1.421085E-04
        53  15  3.478836E+10 -2.694729E+10  4.106551E+11 -1.473750E+10 -2.176037E-04 -5.329071E-05
        53  16  5.637531E+10 -2.255209E+10  3.870585E+11 -2.267647E+10 -2.842171E-04  0.000000E+00
        53  17  4.773786E+10 -2.626615E+10  3.975702E+11 -1.906886E+10 -1.265654E-04 -1.110223E-04
        53  18  3.860876E+10 -3.014706E+10  4.089719E+11 -1.505763E+10  3.946843E-04 -9.547918E-05
        53  19  4.693445E+10 -1.760972E+10  3.926501E+11 -1.961183E+10 -4.675387E+09 -2.651460E+08
        53  20  4.004385E+10 -2.005452E+10  4.025275E+11 -1.725027E+10 -4.902641E+09 -2.332203E+08
        53  21  3.200821E+10 -2.324405E+10  4.127387E+11 -1.423964E+10 -5.148716E+09 -1.925187E+08
        53  22  5.101732E+10 -2.042442E+10  3.894340E+11 -2.125595E+10 -4.576943E+09 -2.873754E+08
        53  23  4.333688E+10 -2.346753E+10  3.996990E+11 -1.825306E+10 -4.819983E+09 -2.467783E+08
        53  24  3.485610E+10 -2.694770E+10  4.105860E+11 -1.473622E+10 -5.081100E+09 -1.992322E+08
        53  25  5.643673E+10 -2.255166E+10  3.869985E+11 -2.267444E+10 -4.470451E+09 -3.065541E+08
        53  26  4.780200E+10 -2.626607E+10  3.975064E+11 -1.906719E+10 -4.729793E+09 -2.577854E+08
        53  27  3.867568E+10 -3.014739E+10  4.089039E+11 -1.505632E+10 -5.006687E+09 -2.035596E+08
        54   1  2.631726E+10 -2.495394E+10  4.188704E+11 -1.212532E+10  5.308595E+09  1.639330E+08
        54   2  1.598040E+10 -2.891834E+10  4.297872E+11 -7.563333E+09  5.596606E+09  1.022579E+08
        54   3  3.597276E+09 -3.607264E+10  4.402895E+11 -1.785883E+09  5.905185E+09  2.414939E+07
        54   4  2.817653E+10 -2.923004E+10  4.168239E+11 -1.200282E+10  5.255680E+09  1.622766E+08
        54   5  1.660531E+10 -3.476716E+10  4.279868E+11 -7.335491E+09  5.563479E+09  9.917618E+07
        54   6  3.540791E+09 -4.271408E+10  4.392682E+11 -1.651770E+09  5.891592E+09  2.233407E+07
        54   7  3.186095E+10 -3.282985E+10  4.155071E+11 -1.197609E+10  5.188132E+09  1.619146E+08
        54   8  1.881001E+10 -3.998310E+10  4.267339E+11 -7.087428E+09  5.517008E+09  9.582105E+07
        54   9  4.766013E+09 -4.886690E+10  4.385700E+11 -1.361213E+09  5.866113E+09  1.840366E+07
        54  10  2.624436E+10 -2.495443E+10  4.189417E+11 -1.212644E+10 -2.753353E-04 -4.440892E-05
        54  11  1.590448E+10 -2.891846E+10  4.298627E+11 -7.563899E+09  5.684342E-04  7.993606E-05
        54  12  3.518281E+09 -3.607228E+10  4.403697E+11 -1.785845E+09  6.150636E-04 -9.436896E-05
        54  13  2.810470E+10 -2.923037E+10  4.168946E+11 -1.200396E+10  0.000000E+00  1.432188E-04
        54  14  1.653032E+10 -3.476707E+10  4.280621E+11 -7.336150E+09  0.000000E+00 -2.775558E-07
        54  15  3.462569E+09 -4.271347E+10  4.393484E+11 -1.651912E+09  1.443290E-04 -1.811051E-05
        54  16  3.179009E+10 -3.283016E+10  4.155769E+11 -1.197726E+10 -5.595524E-04  0.000000E+00
        54  17  1.873584E+10 -3.998293E+10  4.268086E+11 -7.088186E+09 -7.127632E-04  6.661338E-05
        54  18  4.688438E+09 -4.886616E+10  4.386500E+11 -1.361521E+09 -5.009881E-04  7.993606E-05
        54  19  2.631726E+10 -2.495394E+10  4.188704E+11 -1.212532E+10 -5.308595E+09 -1.639330E+08
        54  20  1.598040E+10 -2.891834E+10  4.297872E+11 -7.563333E+09 -5.596606E+09 -1.022579E+08
        54  21  3.597276E+09 -3.607264E+10  4.402895E+11 -1.785883E+09 -5.905185E+09 -2.414939E+07
        54  22  2.817653E+10 -2.923004E+10  4.168239E+11 -1.200282E+10 -5.255680E+09 -1.622766E+08
        54  23  1.660531E+10 -3.476716E+10  4.279868E+11 -7.335491E+09 -5.563479E+09 -9.917618E+07
        54  24  3.540791E+09 -4.271408E+10  4.392682E+11 -1.651770E+09 -5.891592E+09 -2.233407E+07
        54  25  3.186095E+10 -3.282985E+10  4.155071E+11 -1.197609E+10 -5.188132E+09 -1.619146E+08
        54  26  1.881001E+10 -3.998310E+10  4.267339E+11 -7.087428E+09 -5.517008E+09 -9.582105E+07
        54  27  4.766013E+09 -4.886690E+10  4.385700E+11 -1.361213E+09 -5.866113E+09 -1.840366E+07
        55   1  3.316959E+10 -3.500647E+10  4.144470E+11 -1.145101E+10  5.155903E+09  1.548172E+08
        55   2  1.924639E+10 -4.248412E+10  4.258468E+11 -6.628372E+09  5.498906E+09  8.961756E+07
        55   3  4.585974E+09 -5.205389E+10  4.379083E+11 -9.469895E+08  5.859387E+09  1.280759E+07
        55   4  3.556344E+10 -3.783847E+10  4.128370E+11 -1.008685E+10  5.101389E+09  1.363725E+08
        55   5  2.036572E+10 -4.548182E+10  4.246386E+11 -5.663780E+09  5.466849E+09  7.657398E+07
        55   6  4.819429E+09 -5.466949E+10  4.375336E+11 -5.064291E+08  5.850325E+09  6.847949E+06
        55   7  3.868176E+10 -4.028564E+10  4.114281E+11 -8.455330E+09  5.040564E+09  1.143131E+08
        55   8  2.206374E+10 -4.821643E+10  4.234532E+11 -4.331289E+09  5.428492E+09  5.855652E+07
        55   9  5.454456E+09 -5.719595E+10  4.369784E+11  4.114269E+08  5.835095E+09 -5.564538E+06
        55  10  3.309859E+10 -3.500703E+10  4.145161E+11 -1.145194E+10 -2.842171E-04  3.552714E-05
        55  11  1.917138E+10 -4.248441E+10  4.259209E+11 -6.628747E+09 -4.440892E-06 -1.332268E-04
        55  12  4.506890E+09 -5.205384E+10  4.379876E+11 -9.467686E+08 -2.242651E-04  5.218048E-05
        55  13  3.549386E+10 -3.783873E+10  4.129057E+11 -1.008781E+10  6.661338E-06 -7.077672E-05
        55  14  2.029204E+10 -4.548172E+10  4.247126E+11 -5.664297E+09  5.639933E-04  6.911138E-05
        55  15  4.741557E+09 -5.466896E+10  4.376132E+11 -5.064710E+08  4.285461E-04  1.434616E-04
        55  16  3.861344E+10 -4.028572E+10  4.114961E+11 -8.456298E+09  2.930989E-04  4.440892E-05
        55  17  2.199122E+10 -4.821607E+10  4.235270E+11 -4.331919E+09 -4.329870E-04 -3.108624E-05
        55  18  5.377623E+09 -5.719507E+10  4.370582E+11  4.111647E+08 -2.131628E-04  1.221245E-05
        55  19  3.316959E+10 -3.500647E+10  4.144470E+11 -1.145101E+10 -5.155903E+09 -1.548172E+08
        55  20  1.924639E+10 -4.248412E+10  4.258468E+11 -6.628372E+09 -5.498906E+09 -8.961756E+07
        55  21  4.585974E+09 -5.205389E+10  4.379083E+11 -9.469895E+08 -5.859387E+09 -1.280759E+07
        55  22  3.556344E+10 -3.783847E+10  4.128370E+11 -1.008685E+10 -5.101389E+09 -1.363725E+08
        55  23  2.036572E+10 -4.548182E+10  4.246386E+11 -5.663780E+09 -5.466849E+09 -7.657398E+07
        55  24  4.819429E+09 -5.466949E+10  4.375336E+11 -5.064291E+08 -5.850325E+09 -6.847949E+06
        55  25  3.868176E+10 -4.028564E+10  4.114281E+11 -8.455330E+09 -5.040564E+09 -1.143131E+08
        55  26  2.206374E+10 -4.821643E+10  4.234532E+11 -4.331289E+09 -5.428492E+09 -5.855652E+07
        55  27  5.454456E+09 -5.719595E+10  4.369784E+11  4.114269E+08 -5.835095E+09  5.564538E+06
        56   1  5.969664E+10 -2.395671E+10  3.856420E+11 -2.339582E+10  4.407939E+09  3.163054E+08
        56   2  5.101117E+10 -2.787048E+10  3.964704E+11 -1.945222E+10  4.672210E+09  2.629909E+08
        56   3  4.063451E+10 -3.221385E+10  4.077937E+11 -1.476565E+10  4.964984E+09  1.996308E+08
        56   4  6.440461E+10 -2.670674E+10  3.830509E+11 -2.387305E+10  4.309328E+09  3.227583E+08
        56   5  5.475372E+10 -3.069230E+10  3.941782E+11 -1.901072E+10  4.590386E+09  2.570217E+08
        56   6  4.388610E+10 -3.487485E+10  4.060685E+11 -1.356670E+10  4.897359E+09  1.834200E+08
        56   7  7.062249E+10 -2.856382E+10  3.813042E+11 -2.401087E+10  4.201399E+09  3.246223E+08
        56   8  5.974620E+10 -3.281020E+10  3.924981E+11 -1.829665E+10  4.500021E+09  2.473673E+08
        56   9  4.808143E+10 -3.703985E+10  4.047012E+11 -1.213598E+10  4.822323E+09  1.640757E+08
        56  10  5.963676E+10 -2.395683E+10  3.857015E+11 -2.339810E+10  2.842171E-04  5.329071E-05
        56  11  5.094787E+10 -2.787054E+10  3.965335E+11 -1.945393E+10 -5.728751E-04  0.000000E+00
        56  12  4.056773E+10 -3.221371E+10  4.078610E+11 -1.476682E+10  5.551115E-05  4.884981E-05
        56  13  6.434605E+10 -2.670687E+10  3.831090E+11 -2.387525E+10 -5.573320E-04 -1.421085E-04
        56  14  5.469169E+10 -3.069229E+10  3.942402E+11 -1.901240E+10  2.220446E-06 -1.665335E-06
        56  15  4.382054E+10 -3.487457E+10  4.061349E+11 -1.356788E+10  4.307665E-04  1.831868E-05
        56  16  7.056514E+10 -2.856406E+10  3.813608E+11 -2.401300E+10 -1.776357E-05 -4.440892E-05
        56  17  5.968534E+10 -3.281021E+10  3.925589E+11 -1.829830E+10 -2.842171E-04  3.996803E-05
        56  18  4.801698E+10 -3.703954E+10  4.047667E+11 -1.213715E+10 -7.480128E-04  2.220446E-06
        56  19  5.969664E+10 -2.395671E+10  3.856420E+11 -2.339582E+10 -4.407939E+09 -3.163054E+08
        56  20  5.101117E+10 -2.787048E+10  3.964704E+11 -1.945222E+10 -4.672210E+09 -2.629909E+08
        56  21  4.063451E+10 -3.221385E+10  4.077937E+11 -1.476565E+10 -4.964984E+09 -1.996308E+08
        56  22  6.440461E+10 -2.670674E+10  3.830509E+11 -2.387305E+10 -4.309328E+09 -3.227583E+08
        56  23  5.475372E+10 -3.069230E+10  3.941782E+11 -1.901072E+10 -4.590386E+09 -2.570217E+08
        56  24  4.388610E+10 -3.487485E+10  4.060685E+11 -1.356670E+10 -4.897359E+09 -1.834200E+08
        56  25  7.062249E+10 -2.856382E+10  3.813042E+11 -2.401087E+10 -4.201399E+09 -3.246223E+08
        56  26  5.974620E+10 -3.281020E+10  3.924981E+11 -1.829665E+10 -4.500021E+09 -2.473673E+08
        56  27  4.808143E+10 -3.703985E+10  4.047012E+11 -1.213598E+10 -4.822323E+09 -1.640757E+08
        57   1  1.118976E+11 -1.137745E+10  3.252216E+11  5.351635E+10  2.884692E+09 -7.235309E+08
        57   2  1.266866E+11 -1.273334E+10  3.277217E+11  5.683941E+10  2.719320E+09 -7.684623E+08
        57   3  1.445323E+11 -1.323057E+10  3.317982E+11  5.965404E+10  2.532053E+09 -8.065190E+08
        57   4  1.213354E+11 -1.662630E+10  3.328313E+11  5.114369E+10  2.858988E+09 -6.914507E+08
        57   5  1.358546E+11 -1.894136E+10  3.348504E+11  5.269222E+10  2.690381E+09 -7.123894E+08
        57   6  1.533656E+11 -2.043800E+10  3.383477E+11  5.376802E+10  2.499803E+09 -7.269362E+08
        57   7  1.275648E+11 -2.335351E+10  3.388955E+11  4.799650E+10  2.857460E+09 -6.488984E+08
        57   8  1.418653E+11 -2.663219E+10  3.403695E+11  4.778659E+10  2.684445E+09 -6.460620E+08
        57   9  1.590895E+11 -2.913389E+10  3.432223E+11  4.713948E+10  2.489409E+09 -6.373141E+08
        57  10  1.118614E+11 -1.137624E+10  3.252618E+11  5.352122E+10 -2.842171E-04 -3.608225E-06
        57  11  1.266516E+11 -1.273258E+10  3.277592E+11  5.684412E+10  0.000000E+00 -1.942890E-06
        57  12  1.444986E+11 -1.323035E+10  3.318326E+11  5.965860E+10  2.098322E-04 -1.769418E-06
        57  13  1.212978E+11 -1.662584E+10  3.328704E+11  5.114856E+10  5.617729E-04 -5.551115E-06
        57  14  1.358183E+11 -1.894136E+10  3.348868E+11  5.269691E+10 -2.864375E-04  7.494005E-06
        57  15  1.533305E+11 -2.043854E+10  3.383810E+11  5.377255E+10  2.842171E-04 -5.273559E-06
        57  16  1.275257E+11 -2.335373E+10  3.389339E+11  4.800137E+10  1.243450E-04 -5.551115E-06
        57  17  1.418275E+11 -2.663286E+10  3.404051E+11  4.779125E+10 -2.819966E-04 -1.637579E-05
        57  18  1.590530E+11 -2.913512E+10  3.432547E+11  4.714397E+10 -9.076073E-05 -4.024558E-06
        57  19  1.118976E+11 -1.137745E+10  3.252216E+11  5.351635E+10 -2.884692E+09  7.235309E+08
        57  20  1.266866E+11 -1.273334E+10  3.277217E+11  5.683941E+10 -2.719320E+09  7.684623E+08
        57  21  1.445323E+11 -1.323057E+10  3.317982E+11  5.965404E+10 -2.532053E+09  8.065190E+08
        57  22  1.213354E+11 -1.662630E+10  3.328313E+11  5.114369E+10 -2.858988E+09  6.914507E+08
        57  23  1.358546E+11 -1.894136E+10  3.348504E+11  5.269222E+10 -2.690381E+09  7.123894E+08
        57  24  1.533656E+11 -2.043800E+10  3.383477E+11  5.376802E+10 -2.499803E+09  7.269362E+08
        57  25  1.275648E+11 -2.335351E+10  3.388955E+11  4.799650E+10 -2.857460E+09  6.488984E+08
        57  26  1.418653E+11 -2.663219E+10  3.403695E+11  4.778659E+10 -2.684445E+09  6.460620E+08
        57  27  1.590895E+11 -2.913389E+10  3.432223E+11  4.713948E+10 -2.489409E+09  6.373141E+08
        58   1  1.557173E+11 -1.412995E+10  3.344074E+11  6.102262E+10  2.415914E+09 -8.250164E+08
        58   2  1.750424E+11 -1.725029E+10  3.387089E+11  6.181365E+10  2.213378E+09 -8.357148E+08
        58   3  1.992336E+11 -1.840229E+10  3.453611E+11  6.154140E+10  1.975332E+09 -8.320368E+08
        58   4  1.641769E+11 -2.216353E+10  3.404647E+11  5.376862E+10  2.381865E+09 -7.269404E+08
        58   5  1.818540E+11 -2.548394E+10  3.439073E+11  5.197265E+10  2.189513E+09 -7.026613E+08
        58   6  2.043398E+11 -2.692292E+10  3.495523E+11  4.916166E+10  1.961025E+09 -6.646584E+08
        58   7  1.699951E+11 -3.035955E+10  3.453389E+11  4.620133E+10  2.370212E+09 -6.246279E+08
        58   8  1.860351E+11 -3.393183E+10  3.478281E+11  4.181435E+10  2.186987E+09 -5.653173E+08
        58   9  2.068239E+11 -3.571051E+10  3.523690E+11  3.646128E+10  1.967012E+09 -4.929444E+08
        58  10  1.556880E+11 -1.412849E+10  3.344415E+11  6.102792E+10 -4.263256E-04 -2.220446E-05
        58  11  1.750152E+11 -1.724912E+10  3.387400E+11  6.181859E+10  2.930989E-04  0.000000E+00
        58  12  1.992085E+11 -1.840160E+10  3.453885E+11  6.154600E+10  2.187139E-04  9.992007E-06
        58  13  1.641454E+11 -2.216323E+10  3.404973E+11  5.377361E+10 -5.684342E-04  4.440892E-06
        58  14  1.818246E+11 -2.548384E+10  3.439371E+11  5.197723E+10  5.662137E-04  8.881784E-06
        58  15  2.043126E+11 -2.692322E+10  3.495786E+11  4.916587E+10 -4.285461E-04  9.992007E-06
        58  16  1.699612E+11 -3.036035E+10  3.453701E+11  4.620603E+10  1.287859E-04  8.881784E-06
        58  17  1.860033E+11 -3.393275E+10  3.478567E+11  4.181861E+10 -8.881784E-06  3.108624E-05
        58  18  2.067943E+11 -3.571176E+10  3.523944E+11  3.646512E+10 -1.058875E-04 -2.220446E-06
        58  19  1.557173E+11 -1.412995E+10  3.344074E+11  6.102262E+10 -2.415914E+09  8.250164E+08
        58  20  1.750424E+11 -1.725029E+10  3.387089E+11  6.181365E+10 -2.213378E+09  8.357148E+08
        58  21  1.992336E+11 -1.840229E+10  3.453611E+11  6.154140E+10 -1.975332E+09  8.320368E+08
        58  22  1.641769E+11 -2.216353E+10  3.404647E+11  5.376862E+10 -2.381865E+09  7.269404E+08
        58  23  1.818540E+11 -2.548394E+10  3.439073E+11  5.197265E+10 -2.189513E+09  7.026613E+08
        58  24  2.043398E+11 -2.692292E+10  3.495523E+11  4.916166E+10 -1.961025E+09  6.646584E+08
        58  25  1.699951E+11 -3.035955E+10  3.453389E+11  4.620133E+10 -2.370212E+09  6.246279E+08
        58  26  1.860351E+11 -3.393183E+10  3.478281E+11  4.181435E+10 -2.186987E+09  5.653173E+08
        58  27  2.068239E+11 -3.571051E+10  3.523690E+11  3.646128E+10 -1.967012E+09  4.929444E+08
        59   1  1.718070E+11 -3.339301E+10  3.480604E+11  4.068495E+10  2.382695E+09 -5.500553E+08
        59   2  1.868552E+11 -3.726272E+10  3.498990E+11  3.537162E+10  2.204054E+09 -4.782204E+08
        59   3  2.051781E+11 -3.901263E+10  3.533946E+11  2.910415E+10  2.003560E+09 -3.934854E+08
        59   4  1.697183E+11 -3.819017E+10  3.511144E+11  3.138892E+10  2.451114E+09 -4.243726E+08
        59   5  1.825515E+11 -4.126727E+10  3.520493E+11  2.498322E+10  2.289990E+09 -3.377685E+08
        59   6  1.986663E+11 -4.228685E+10  3.545586E+11  1.763928E+10  2.106217E+09 -2.384789E+08
        59   7  1.681330E+11 -4.153470E+10  3.545418E+11  2.260397E+10  2.519701E+09 -3.055995E+08
        59   8  1.787021E+11 -4.387632E+10  3.545226E+11  1.508350E+10  2.376090E+09 -2.039232E+08
        59   9  1.925601E+11 -4.422276E+10  3.559931E+11  6.641583E+09  2.209015E+09 -8.978851E+07
        59  10  1.717764E+11 -3.339230E+10  3.480934E+11  4.068830E+10 -2.842171E-04 -4.440892E-06
        59  11  1.868272E+11 -3.726193E+10  3.499296E+11  3.537444E+10  1.376677E-04 -1.110223E-05
        59  12  2.051527E+11 -3.901189E+10  3.534224E+11  2.910645E+10 -1.876277E-04  3.191891E-06
        59  13  1.696850E+11 -3.819024E+10  3.511475E+11  3.139167E+10  6.661338E-06 -1.998401E-05
        59  14  1.825208E+11 -4.126712E+10  3.520804E+11  2.498544E+10 -8.570922E-04  1.776357E-05
        59  15  1.986383E+11 -4.228664E+10  3.545874E+11  1.764095E+10  7.149836E-04  2.664535E-05
        59  16  1.680968E+11 -4.153560E+10  3.545750E+11  2.260617E+10 -1.376677E-04 -5.329071E-05
        59  17  1.786687E+11 -4.387686E+10  3.545542E+11  1.508514E+10 -1.487699E-04  4.440892E-05
        59  18  1.925294E+11 -4.422311E+10  3.560226E+11  6.642663E+09 -2.877559E-04 -3.330669E-06
        59  19  1.718070E+11 -3.339301E+10  3.480604E+11  4.068495E+10 -2.382695E+09  5.500553E+08
        59  20  1.868552E+11 -3.726272E+10  3.498990E+11  3.537162E+10 -2.204054E+09  4.782204E+08
        59  21  2.051781E+11 -3.901263E+10  3.533946E+11  2.910415E+10 -2.003560E+09  3.934854E+08
        59  22  1.697183E+11 -3.819017E+10  3.511144E+11  3.138892E+10 -2.451114E+09  4.243726E+08
        59  23  1.825515E+11 -4.126727E+10  3.520493E+11  2.498322E+10 -2.289990E+09  3.377685E+08
        59  24  1.986663E+11 -4.228685E+10  3.545586E+11  1.763928E+10 -2.106217E+09  2.384789E+08
        59  25  1.681330E+11 -4.153470E+10  3.545418E+11  2.260397E+10 -2.519701E+09  3.055995E+08
        59  26  1.787021E+11 -4.387632E+10  3.545226E+11  1.508350E+10 -2.376090E+09  2.039232E+08
        59  27  1.925601E+11 -4.422276E+10  3.559931E+11  6.641583E+09 -2.209015E+09  8.978851E+07
        60   1  1.306083E+11 -2.626075E+10  3.424824E+11  4.508684E+10  2.864829E+09 -6.095657E+08
        60   2  1.444377E+11 -2.998225E+10  3.435358E+11  4.405232E+10  2.692456E+09 -5.955814E+08
        60   3  1.613577E+11 -3.217916E+10  3.462047E+11  4.232443E+10  2.499224E+09 -5.722222E+08
        60   4  1.328364E+11 -3.042946E+10  3.479027E+11  3.957836E+10  2.907113E+09 -5.350905E+08
        60   5  1.456034E+11 -3.405732E+10  3.483761E+11  3.720284E+10  2.740978E+09 -5.029752E+08
        60   6  1.614320E+11 -3.621438E+10  3.503766E+11  3.415890E+10  2.553560E+09 -4.618224E+08
        60   7  1.338333E+11 -3.452345E+10  3.528748E+11  3.396698E+10  2.961464E+09 -4.592239E+08
        60   8  1.455371E+11 -3.809003E+10  3.527120E+11  3.024582E+10  2.801008E+09 -4.089149E+08
        60   9  1.602718E+11 -4.024030E+10  3.539861E+11  2.588152E+10  2.618851E+09 -3.499102E+08
        60  10  1.305715E+11 -2.625991E+10  3.425220E+11  4.509083E+10 -1.421085E-04 -8.881784E-06
        60  11  1.444028E+11 -2.998159E+10  3.435729E+11  4.405598E+10  5.728751E-04  1.554312E-05
        60  12  1.613248E+11 -3.217879E+10  3.462389E+11  4.232776E+10 -1.332268E-04 -2.289835E-05
        60  13  1.327975E+11 -3.042928E+10  3.479422E+11  3.958202E+10  0.000000E+00  1.332268E-05
        60  14  1.455665E+11 -3.405724E+10  3.484132E+11  3.720615E+10  8.526513E-04  2.664535E-05
        60  15  1.613971E+11 -3.621454E+10  3.504109E+11  3.416186E+10  7.904788E-04 -1.221245E-05
        60  16  1.337922E+11 -3.452389E+10  3.529144E+11  3.397033E+10  4.440892E-06 -1.776357E-05
        60  17  1.454981E+11 -3.809052E+10  3.527494E+11  3.024880E+10 -1.398881E-04 -3.552714E-05
        60  18  1.602349E+11 -4.024098E+10  3.540209E+11  2.588414E+10  2.699924E-04 -1.054712E-05
        60  19  1.306083E+11 -2.626075E+10  3.424824E+11  4.508684E+10 -2.864829E+09  6.095657E+08
        60  20  1.444377E+11 -2.998225E+10  3.435358E+11  4.405232E+10 -2.692456E+09  5.955814E+08
        60  21  1.613577E+11 -3.217916E+10  3.462047E+11  4.232443E+10 -2.499224E+09  5.722222E+08
        60  22  1.328364E+11 -3.042946E+10  3.479027E+11  3.957836E+10 -2.907113E+09  5.350905E+08
        60  23  1.456034E+11 -3.405732E+10  3.483761E+11  3.720284E+10 -2.740978E+09  5.029752E+08
        60  24  1.614320E+11 -3.621438E+10  3.503766E+11  3.415890E+10 -2.553560E+09  4.618224E+08
        60  25  1.338333E+11 -3.452345E+10  3.528748E+11  3.396698E+10 -2.961464E+09  4.592239E+08
        60  26  1.455371E+11 -3.809003E+10  3.527120E+11  3.024582E+10 -2.801008E+09  4.089149E+08
        60  27  1.602718E+11 -4.024030E+10  3.539861E+11  2.588152E+10 -2.618851E+09  3.499102E+08
        61   1  4.347544E+09 -3.026140E+10  4.415791E+11 -2.111750E+09  5.912863E+09  2.855348E+07
        61   2  1.486882E+10 -2.600292E+10  4.303669E+11 -7.110817E+09  5.619759E+09  9.613929E+07
        61   3  2.509637E+10 -2.209125E+10  4.200433E+11 -1.172392E+10  5.341158E+09  1.585067E+08
        61   4  3.050144E+09 -2.252127E+10  4.423110E+11 -1.774495E+09  5.940326E+09  2.399376E+07
        61   5  1.294562E+10 -1.975397E+10  4.316706E+11 -6.320832E+09  5.663473E+09  8.545849E+07
        61   6  2.221765E+10 -1.789315E+10  4.215264E+11 -1.035284E+10  5.400328E+09  1.399693E+08
        61   7  2.948458E+09 -1.427573E+10  4.435685E+11 -1.694195E+09  5.958642E+09  2.290797E+07
        61   8  1.244112E+10 -1.297883E+10  4.336066E+11 -5.923720E+09  5.696299E+09  8.008911E+07
        61   9  2.096832E+10 -1.325117E+10  4.237208E+11 -9.509229E+09  5.446672E+09  1.285629E+08
        61  10  4.268921E+09 -3.026083E+10  4.416596E+11 -2.111925E+09 -8.881784E-06  7.105427E-05
        61  11  1.479274E+10 -2.600297E+10  4.304428E+11 -7.111426E+09 -1.421085E-04  1.110223E-04
        61  12  2.502277E+10 -2.209185E+10  4.201149E+11 -1.172496E+10 -4.640732E-04 -1.665335E-05
        61  13  2.971324E+09 -2.252063E+10  4.423919E+11 -1.774654E+09  0.000000E+00 -3.469447E-07
        61  14  1.286916E+10 -1.975393E+10  4.317472E+11 -6.321417E+09  0.000000E+00 -2.120526E-04
        61  15  2.214350E+10 -1.789365E+10  4.215989E+11 -1.035385E+10 -8.881784E-06 -1.226796E-04
        61  16  2.869405E+09 -1.427508E+10  4.436497E+11 -1.694362E+09 -2.220446E-06  7.105427E-05
        61  17  1.236424E+10 -1.297878E+10  4.336837E+11 -5.924321E+09 -2.836620E-04  0.000000E+00
        61  18  2.089356E+10 -1.325165E+10  4.237939E+11 -9.510255E+09  4.263256E-04  2.053913E-04
        61  19  4.347544E+09 -3.026140E+10  4.415791E+11 -2.111750E+09 -5.912863E+09 -2.855348E+07
        61  20  1.486882E+10 -2.600292E+10  4.303669E+11 -7.110817E+09 -5.619759E+09 -9.613929E+07
        61  21  2.509637E+10 -2.209125E+10  4.200433E+11 -1.172392E+10 -5.341158E+09 -1.585067E+08
        61  22  3.050144E+09 -2.252127E+10  4.423110E+11 -1.774495E+09 -5.940326E+09 -2.399376E+07
        61  23  1.294562E+10 -1.975397E+10  4.316706E+11 -6.320832E+09 -5.663473E+09 -8.545849E+07
        61  24  2.221765E+10 -1.789315E+10  4.215264E+11 -1.035284E+10 -5.400328E+09 -1.399693E+08
        61  25  2.948458E+09 -1.427573E+10  4.435685E+11 -1.694195E+09 -5.958642E+09 -2.290797E+07
        61  26  1.244112E+10 -1.297883E+10  4.336066E+11 -5.923720E+09 -5.696299E+09 -8.008911E+07
        61  27  2.096832E+10 -1.325117E+10  4.237208E+11 -9.509229E+09 -5.446672E+09 -1.285629E+08
        62   1  3.043477E+10 -2.039434E+10  4.141430E+11 -1.370470E+10  5.189123E+09  1.852872E+08
        62   2  3.734338E+10 -1.851696E+10  4.037342E+11 -1.609024E+10  4.955532E+09  2.175385E+08
        62   3  4.431492E+10 -1.633987E+10  3.942780E+11 -1.831306E+10  4.732823E+09  2.475894E+08
        62   4  2.739280E+10 -1.700542E+10  4.159131E+11 -1.220260E+10  5.254395E+09  1.649783E+08
        62   5  3.377338E+10 -1.571518E+10  4.060794E+11 -1.428259E+10  5.035698E+09  1.930983E+08
        62   6  4.006255E+10 -1.438562E+10  3.969722E+11 -1.613246E+10  4.827010E+09  2.181067E+08
        62   7  2.524395E+10 -1.317616E+10  4.181929E+11 -1.061461E+10  5.314010E+09  1.435081E+08
        62   8  3.112150E+10 -1.249370E+10  4.089648E+11 -1.240727E+10  5.110231E+09  1.677431E+08
        62   9  3.672927E+10 -1.209995E+10  4.002133E+11 -1.388730E+10  4.915596E+09  1.877511E+08
        62  10  3.036529E+10 -2.039405E+10  4.142135E+11 -1.370579E+10  0.000000E+00 -7.105427E-05
        62  11  3.727607E+10 -1.851711E+10  4.038010E+11 -1.609160E+10 -5.684342E-04  0.000000E+00
        62  12  4.424974E+10 -1.634038E+10  3.943415E+11 -1.831470E+10  3.330669E-04 -2.775558E-05
        62  13  2.732275E+10 -1.700501E+10  4.159846E+11 -1.220366E+10 -5.595524E-04 -1.437739E-04
        62  14  3.370536E+10 -1.571516E+10  4.061475E+11 -1.428392E+10  8.504308E-04  1.454392E-04
        62  15  3.999652E+10 -1.438595E+10  3.970371E+11 -1.613406E+10  5.773160E-04 -1.665335E-05
        62  16  2.517329E+10 -1.317566E+10  4.182652E+11 -1.061564E+10  5.506706E-04  0.000000E+00
        62  17  3.105271E+10 -1.249358E+10  4.090340E+11 -1.240857E+10  1.277867E-03  2.664535E-05
        62  18  3.666235E+10 -1.210016E+10  4.002795E+11 -1.388890E+10  2.148282E-04 -4.662937E-05
        62  19  3.043477E+10 -2.039434E+10  4.141430E+11 -1.370470E+10 -5.189123E+09 -1.852872E+08
        62  20  3.734338E+10 -1.851696E+10  4.037342E+11 -1.609024E+10 -4.955532E+09 -2.175385E+08
        62  21  4.431492E+10 -1.633987E+10  3.942780E+11 -1.831306E+10 -4.732823E+09 -2.475894E+08
        62  22  2.739280E+10 -1.700542E+10  4.159131E+11 -1.220260E+10 -5.254395E+09 -1.649783E+08
        62  23  3.377338E+10 -1.571518E+10  4.060794E+11 -1.428259E+10 -5.035698E+09 -1.930983E+08
        62  24  4.006255E+10 -1.438562E+10  3.969722E+11 -1.613246E+10 -4.827010E+09 -2.181067E+08
        62  25  2.524395E+10 -1.317616E+10  4.181929E+11 -1.061461E+10 -5.314010E+09 -1.435081E+08
        62  26  3.112150E+10 -1.249370E+10  4.089648E+11 -1.240727E+10 -5.110231E+09 -1.677431E+08
        62  27  3.672927E+10 -1.209995E+10  4.002133E+11 -1.388730E+10 -4.915596E+09 -1.877511E+08
        63   1  2.364020E+10 -1.064278E+10  4.195652E+11 -9.266324E+09  5.354380E+09  1.252825E+08
        63   2  2.913316E+10 -1.107593E+10  4.104433E+11 -1.090053E+10  5.157148E+09  1.473756E+08
        63   3  3.499871E+10 -1.071995E+10  4.022577E+11 -1.247198E+10  4.966659E+09  1.686199E+08
        63   4  2.049412E+10 -7.473461E+09  4.216121E+11 -6.898737E+09  5.425022E+09  9.327107E+07
        63   5  2.563979E+10 -8.392659E+09  4.131924E+11 -8.320231E+09  5.241862E+09  1.124884E+08
        63   6  3.123914E+10 -8.543941E+09  4.056324E+11 -9.729777E+09  5.063440E+09  1.315438E+08
        63   7  1.820869E+10 -3.947448E+09  4.242268E+11 -4.604474E+09  5.490775E+09  6.225085E+07
        63   8  2.260377E+10 -5.596669E+09  4.163150E+11 -5.843703E+09  5.324628E+09  7.900397E+07
        63   9  2.742802E+10 -6.585051E+09  4.091341E+11 -7.159381E+09  5.161937E+09  9.679024E+07
        63  10  2.356837E+10 -1.064254E+10  4.196379E+11 -9.266897E+09 -2.753353E-04  7.993606E-05
        63  11  2.906307E+10 -1.107609E+10  4.105128E+11 -1.090133E+10  8.526513E-04 -2.442491E-04
        63  12  3.493035E+10 -1.072047E+10  4.023243E+11 -1.247304E+10  3.019807E-04  3.941292E-05
        63  13  2.042156E+10 -7.473129E+09  4.216857E+11 -6.899327E+09  5.595524E-04 -1.432188E-04
        63  14  2.556881E+10 -8.392713E+09  4.132632E+11 -8.321035E+09 -2.842171E-04  1.421085E-04
        63  15  3.116974E+10 -8.544353E+09  4.057004E+11 -9.730830E+09  3.463896E-04 -1.354472E-04
        63  16  1.813532E+10 -3.947079E+09  4.243014E+11 -4.605099E+09  5.684342E-04 -7.993606E-05
        63  17  2.253177E+10 -5.596678E+09  4.163870E+11 -5.844535E+09  2.842171E-04  2.575717E-04
        63  18  2.735737E+10 -6.585421E+09  4.092035E+11 -7.160471E+09 -4.307665E-04  6.217249E-05
        63  19  2.364020E+10 -1.064278E+10  4.195652E+11 -9.266324E+09 -5.354380E+09 -1.252825E+08
        63  20  2.913316E+10 -1.107593E+10  4.104433E+11 -1.090053E+10 -5.157148E+09 -1.473756E+08
        63  21  3.499871E+10 -1.071995E+10  4.022577E+11 -1.247198E+10 -4.966659E+09 -1.686199E+08
        63  22  2.049412E+10 -7.473461E+09  4.216121E+11 -6.898737E+09 -5.425022E+09 -9.327107E+07
        63  23  2.563979E+10 -8.392659E+09  4.131924E+11 -8.320231E+09 -5.241862E+09 -1.124884E+08
        63  24  3.123914E+10 -8.543941E+09  4.056324E+11 -9.729777E+09 -5.063440E+09 -1.315438E+08
        63  25  1.820869E+10 -3.947448E+09  4.242268E+11 -4.604474E+09 -5.490775E+09 -6.225085E+07
        63  26  2.260377E+10 -5.596669E+09  4.163150E+11 -5.843703E+09 -5.324628E+09 -7.900397E+07
        63  27  2.742802E+10 -6.585051E+09  4.091341E+11 -7.159381E+09 -5.161937E+09 -9.679024E+07
        64   1  3.689750E+09 -8.210629E+09  4.449349E+11 -1.782561E+09  5.967518E+09  2.410488E+07
        64   2  1.147232E+10 -1.009288E+10  4.342496E+11 -5.070983E+09  5.718356E+09  6.856265E+07
        64   3  1.989652E+10 -1.064761E+10  4.249183E+11 -8.336623E+09  5.477535E+09  1.127122E+08
        64   4  2.550281E+09 -2.404607E+09  4.453668E+11 -9.527515E+08  5.989421E+09  1.288327E+07
        64   5  9.710868E+09 -5.246295E+09  4.354745E+11 -3.411313E+09  5.759192E+09  4.612178E+07
        64   6  1.763728E+10 -6.653256E+09  4.268748E+11 -5.878121E+09  5.534992E+09  7.947160E+07
        64   7  2.546199E+09  3.953032E+09  4.465805E+11 -6.815038E+08  6.005103E+09  9.213185E+06
        64   8  8.579700E+09 -1.695969E+08  4.371955E+11 -2.254434E+09  5.796986E+09  3.047843E+07
        64   9  1.543645E+10 -2.771428E+09  4.290254E+11 -3.860626E+09  5.593260E+09  5.219323E+07
        64  10  3.610023E+09 -8.210226E+09  4.450159E+11 -1.782471E+09  8.482104E-04  7.105427E-05
        64  11  1.139457E+10 -1.009308E+10  4.343267E+11 -5.071234E+09  2.886580E-04  1.776357E-04
        64  12  1.982071E+10 -1.064837E+10  4.249916E+11 -8.337233E+09 -2.753353E-04  1.249001E-04
        64  13  2.470418E+09 -2.404139E+09  4.454482E+11 -9.528453E+08  5.506706E-04  1.428718E-04
        64  14  9.632787E+09 -5.246399E+09  4.355522E+11 -3.411663E+09 -2.842171E-04  2.137179E-04
        64  15  1.756095E+10 -6.653905E+09  4.269490E+11 -5.878742E+09  2.797762E-04 -9.159340E-05
        64  16  2.466196E+09  3.953535E+09  4.466622E+11 -6.818334E+08  3.086420E-04  0.000000E+00
        64  17  8.501266E+09 -1.696296E+08  4.372738E+11 -2.254930E+09 -4.263256E-04 -1.776357E-04
        64  18  1.535956E+10 -2.771977E+09  4.291004E+11 -3.861301E+09 -2.176037E-04  1.110223E-04
        64  19  3.689750E+09 -8.210629E+09  4.449349E+11 -1.782561E+09 -5.967518E+09 -2.410488E+07
        64  20  1.147232E+10 -1.009288E+10  4.342496E+11 -5.070983E+09 -5.718356E+09 -6.856265E+07
        64  21  1.989652E+10 -1.064761E+10  4.249183E+11 -8.336623E+09 -5.477535E+09 -1.127122E+08
        64  22  2.550281E+09 -2.404607E+09  4.453668E+11 -9.527515E+08 -5.989421E+09 -1.288327E+07
        64  23  9.710868E+09 -5.246295E+09  4.354745E+11 -3.411313E+09 -5.759192E+09 -4.612178E+07
        64  24  1.763728E+10 -6.653256E+09  4.268748E+11 -5.878121E+09 -5.534992E+09 -7.947160E+07
        64  25  2.546199E+09  3.953032E+09  4.465805E+11 -6.815038E+08 -6.005103E+09 -9.213185E+06
        64  26  8.579700E+09 -1.695969E+08  4.371955E+11 -2.254434E+09 -5.796986E+09 -3.047843E+07
        64  27  1.543645E+10 -2.771428E+09  4.290254E+11 -3.860626E+09 -5.593260E+09 -5.219323E+07
        65   1  2.044350E+11 -1.619659E+10  3.468722E+11 -6.370832E+10  1.924929E+09  8.613304E+08
        65   2  2.108514E+11 -2.668956E+10  3.510238E+11 -4.900462E+10  1.891731E+09  6.625331E+08
        65   3  2.152434E+11 -3.639150E+10  3.540890E+11 -3.466397E+10  1.875690E+09  4.686439E+08
        65   4  2.298770E+11 -2.179339E+10  3.527532E+11 -5.867095E+10  1.660860E+09  7.932289E+08
        65   5  2.321076E+11 -3.090441E+10  3.553533E+11 -4.146725E+10  1.662785E+09  5.606304E+08
        65   6  2.320948E+11 -3.925354E+10  3.567482E+11 -2.455671E+10  1.683333E+09  3.319950E+08
        65   7  2.629799E+11 -2.291738E+10  3.624615E+11 -5.141040E+10  1.343982E+09  6.950688E+08
        65   8  2.612311E+11 -3.056341E+10  3.634521E+11 -3.162424E+10  1.378343E+09  4.275544E+08
        65   9  2.570289E+11 -3.747247E+10  3.631192E+11 -1.205838E+10  1.432695E+09  1.630179E+08
        65  10  2.044132E+11 -1.619476E+10  3.469001E+11 -6.371339E+10  4.218847E-04  3.996803E-05
        65  11  2.108261E+11 -2.668941E+10  3.510496E+11 -4.900902E+10  2.842171E-04  4.884981E-05
        65  12  2.152144E+11 -3.639309E+10  3.541128E+11 -3.466777E+10 -6.217249E-05 -8.326673E-06
        65  13  2.298585E+11 -2.179169E+10  3.527774E+11 -5.867529E+10  8.881784E-06  4.440892E-06
        65  14  2.320857E+11 -3.090415E+10  3.553761E+11 -4.147087E+10  2.819966E-04  3.552714E-05
        65  15  2.320692E+11 -3.925475E+10  3.567697E+11 -2.455967E+10  5.728751E-04  4.884981E-05
        65  16  2.629648E+11 -2.291608E+10  3.624810E+11 -5.141395E+10  1.287859E-04  0.000000E+00
        65  17  2.612126E+11 -3.056332E+10  3.634709E+11 -3.162703E+10  6.372680E-04  4.440892E-06
        65  18  2.570069E+11 -3.747361E+10  3.631374E+11 -1.206047E+10  1.930400E-04 -1.998401E-05
        65  19  2.044350E+11 -1.619659E+10  3.468722E+11 -6.370832E+10 -1.924929E+09 -8.613304E+08
        65  20  2.108514E+11 -2.668956E+10  3.510238E+11 -4.900462E+10 -1.891731E+09 -6.625331E+08
        65  21  2.152434E+11 -3.639150E+10  3.540890E+11 -3.466397E+10 -1.875690E+09 -4.686439E+08
        65  22  2.298770E+11 -2.179339E+10  3.527532E+11 -5.867095E+10 -1.660860E+09 -7.932289E+08
        65  23  2.321076E+11 -3.090441E+10  3.553533E+11 -4.146725E+10 -1.662785E+09 -5.606304E+08
        65  24  2.320948E+11 -3.925354E+10  3.567482E+11 -2.455671E+10 -1.683333E+09 -3.319950E+08
        65  25  2.629799E+11 -2.291738E+10  3.624615E+11 -5.141040E+10 -1.343982E+09 -6.950688E+08
        65  26  2.612311E+11 -3.056341E+10  3.634521E+11 -3.162424E+10 -1.378343E+09 -4.275544E+08
        65  27  2.570289E+11 -3.747247E+10  3.631192E+11 -1.205838E+10 -1.432695E+09 -1.630179E+08
        66   1  2.143896E+11 -3.920539E+10  3.553652E+11 -2.574727E+10  1.905001E+09  3.481038E+08
        66   2  2.053860E+11 -4.304383E+10  3.552380E+11 -1.192690E+10  2.023531E+09  1.612513E+08
        66   3  1.992696E+11 -4.425990E+10  3.563451E+11  6.773778E+08  2.122434E+09 -9.159607E+06
        66   4  2.297962E+11 -4.083702E+10  3.574969E+11 -1.460625E+10  1.725050E+09  1.974773E+08
        66   5  2.165474E+11 -4.352088E+10  3.556733E+11 -8.570587E+08  1.878100E+09  1.158717E+07
        66   6  2.061060E+11 -4.350573E+10  3.551452E+11  1.167816E+10  2.012990E+09 -1.578898E+08
        66   7  2.487288E+11 -3.945766E+10  3.614283E+11 -2.141546E+09  1.522945E+09  2.895446E+07
        66   8  2.313534E+11 -4.089008E+10  3.579332E+11  1.158802E+10  1.709576E+09 -1.566703E+08
        66   9  2.167093E+11 -3.954434E+10  3.557923E+11  2.410777E+10  1.879457E+09 -3.259382E+08
        66  10  2.143650E+11 -3.920488E+10  3.553915E+11 -2.574893E+10  0.000000E+00  4.884981E-05
        66  11  2.053578E+11 -4.304415E+10  3.552651E+11 -1.192777E+10 -1.421085E-04  2.664535E-05
        66  12  1.992377E+11 -4.426127E+10  3.563724E+11  6.772642E+08  9.769963E-05 -2.456368E-05
        66  13  2.297749E+11 -4.083615E+10  3.575211E+11 -1.460714E+10 -2.220446E-06  4.440892E-06
        66  14  2.165226E+11 -4.352063E+10  3.556990E+11 -8.571448E+08  5.706546E-04 -3.552714E-05
        66  15  2.060775E+11 -4.350626E+10  3.551719E+11  1.167883E+10 -2.131628E-04  3.330669E-05
        66  16  2.487107E+11 -3.945658E+10  3.614500E+11 -2.141607E+09  1.332268E-04  0.000000E+00
        66  17  2.313319E+11 -4.088939E+10  3.579570E+11  1.158877E+10 -2.886580E-04 -2.664535E-05
        66  18  2.166842E+11 -3.954419E+10  3.558179E+11  2.410929E+10 -2.792558E-04 -4.440892E-06
        66  19  2.143896E+11 -3.920539E+10  3.553652E+11 -2.574727E+10 -1.905001E+09 -3.481038E+08
        66  20  2.053860E+11 -4.304383E+10  3.552380E+11 -1.192690E+10 -2.023531E+09 -1.612513E+08
        66  21  1.992696E+11 -4.425990E+10  3.563451E+11  6.773778E+08 -2.122434E+09  9.159607E+06
        66  22  2.297962E+11 -4.083702E+10  3.574969E+11 -1.460625E+10 -1.725050E+09 -1.974773E+08
        66  23  2.165474E+11 -4.352088E+10  3.556733E+11 -8.570587E+08 -1.878100E+09 -1.158717E+07
        66  24  2.061060E+11 -4.350573E+10  3.551452E+11  1.167816E+10 -2.012990E+09  1.578898E+08
        66  25  2.487288E+11 -3.945766E+10  3.614283E+11 -2.141546E+09 -1.522945E+09 -2.895446E+07
        66  26  2.313534E+11 -4.089008E+10  3.579332E+11  1.158802E+10 -1.709576E+09  1.566703E+08
        66  27  2.167093E+11 -3.954434E+10  3.557923E+11  2.410777E+10 -1.879457E+09  3.259382E+08
        67   1  2.585501E+11 -3.762083E+10  3.635880E+11  6.873114E+09  1.418549E+09 -9.291477E+07
        67   2  2.354241E+11 -3.946779E+10  3.577357E+11  2.066319E+10  1.651424E+09 -2.793571E+08
        67   3  2.193992E+11 -3.680683E+10  3.551291E+11  3.230201E+10  1.833643E+09 -4.367135E+08
        67   4  2.654112E+11 -3.234261E+10  3.644640E+11  2.516357E+10  1.336023E+09 -3.402063E+08
        67   5  2.381085E+11 -3.278119E+10  3.569066E+11  3.681287E+10  1.602845E+09 -4.977041E+08
        67   6  2.179604E+11 -2.853333E+10  3.528155E+11  4.625624E+10  1.820364E+09 -6.253768E+08
        67   7  2.725311E+11 -2.516938E+10  3.653433E+11  4.412993E+10  1.253874E+09 -5.966357E+08
        67   8  2.410935E+11 -2.409306E+10  3.561762E+11  5.366248E+10  1.555225E+09 -7.255138E+08
        67   9  2.168620E+11 -1.815103E+10  3.506919E+11  6.093531E+10  1.808613E+09 -8.238395E+08
        67  10  2.585292E+11 -3.762157E+10  3.636065E+11  6.874663E+09 -2.842171E-04 -2.220446E-05
        67  11  2.353994E+11 -3.946878E+10  3.577571E+11  2.066561E+10 -2.886580E-04 -2.220446E-05
        67  12  2.193707E+11 -3.680841E+10  3.551523E+11  3.230528E+10 -3.963496E-04 -2.740863E-05
        67  13  2.653938E+11 -3.234231E+10  3.644824E+11  2.516589E+10  2.220446E-06 -2.886580E-05
        67  14  2.380874E+11 -3.278092E+10  3.569286E+11  3.681606E+10  2.797762E-04  0.000000E+00
        67  15  2.179355E+11 -2.853340E+10  3.528401E+11  4.626027E+10  2.153833E-04  2.442491E-05
        67  16  2.725171E+11 -2.516811E+10  3.653615E+11  4.413309E+10 -2.797762E-04  0.000000E+00
        67  17  2.410759E+11 -2.409158E+10  3.561988E+11  5.366651E+10 -1.421085E-04  4.440892E-06
        67  18  2.168408E+11 -1.814963E+10  3.507177E+11  6.094018E+10 -3.185646E-04 -1.554312E-05
        67  19  2.585501E+11 -3.762083E+10  3.635880E+11  6.873114E+09 -1.418549E+09  9.291477E+07
        67  20  2.354241E+11 -3.946779E+10  3.577357E+11  2.066319E+10 -1.651424E+09  2.793571E+08
        67  21  2.193992E+11 -3.680683E+10  3.551291E+11  3.230201E+10 -1.833643E+09  4.367135E+08
        67  22  2.654112E+11 -3.234261E+10  3.644640E+11  2.516357E+10 -1.336023E+09  3.402063E+08
        67  23  2.381085E+11 -3.278119E+10  3.569066E+11  3.681287E+10 -1.602845E+09  4.977041E+08
        67  24  2.179604E+11 -2.853333E+10  3.528155E+11  4.625624E+10 -1.820364E+09  6.253768E+08
        67  25  2.725311E+11 -2.516938E+10  3.653433E+11  4.412993E+10 -1.253874E+09  5.966357E+08
        67  26  2.410935E+11 -2.409306E+10  3.561762E+11  5.366248E+10 -1.555225E+09  7.255138E+08
        67  27  2.168620E+11 -1.815103E+10  3.506919E+11  6.093531E+10 -1.808613E+09  8.238395E+08
        68   1  2.864511E+11 -2.122207E+10  3.701758E+11 -4.508853E+10  1.129826E+09  6.096000E+08
        68   2  2.750382E+11 -3.104244E+10  3.670155E+11 -2.306481E+10  1.238913E+09  3.118362E+08
        68   3  2.686922E+11 -3.659041E+10  3.658686E+11 -3.052417E+09  1.311236E+09  4.126615E+07
        68   4  3.120464E+11 -2.038950E+10  3.781250E+11 -2.636404E+10  8.902505E+08  3.564438E+08
        68   5  2.925313E+11 -2.883303E+10  3.717815E+11 -4.430854E+09  1.065930E+09  5.990415E+07
        68   6  2.779386E+11 -3.288708E+10  3.675546E+11  1.549936E+10  1.207439E+09 -2.095547E+08
        68   7  3.443220E+11 -1.415029E+10  3.892370E+11 -5.169203E+09  6.055524E+08  6.988795E+07
        68   8  3.169162E+11 -2.105637E+10  3.797418E+11  1.676283E+10  8.459909E+08 -2.266360E+08
        68   9  2.942939E+11 -2.345263E+10  3.724618E+11  3.670355E+10  1.054755E+09 -4.962367E+08
        68  10  2.864378E+11 -2.122124E+10  3.701920E+11 -4.509132E+10 -1.465494E-04  0.000000E+00
        68  11  2.750197E+11 -3.104313E+10  3.670317E+11 -2.306642E+10 -2.886580E-04  6.661338E-06
        68  12  2.686685E+11 -3.659296E+10  3.658838E+11 -3.052902E+09  7.660539E-05 -2.151057E-05
        68  13  3.120380E+11 -2.038795E+10  3.781386E+11 -2.636565E+10 -5.662137E-04 -2.220446E-06
        68  14  2.925179E+11 -2.883257E+10  3.717965E+11 -4.431270E+09  8.548717E-04  0.000000E+00
        68  15  2.779201E+11 -3.288801E+10  3.675700E+11  1.550008E+10  6.505907E-04 -5.107026E-05
        68  16  3.443184E+11 -1.414828E+10  3.892473E+11 -5.169531E+09 -4.440892E-06 -5.329071E-05
        68  17  3.169078E+11 -2.105504E+10  3.797546E+11  1.676371E+10  0.000000E+00 -8.881784E-06
        68  18  2.942805E+11 -2.345225E+10  3.724765E+11  3.670557E+10 -2.213507E-05 -9.992007E-06
        68  19  2.864511E+11 -2.122207E+10  3.701758E+11 -4.508853E+10 -1.129826E+09 -6.096000E+08
        68  20  2.750382E+11 -3.104244E+10  3.670155E+11 -2.306481E+10 -1.238913E+09 -3.118362E+08
        68  21  2.686922E+11 -3.659041E+10  3.658686E+11 -3.052417E+09 -1.311236E+09 -4.126615E+07
        68  22  3.120464E+11 -2.038950E+10  3.781250E+11 -2.636404E+10 -8.902505E+08 -3.564438E+08
        68  23  2.925313E+11 -2.883303E+10  3.717815E+11 -4.430854E+09 -1.065930E+09 -5.990415E+07
        68  24  2.779386E+11 -3.288708E+10  3.675546E+11  1.549936E+10 -1.207439E+09  2.095547E+08
        68  25  3.443220E+11 -1.415029E+10  3.892370E+11 -5.169203E+09 -6.055524E+08 -6.988795E+07
        68  26  3.169162E+11 -2.105637E+10  3.797418E+11  1.676283E+10 -8.459909E+08  2.266360E+08
        68  27  2.942939E+11 -2.345263E+10  3.724618E+11  3.670355E+10 -1.054755E+09  4.962367E+08
        69   1  8.452859E+09 -3.117388E+10  4.370915E+11  4.196421E+09  5.797575E+09 -5.673578E+07
        69   2  2.025138E+10 -2.564073E+10  4.251682E+11  9.363144E+09  5.477433E+09 -1.265862E+08
        69   3  3.099050E+10 -2.114083E+10  4.138874E+11  1.381622E+10  5.178670E+09 -1.867881E+08
        69   4  2.019426E+10 -3.233811E+10  4.238708E+11  8.792953E+09  5.461110E+09 -1.188826E+08
        69   5  3.054289E+10 -2.735218E+10  4.139989E+11  1.321330E+10  5.187828E+09 -1.786422E+08
        69   6  3.908910E+10 -2.408973E+10  4.040133E+11  1.670713E+10  4.936248E+09 -2.258752E+08
        69   7  3.355282E+10 -3.062274E+10  4.134395E+11  1.345166E+10  5.137954E+09 -1.818708E+08
        69   8  4.216700E+10 -2.623986E+10  4.051857E+11  1.718188E+10  4.910041E+09 -2.323001E+08
        69   9  4.815839E+10 -2.433592E+10  3.960732E+11  1.973178E+10  4.705297E+09 -2.667715E+08
        69  10  8.376196E+09 -3.117315E+10  4.371706E+11  4.196970E+09  2.842171E-04  0.000000E+00
        69  11  2.017835E+10 -2.564030E+10  4.252427E+11  9.364369E+09  7.194245E-04  8.881784E-06
        69  12  3.092100E+10 -2.114061E+10  4.139576E+11  1.381809E+10  2.831069E-04 -8.881784E-06
        69  13  2.012036E+10 -3.233816E+10  4.239446E+11  8.793545E+09 -1.137423E-03 -2.220446E-05
        69  14  3.047233E+10 -2.735238E+10  4.140688E+11  1.321451E+10 -5.662137E-04 -8.881784E-06
        69  15  3.902179E+10 -2.408998E+10  4.040797E+11  1.670892E+10 -2.853273E-04 -4.440892E-06
        69  16  3.348165E+10 -3.062348E+10  4.135082E+11  1.345222E+10 -2.753353E-04  4.440892E-06
        69  17  4.209892E+10 -2.624060E+10  4.052513E+11  1.718300E+10 -1.421085E-04  4.440892E-06
        69  18  4.809331E+10 -2.433655E+10  3.961362E+11  1.973341E+10  1.076916E-04 -4.718448E-06
        69  19  8.452859E+09 -3.117388E+10  4.370915E+11  4.196421E+09 -5.797575E+09  5.673578E+07
        69  20  2.025138E+10 -2.564073E+10  4.251682E+11  9.363144E+09 -5.477433E+09  1.265862E+08
        69  21  3.099050E+10 -2.114083E+10  4.138874E+11  1.381622E+10 -5.178670E+09  1.867881E+08
        69  22  2.019426E+10 -3.233811E+10  4.238708E+11  8.792953E+09 -5.461110E+09  1.188826E+08
        69  23  3.054289E+10 -2.735218E+10  4.139989E+11  1.321330E+10 -5.187828E+09  1.786422E+08
        69  24  3.908910E+10 -2.408973E+10  4.040133E+11  1.670713E+10 -4.936248E+09  2.258752E+08
        69  25  3.355282E+10 -3.062274E+10  4.134395E+11  1.345166E+10 -5.137954E+09  1.818708E+08
        69  26  4.216700E+10 -2.623986E+10  4.051857E+11  1.718188E+10 -4.910041E+09  2.323001E+08
        69  27  4.815839E+10 -2.433592E+10  3.960732E+11  1.973178E+10 -4.705297E+09  2.667715E+08
        70   1  3.574225E+10 -1.972900E+10  4.070534E+11  1.567247E+10  5.021823E+09 -2.118889E+08
        70   2  4.210462E+10 -1.617238E+10  3.959366E+11  1.758279E+10  4.786001E+09 -2.377143E+08
        70   3  4.715921E+10 -1.332648E+10  3.851780E+11  1.884871E+10  4.571509E+09 -2.548273E+08
        70   4  4.323431E+10 -2.161696E+10  3.985235E+11  1.846048E+10  4.805701E+09 -2.495838E+08
        70   5  4.903776E+10 -1.795711E+10  3.891215E+11  2.058828E+10  4.600342E+09 -2.783500E+08
        70   6  5.291175E+10 -1.544663E+10  3.795190E+11  2.191146E+10  4.417594E+09 -2.962374E+08
        70   7  5.151248E+10 -2.274225E+10  3.911669E+11  2.104885E+10  4.593442E+09 -2.845798E+08
        70   8  5.650382E+10 -1.907373E+10  3.832211E+11  2.350172E+10  4.418634E+09 -3.177413E+08
        70   9  5.886552E+10 -1.703455E+10  3.745106E+11  2.495912E+10  4.268681E+09 -3.374438E+08
        70  10  3.567555E+10 -1.972850E+10  4.071218E+11  1.567397E+10 -4.440892E-06  8.326673E-06
        70  11  4.204050E+10 -1.617214E+10  3.960016E+11  1.758460E+10  4.440892E-06 -1.040834E-05
        70  12  4.709758E+10 -1.332641E+10  3.852399E+11  1.885082E+10 -2.092770E-04  6.591949E-07
        70  13  4.316941E+10 -2.161694E+10  3.985885E+11  1.846200E+10 -4.440892E-06 -3.885781E-06
        70  14  4.897523E+10 -1.795727E+10  3.891835E+11  2.059011E+10 -8.537615E-04  9.159340E-06
        70  15  5.285149E+10 -1.544687E+10  3.795785E+11  2.191357E+10  0.000000E+00  2.220446E-06
        70  16  5.144941E+10 -2.274267E+10  3.912286E+11  2.105038E+10  0.000000E+00 -1.970646E-05
        70  17  5.644290E+10 -1.907424E+10  3.832803E+11  2.350353E+10  8.881784E-06 -3.608225E-06
        70  18  5.880668E+10 -1.703503E+10  3.745679E+11  2.496120E+10  2.908784E-04  3.018419E-06
        70  19  3.574225E+10 -1.972900E+10  4.070534E+11  1.567247E+10 -5.021823E+09  2.118889E+08
        70  20  4.210462E+10 -1.617238E+10  3.959366E+11  1.758279E+10 -4.786001E+09  2.377143E+08
        70  21  4.715921E+10 -1.332648E+10  3.851780E+11  1.884871E+10 -4.571509E+09  2.548273E+08
        70  22  4.323431E+10 -2.161696E+10  3.985235E+11  1.846048E+10 -4.805701E+09  2.495838E+08
        70  23  4.903776E+10 -1.795711E+10  3.891215E+11  2.058828E+10 -4.600342E+09  2.783500E+08
        70  24  5.291175E+10 -1.544663E+10  3.795190E+11  2.191146E+10 -4.417594E+09  2.962374E+08
        70  25  5.151248E+10 -2.274225E+10  3.911669E+11  2.104885E+10 -4.593442E+09  2.845798E+08
        70  26  5.650382E+10 -1.907373E+10  3.832211E+11  2.350172E+10 -4.418634E+09  3.177413E+08
        70  27  5.886552E+10 -1.703455E+10  3.745106E+11  2.495912E+10 -4.268681E+09  3.374438E+08
        71   1  5.658524E+10 -2.334343E+10  3.872886E+11  2.257285E+10  4.472337E+09 -3.051782E+08
        71   2  5.990517E+10 -2.053167E+10  3.794986E+11  2.469930E+10  4.322162E+09 -3.339271E+08
        71   3  6.260226E+10 -1.802869E+10  3.718464E+11  2.653577E+10  4.182068E+09 -3.587554E+08
        71   4  6.420261E+10 -2.501385E+10  3.806037E+11  2.483679E+10  4.279514E+09 -3.357882E+08
        71   5  6.723792E+10 -2.229099E+10  3.741573E+11  2.700219E+10  4.151223E+09 -3.650638E+08
        71   6  6.933718E+10 -2.007615E+10  3.675716E+11  2.880260E+10  4.033646E+09 -3.894046E+08
        71   7  7.258889E+10 -2.592777E+10  3.749684E+11  2.687716E+10  4.089218E+09 -3.633756E+08
        71   8  7.515962E+10 -2.340225E+10  3.696609E+11  2.916619E+10  3.982608E+09 -3.943229E+08
        71   9  7.642752E+10 -2.160693E+10  3.639334E+11  3.099633E+10  3.888012E+09 -4.190658E+08
        71  10  5.652574E+10 -2.334302E+10  3.873495E+11  2.257515E+10  2.753353E-04  8.881784E-06
        71  11  5.984749E+10 -2.053136E+10  3.795574E+11  2.470180E+10  1.421085E-04 -7.771561E-06
        71  12  6.254633E+10 -1.802843E+10  3.719032E+11  2.653847E+10  2.678413E-05 -9.159340E-06
        71  13  6.414467E+10 -2.501390E+10  3.806615E+11  2.483906E+10 -2.220446E-06 -2.220446E-06
        71  14  6.718162E+10 -2.229106E+10  3.742134E+11  2.700465E+10 -8.526513E-04  2.220446E-06
        71  15  6.928249E+10 -2.007622E+10  3.676261E+11  2.880525E+10 -4.996004E-04  6.661338E-06
        71  16  7.253254E+10 -2.592823E+10  3.750232E+11  2.687936E+10  2.842171E-04  4.440892E-06
        71  17  7.510478E+10 -2.340268E+10  3.697143E+11  2.916858E+10  4.440892E-06 -3.330669E-06
        71  18  7.637414E+10 -2.160728E+10  3.639856E+11  3.099891E+10  2.264855E-04 -3.608225E-06
        71  19  5.658524E+10 -2.334343E+10  3.872886E+11  2.257285E+10 -4.472337E+09  3.051782E+08
        71  20  5.990517E+10 -2.053167E+10  3.794986E+11  2.469930E+10 -4.322162E+09  3.339271E+08
        71  21  6.260226E+10 -1.802869E+10  3.718464E+11  2.653577E+10 -4.182068E+09  3.587554E+08
        71  22  6.420261E+10 -2.501385E+10  3.806037E+11  2.483679E+10 -4.279514E+09  3.357882E+08
        71  23  6.723792E+10 -2.229099E+10  3.741573E+11  2.700219E+10 -4.151223E+09  3.650638E+08
        71  24  6.933718E+10 -2.007615E+10  3.675716E+11  2.880260E+10 -4.033646E+09  3.894046E+08
        71  25  7.258889E+10 -2.592777E+10  3.749684E+11  2.687716E+10 -4.089218E+09  3.633756E+08
        71  26  7.515962E+10 -2.340225E+10  3.696609E+11  2.916619E+10 -3.982608E+09  3.943229E+08
        71  27  7.642752E+10 -2.160693E+10  3.639334E+11  3.099633E+10 -3.888012E+09  4.190658E+08
        72   1  4.031972E+10 -3.066803E+10  4.073632E+11  1.532015E+10  4.964121E+09 -2.071231E+08
        72   2  4.724034E+10 -2.761929E+10  3.994107E+11  1.839583E+10  4.763125E+09 -2.487050E+08
        72   3  5.369025E+10 -2.470205E+10  3.918242E+11  2.121698E+10  4.572953E+09 -2.868453E+08
        72   4  5.118735E+10 -3.141086E+10  3.974339E+11  1.784692E+10  4.683853E+09 -2.412872E+08
        72   5  5.712192E+10 -2.869239E+10  3.909603E+11  2.071829E+10  4.515914E+09 -2.801068E+08
        72   6  6.218532E+10 -2.637952E+10  3.844846E+11  2.323734E+10  4.359454E+09 -3.141628E+08
        72   7  6.291494E+10 -3.088739E+10  3.892436E+11  2.042548E+10  4.413379E+09 -2.761522E+08
        72   8  6.760405E+10 -2.864984E+10  3.839012E+11  2.319302E+10  4.277658E+09 -3.135681E+08
        72   9  7.095849E+10 -2.712115E+10  3.781910E+11  2.548599E+10  4.154936E+09 -3.445674E+08
        72  10  4.025408E+10 -3.066741E+10  4.074309E+11  1.532187E+10  8.881784E-06  8.881784E-06
        72  11  4.717702E+10 -2.761884E+10  3.994755E+11  1.839788E+10 -1.376677E-04  8.881784E-06
        72  12  5.362919E+10 -2.470173E+10  3.918864E+11  2.121935E+10 -1.665335E-06 -8.881784E-06
        72  13  5.112392E+10 -3.141092E+10  3.974971E+11  1.784853E+10  1.139089E-03  8.881784E-06
        72  14  5.706061E+10 -2.869251E+10  3.910212E+11  2.072023E+10 -8.493206E-04  3.996803E-05
        72  15  6.212609E+10 -2.637966E+10  3.845434E+11  2.323960E+10 -7.061018E-04  8.881784E-06
        72  16  6.285371E+10 -3.088807E+10  3.893026E+11  2.042690E+10 -2.842171E-04 -3.552714E-05
        72  17  6.754478E+10 -2.865046E+10  3.839584E+11  2.319477E+10 -2.753353E-04 -8.881784E-06
        72  18  7.090113E+10 -2.712166E+10  3.782467E+11  2.548806E+10 -2.120526E-04  2.109424E-05
        72  19  4.031972E+10 -3.066803E+10  4.073632E+11  1.532015E+10 -4.964121E+09  2.071231E+08
        72  20  4.724034E+10 -2.761929E+10  3.994107E+11  1.839583E+10 -4.763125E+09  2.487050E+08
        72  21  5.369025E+10 -2.470205E+10  3.918242E+11  2.121698E+10 -4.572953E+09  2.868453E+08
        72  22  5.118735E+10 -3.141086E+10  3.974339E+11  1.784692E+10 -4.683853E+09  2.412872E+08
        72  23  5.712192E+10 -2.869239E+10  3.909603E+11  2.071829E+10 -4.515914E+09  2.801068E+08
        72  24  6.218532E+10 -2.637952E+10  3.844846E+11  2.323734E+10 -4.359454E+09  3.141628E+08
        72  25  6.291494E+10 -3.088739E+10  3.892436E+11  2.042548E+10 -4.413379E+09  2.761522E+08
        72  26  6.760405E+10 -2.864984E+10  3.839012E+11  2.319302E+10 -4.277658E+09  3.135681E+08
        72  27  7.095849E+10 -2.712115E+10  3.781910E+11  2.548599E+10 -4.154936E+09  3.445674E+08
        73   1  9.612691E+10 -7.492375E+09  3.190974E+11  5.121136E+10  3.015327E+09 -6.923689E+08
        73   2  8.733890E+10 -7.525719E+09  3.182048E+11  4.768771E+10  3.122679E+09 -6.447279E+08
        73   3  7.940041E+10 -7.096344E+09  3.179793E+11  4.398361E+10  3.226375E+09 -5.946472E+08
        73   4  8.166759E+10 -9.039192E+08  3.110045E+11  4.649910E+10  3.101166E+09 -6.286613E+08
        73   5  7.456815E+10 -1.524065E+09  3.103202E+11  4.318213E+10  3.188346E+09 -5.838147E+08
        73   6  6.799030E+10 -1.930402E+09  3.100680E+11  3.977896E+10  3.273397E+09 -5.378028E+08
        73   7  6.153851E+10  2.570773E+09  3.003072E+11  4.054938E+10  3.228778E+09 -5.482235E+08
        73   8  5.697010E+10  1.487824E+09  3.001349E+11  3.737774E+10  3.288541E+09 -5.053420E+08
        73   9  5.249796E+10  2.892775E+08  3.001087E+11  3.425015E+10  3.348328E+09 -4.630561E+08
        73  10  9.608409E+10 -7.493260E+09  3.191373E+11  5.121596E+10 -2.842171E-04 -4.440892E-06
        73  11  8.729622E+10 -7.525922E+09  3.182468E+11  4.769218E+10  1.509903E-04  1.554312E-05
        73  12  7.935792E+10 -7.095864E+09  3.180234E+11  4.398796E+10 -1.021405E-04  8.743006E-06
        73  13  8.162406E+10 -9.046052E+08  3.110457E+11  4.650323E+10  0.000000E+00  1.110223E-05
        73  14  7.452491E+10 -1.524125E+09  3.103633E+11  4.318613E+10  8.526513E-04 -1.776357E-05
        73  15  6.794738E+10 -1.929831E+09  3.101129E+11  3.978283E+10 -2.131628E-04  3.330669E-06
        73  16  6.149370E+10  2.570277E+09  3.003503E+11  4.055291E+10  1.310063E-04  0.000000E+00
        73  17  5.692576E+10  1.487871E+09  3.001794E+11  3.738113E+10 -6.217249E-05  0.000000E+00
        73  18  5.245410E+10  2.898824E+08  3.001546E+11  3.425340E+10  3.474998E-04 -7.216450E-06
        73  19  9.612691E+10 -7.492375E+09  3.190974E+11  5.121136E+10 -3.015327E+09  6.923689E+08
        73  20  8.733890E+10 -7.525719E+09  3.182048E+11  4.768771E+10 -3.122679E+09  6.447279E+08
        73  21  7.940041E+10 -7.096344E+09  3.179793E+11  4.398361E+10 -3.226375E+09  5.946472E+08
        73  22  8.166759E+10 -9.039192E+08  3.110045E+11  4.649910E+10 -3.101166E+09  6.286613E+08
        73  23  7.456815E+10 -1.524065E+09  3.103202E+11  4.318213E+10 -3.188346E+09  5.838147E+08
        73  24  6.799030E+10 -1.930402E+09  3.100680E+11  3.977896E+10 -3.273397E+09  5.378028E+08
        73  25  6.153851E+10  2.570773E+09  3.003072E+11  4.054938E+10 -3.228778E+09  5.482235E+08
        73  26  5.697010E+10  1.487824E+09  3.001349E+11  3.737774E+10 -3.288541E+09  5.053420E+08
        73  27  5.249796E+10  2.892775E+08  3.001087E+11  3.425015E+10 -3.348328E+09  4.630561E+08
        74   1  7.516540E+10 -6.773177E+09  3.181192E+11  4.185373E+10  3.285536E+09 -5.658560E+08
        74   2  6.778490E+10 -6.558701E+09  3.184671E+11  3.794292E+10  3.390680E+09 -5.129800E+08
        74   3  6.144858E+10 -5.666422E+09  3.196383E+11  3.377499E+10  3.491578E+09 -4.566275E+08
        74   4  6.434848E+10 -2.435038E+09  3.100164E+11  3.758880E+10  3.321936E+09 -5.081962E+08
        74   5  5.851363E+10 -2.563984E+09  3.104895E+11  3.395955E+10  3.407723E+09 -4.591269E+08
        74   6  5.339689E+10 -2.238644E+09  3.115490E+11  3.015602E+10  3.490769E+09 -4.077014E+08
        74   7  4.950133E+10 -5.300943E+08  3.000473E+11  3.225769E+10  3.388012E+09 -4.361218E+08
        74   8  4.589677E+10 -9.062190E+08  3.009068E+11  2.890747E+10  3.448717E+09 -3.908253E+08
        74   9  4.260019E+10 -1.120688E+09  3.020740E+11  2.549996E+10  3.508747E+09 -3.447541E+08
        74  10  7.511912E+10 -6.773975E+09  3.181628E+11  4.185740E+10  8.881784E-06 -1.776357E-05
        74  11  6.773853E+10 -6.558934E+09  3.185127E+11  3.794652E+10 -8.881784E-06 -8.881784E-06
        74  12  6.140215E+10 -5.666091E+09  3.196858E+11  3.377851E+10 -3.819167E-04  1.054712E-05
        74  13  6.430218E+10 -2.435633E+09  3.100607E+11  3.759202E+10  0.000000E+00 -3.108624E-05
        74  14  5.846736E+10 -2.564072E+09  3.105355E+11  3.396270E+10 -1.136868E-03  8.881784E-06
        74  15  5.335068E+10 -2.238221E+09  3.115966E+11  3.015909E+10  4.130030E-04 -8.881784E-06
        74  16  4.945464E+10 -5.304759E+08  3.000927E+11  3.226037E+10  1.199041E-04  4.440892E-06
        74  17  4.585025E+10 -9.061753E+08  3.009535E+11  2.891008E+10 -2.853273E-04  2.664535E-05
        74  18  4.255389E+10 -1.120203E+09  3.021219E+11  2.550248E+10 -4.996004E-05 -2.886580E-05
        74  19  7.516540E+10 -6.773177E+09  3.181192E+11  4.185373E+10 -3.285536E+09  5.658560E+08
        74  20  6.778490E+10 -6.558701E+09  3.184671E+11  3.794292E+10 -3.390680E+09  5.129800E+08
        74  21  6.144858E+10 -5.666422E+09  3.196383E+11  3.377499E+10 -3.491578E+09  4.566275E+08
        74  22  6.434848E+10 -2.435038E+09  3.100164E+11  3.758880E+10 -3.321936E+09  5.081962E+08
        74  23  5.851363E+10 -2.563984E+09  3.104895E+11  3.395955E+10 -3.407723E+09  4.591269E+08
        74  24  5.339689E+10 -2.238644E+09  3.115490E+11  3.015602E+10 -3.490769E+09  4.077014E+08
        74  25  4.950133E+10 -5.300943E+08  3.000473E+11  3.225769E+10 -3.388012E+09  4.361218E+08
        74  26  4.589677E+10 -9.062190E+08  3.009068E+11  2.890747E+10 -3.448717E+09  3.908253E+08
        74  27  4.260019E+10 -1.120688E+09  3.020740E+11  2.549996E+10 -3.508747E+09  3.447541E+08
        75   1  4.197385E+10  1.174241E+09  2.948030E+11  2.741207E+10  3.419054E+09 -3.706110E+08
        75   2  3.866659E+10  2.449225E+08  2.954646E+11  2.450844E+10  3.472906E+09 -3.313532E+08
        75   3  3.592514E+10 -3.729711E+08  2.965325E+11  2.141042E+10  3.524055E+09 -2.894640E+08
        75   4  2.768956E+10  3.344930E+09  2.853111E+11  1.819006E+10  3.483916E+09 -2.459372E+08
        75   5  2.527885E+10  2.234423E+09  2.859459E+11  1.605003E+10  3.525070E+09 -2.170104E+08
        75   6  2.278702E+10  1.155683E+09  2.866931E+11  1.372506E+10  3.568454E+09 -1.855646E+08
        75   7  8.013118E+09  1.479774E+09  2.731723E+11  7.152991E+09  3.585672E+09 -9.672961E+07
        75   8  8.400782E+09  1.134604E+09  2.746082E+11  6.247982E+09  3.599874E+09 -8.451282E+07
        75   9  7.823188E+09  4.502809E+08  2.757649E+11  5.193786E+09  3.623131E+09 -7.023314E+07
        75  10  4.192689E+10  1.173932E+09  2.948489E+11  2.741439E+10  1.421085E-04 -4.440892E-06
        75  11  3.861966E+10  2.449348E+08  2.955116E+11  2.451075E+10 -2.797762E-04  1.110223E-05
        75  12  3.587821E+10 -3.726676E+08  2.965804E+11  2.141274E+10 -5.107026E-05  3.663736E-05
        75  13  2.764203E+10  3.344774E+09  2.853580E+11  1.819168E+10 -8.881784E-06 -2.664535E-05
        75  14  2.523161E+10  2.234608E+09  2.859937E+11  1.605164E+10 -5.684342E-04  0.000000E+00
        75  15  2.274000E+10  1.156181E+09  2.867419E+11  1.372667E+10  7.105427E-04  2.220446E-05
        75  16  7.964062E+09  1.479615E+09  2.732205E+11  7.153678E+09 -1.271205E-04 -8.881784E-06
        75  17  8.352354E+09  1.134716E+09  2.746570E+11  6.248637E+09 -4.329870E-04  0.000000E+00
        75  18  7.775243E+09  4.506268E+08  2.758143E+11  5.194413E+09  2.220446E-05 -5.884182E-05
        75  19  4.197385E+10  1.174241E+09  2.948030E+11  2.741207E+10 -3.419054E+09  3.706110E+08
        75  20  3.866659E+10  2.449225E+08  2.954646E+11  2.450844E+10 -3.472906E+09  3.313532E+08
        75  21  3.592514E+10 -3.729711E+08  2.965325E+11  2.141042E+10 -3.524055E+09  2.894640E+08
        75  22  2.768956E+10  3.344930E+09  2.853111E+11  1.819006E+10 -3.483916E+09  2.459372E+08
        75  23  2.527885E+10  2.234423E+09  2.859459E+11  1.605003E+10 -3.525070E+09  2.170104E+08
        75  24  2.278702E+10  1.155683E+09  2.866931E+11  1.372506E+10 -3.568454E+09  1.855646E+08
        75  25  8.013118E+09  1.479774E+09  2.731723E+11  7.152991E+09 -3.585672E+09  9.672961E+07
        75  26  8.400782E+09  1.134604E+09  2.746082E+11  6.247982E+09 -3.599874E+09  8.451282E+07
        75  27  7.823188E+09  4.502809E+08  2.757649E+11  5.193786E+09 -3.623131E+09  7.023314E+07
        76   1  5.135970E+10  4.327938E+09  2.944951E+11  3.508020E+10  3.288281E+09 -4.742849E+08
        76   2  4.749825E+10  2.890150E+09  2.943604E+11  3.213258E+10  3.338826E+09 -4.344338E+08
        76   3  4.414787E+10  1.641761E+09  2.945709E+11  2.904920E+10  3.386589E+09 -3.927421E+08
        76   4  3.471248E+10  6.939634E+09  2.848739E+11  2.392155E+10  3.383812E+09 -3.234295E+08
        76   5  3.148941E+10  5.176989E+09  2.846676E+11  2.161078E+10  3.424512E+09 -2.922004E+08
        76   6  2.823863E+10  3.384877E+09  2.845789E+11  1.916666E+10  3.466763E+09 -2.591388E+08
        76   7  1.101806E+10  5.221051E+09  2.721418E+11  1.066156E+10  3.531421E+09 -1.441720E+08
        76   8  1.055848E+10  4.110755E+09  2.727458E+11  9.471381E+09  3.545823E+09 -1.281128E+08
        76   9  9.168665E+09  2.633287E+09  2.730945E+11  8.096091E+09  3.569082E+09 -1.094799E+08
        76  10  5.131508E+10  4.327873E+09  2.945395E+11  3.508308E+10  1.598721E-04 -2.664535E-05
        76  11  4.745388E+10  2.890481E+09  2.944059E+11  3.213541E+10 -6.661338E-05 -6.661338E-06
        76  12  4.410369E+10  1.642448E+09  2.946174E+11  2.905198E+10  6.661338E-05  1.221245E-05
        76  13  3.466637E+10  6.939500E+09  2.849194E+11  2.392374E+10 -3.552714E-05 -3.552714E-05
        76  14  3.144389E+10  5.177325E+09  2.847142E+11  2.161288E+10  0.000000E+00  2.442491E-05
        76  15  2.819358E+10  3.385625E+09  2.846265E+11  1.916869E+10 -7.993606E-05  4.440892E-06
        76  16  1.096887E+10  5.220519E+09  2.721890E+11  1.066282E+10  1.315614E-04  4.440892E-06
        76  17  1.051043E+10  4.110716E+09  2.727937E+11  9.472497E+09  1.432188E-04 -3.552714E-05
        76  18  9.121494E+09  2.633645E+09  2.731431E+11  8.097086E+09  6.661338E-05  1.110223E-05
        76  19  5.135970E+10  4.327938E+09  2.944951E+11  3.508020E+10 -3.288281E+09  4.742849E+08
        76  20  4.749825E+10  2.890150E+09  2.943604E+11  3.213258E+10 -3.338826E+09  4.344338E+08
        76  21  4.414787E+10  1.641761E+09  2.945709E+11  2.904920E+10 -3.386589E+09  3.927421E+08
        76  22  3.471248E+10  6.939634E+09  2.848739E+11  2.392155E+10 -3.383812E+09  3.234295E+08
        76  23  3.148941E+10  5.176989E+09  2.846676E+11  2.161078E+10 -3.424512E+09  2.922004E+08
        76  24  2.823863E+10  3.384877E+09  2.845789E+11  1.916666E+10 -3.466763E+09  2.591388E+08
        76  25  1.101806E+10  5.221051E+09  2.721418E+11  1.066156E+10 -3.531421E+09  1.441720E+08
        76  26  1.055848E+10  4.110755E+09  2.727458E+11  9.471381E+09 -3.545823E+09  1.281128E+08
        76  27  9.168665E+09  2.633287E+09  2.730945E+11  8.096091E+09 -3.569082E+09  1.094799E+08
        77   1  4.239737E+10 -5.063441E+08  3.441209E+11 -5.890566E+09  4.081276E+09  7.963470E+07
        77   2  4.756011E+10 -1.626117E+09  3.540322E+11 -1.214992E+10  4.146256E+09  1.642622E+08
        77   3  4.800588E+10 -5.159542E+09  3.625288E+11 -1.711283E+10  4.254066E+09  2.313613E+08
        77   4  4.513308E+10 -2.755265E+09  3.428111E+11 -1.310370E+10  4.027424E+09  1.771593E+08
        77   5  5.093055E+10 -4.251734E+09  3.526084E+11 -1.792256E+10  4.081707E+09  2.423105E+08
        77   6  5.115993E+10 -8.621190E+09  3.604388E+11 -2.125744E+10  4.183523E+09  2.873975E+08
        77   7  5.060326E+10 -3.907260E+09  3.430776E+11 -2.052658E+10  3.955757E+09  2.775192E+08
        77   8  5.752959E+10 -5.652986E+09  3.528638E+11 -2.381477E+10  3.994522E+09  3.219750E+08
        77   9  5.796776E+10 -1.076757E+10  3.600990E+11 -2.540647E+10  4.086035E+09  3.434931E+08
        77  10  4.234269E+10 -5.061356E+08  3.441762E+11 -5.891606E+09  2.842171E-04  7.105427E-05
        77  11  4.750530E+10 -1.625594E+09  3.540887E+11 -1.215126E+10  1.465494E-04  1.465494E-04
        77  12  4.795089E+10 -5.158464E+09  3.625873E+11 -1.711446E+10  1.554312E-05  9.992007E-05
        77  13  4.507766E+10 -2.755696E+09  3.428651E+11 -1.310490E+10  4.440892E-06 -1.421085E-04
        77  14  5.087510E+10 -4.251862E+09  3.526635E+11 -1.792405E+10 -1.993961E-03  0.000000E+00
        77  15  5.110440E+10 -8.620758E+09  3.604958E+11 -2.125921E+10 -2.109424E-04  3.330669E-05
        77  16  5.054705E+10 -3.908435E+09  3.431298E+11 -2.052796E+10  2.930989E-04  6.661338E-05
        77  17  5.747347E+10 -5.653900E+09  3.529168E+11 -2.381646E+10 -4.218847E-04 -8.881784E-06
        77  18  5.791165E+10 -1.076794E+10  3.601538E+11 -2.540843E+10  1.074141E-04 -4.662937E-05
        77  19  4.239737E+10 -5.063441E+08  3.441209E+11 -5.890566E+09 -4.081276E+09 -7.963470E+07
        77  20  4.756011E+10 -1.626117E+09  3.540322E+11 -1.214992E+10 -4.146256E+09 -1.642622E+08
        77  21  4.800588E+10 -5.159542E+09  3.625288E+11 -1.711283E+10 -4.254066E+09 -2.313613E+08
        77  22  4.513308E+10 -2.755265E+09  3.428111E+11 -1.310370E+10 -4.027424E+09 -1.771593E+08
        77  23  5.093055E+10 -4.251734E+09  3.526084E+11 -1.792256E+10 -4.081707E+09 -2.423105E+08
        77  24  5.115993E+10 -8.621190E+09  3.604388E+11 -2.125744E+10 -4.183523E+09 -2.873975E+08
        77  25  5.060326E+10 -3.907260E+09  3.430776E+11 -2.052658E+10 -3.955757E+09 -2.775192E+08
        77  26  5.752959E+10 -5.652986E+09  3.528638E+11 -2.381477E+10 -3.994522E+09 -3.219750E+08
        77  27  5.796776E+10 -1.076757E+10  3.600990E+11 -2.540647E+10 -4.086035E+09 -3.434931E+08
        78   1  4.974772E+10 -7.199819E+09  3.682517E+11 -1.883551E+10  4.307459E+09  2.546499E+08
        78   2  5.025636E+10 -1.118838E+10  3.776470E+11 -1.983455E+10  4.427955E+09  2.681580E+08
        78   3  4.846696E+10 -1.594510E+10  3.867399E+11 -2.029125E+10  4.574671E+09  2.743333E+08
        78   4  5.387938E+10 -1.054376E+10  3.662051E+11 -2.231710E+10  4.224308E+09  3.017223E+08
        78   5  5.471984E+10 -1.412117E+10  3.752308E+11 -2.266277E+10  4.335063E+09  3.063965E+08
        78   6  5.283726E+10 -1.862904E+10  3.836608E+11 -2.240222E+10  4.474148E+09  3.028742E+08
        78   7  5.913344E+10 -1.335261E+10  3.648848E+11 -2.571059E+10  4.134791E+09  3.476037E+08
        78   8  6.053378E+10 -1.640331E+10  3.736264E+11 -2.532588E+10  4.234055E+09  3.424027E+08
        78   9  5.875395E+10 -2.055125E+10  3.814721E+11 -2.426044E+10  4.364102E+09  3.279976E+08
        78  10  4.968990E+10 -7.199645E+09  3.683101E+11 -1.883748E+10  8.881784E-06 -4.440892E-06
        78  11  5.019709E+10 -1.118813E+10  3.777071E+11 -1.983648E+10  7.194245E-04 -3.552714E-05
        78  12  4.840615E+10 -1.594465E+10  3.868021E+11 -2.029314E+10 -7.727152E-04 -1.781908E-04
        78  13  5.382192E+10 -1.054392E+10  3.662621E+11 -2.231914E+10  5.706546E-04  0.000000E+00
        78  14  5.466103E+10 -1.412126E+10  3.752893E+11 -2.266477E+10  1.421085E-03  1.421085E-04
        78  15  5.277702E+10 -1.862894E+10  3.837214E+11 -2.240418E+10 -6.394885E-04 -1.443290E-04
        78  16  5.907638E+10 -1.335311E+10  3.649402E+11 -2.571271E+10 -2.664535E-04  0.000000E+00
        78  17  6.047546E+10 -1.640377E+10  3.736832E+11 -2.532795E+10  0.000000E+00  7.105427E-05
        78  18  5.869429E+10 -2.055153E+10  3.815308E+11 -2.426247E+10 -6.605827E-05 -1.665335E-04
        78  19  4.974772E+10 -7.199819E+09  3.682517E+11 -1.883551E+10 -4.307459E+09 -2.546499E+08
        78  20  5.025636E+10 -1.118838E+10  3.776470E+11 -1.983455E+10 -4.427955E+09 -2.681580E+08
        78  21  4.846696E+10 -1.594510E+10  3.867399E+11 -2.029125E+10 -4.574671E+09 -2.743333E+08
        78  22  5.387938E+10 -1.054376E+10  3.662051E+11 -2.231710E+10 -4.224308E+09 -3.017223E+08
        78  23  5.471984E+10 -1.412117E+10  3.752308E+11 -2.266277E+10 -4.335063E+09 -3.063965E+08
        78  24  5.283726E+10 -1.862904E+10  3.836608E+11 -2.240222E+10 -4.474148E+09 -3.028742E+08
        78  25  5.913344E+10 -1.335261E+10  3.648848E+11 -2.571059E+10 -4.134791E+09 -3.476037E+08
        78  26  6.053378E+10 -1.640331E+10  3.736264E+11 -2.532588E+10 -4.234055E+09 -3.424027E+08
        78  27  5.875395E+10 -2.055125E+10  3.814721E+11 -2.426044E+10 -4.364102E+09 -3.279976E+08
        79   1  6.317580E+10 -1.447161E+10  3.646710E+11 -2.753582E+10  4.077094E+09  3.722770E+08
        79   2  6.304099E+10 -1.803344E+10  3.724272E+11 -2.643368E+10  4.183748E+09  3.573768E+08
        79   3  6.153686E+10 -2.203119E+10  3.799762E+11 -2.500634E+10  4.306143E+09  3.380795E+08
        79   4  6.871884E+10 -1.783532E+10  3.635878E+11 -2.940466E+10  3.987788E+09  3.975448E+08
        79   5  6.845892E+10 -2.112011E+10  3.707324E+11 -2.787171E+10  4.087745E+09  3.768197E+08
        79   6  6.659666E+10 -2.489750E+10  3.775127E+11 -2.598337E+10  4.204597E+09  3.512895E+08
        79   7  7.556249E+10 -2.059010E+10  3.632344E+11 -3.114335E+10  3.890083E+09  4.210529E+08
        79   8  7.532838E+10 -2.350013E+10  3.698371E+11 -2.910469E+10  3.982351E+09  3.934903E+08
        79   9  7.324001E+10 -2.695517E+10  3.759179E+11 -2.667283E+10  4.092920E+09  3.606116E+08
        79  10  6.312138E+10 -1.447132E+10  3.647264E+11 -2.753847E+10  2.842171E-04 -1.110223E-04
        79  11  6.298493E+10 -1.803323E+10  3.724840E+11 -2.643620E+10  2.886580E-04  4.440892E-06
        79  12  6.147908E+10 -2.203100E+10  3.800346E+11 -2.500872E+10 -3.530509E-04 -4.080070E-05
        79  13  6.866510E+10 -1.783525E+10  3.636417E+11 -2.940731E+10 -5.684342E-04  3.330669E-06
        79  14  6.840362E+10 -2.112013E+10  3.707876E+11 -2.787422E+10  8.504308E-04  1.110223E-06
        79  15  6.653971E+10 -2.489754E+10  3.775695E+11 -2.598574E+10 -6.394885E-04 -7.327472E-05
        79  16  7.550950E+10 -2.059028E+10  3.632869E+11 -3.114600E+10  8.881784E-06  1.065814E-04
        79  17  7.527391E+10 -2.350040E+10  3.698907E+11 -2.910719E+10 -1.332268E-05 -1.776357E-04
        79  18  7.318397E+10 -2.695547E+10  3.759729E+11 -2.667519E+10  2.841477E-04  4.440892E-06
        79  19  6.317580E+10 -1.447161E+10  3.646710E+11 -2.753582E+10 -4.077094E+09 -3.722770E+08
        79  20  6.304099E+10 -1.803344E+10  3.724272E+11 -2.643368E+10 -4.183748E+09 -3.573768E+08
        79  21  6.153686E+10 -2.203119E+10  3.799762E+11 -2.500634E+10 -4.306143E+09 -3.380795E+08
        79  22  6.871884E+10 -1.783532E+10  3.635878E+11 -2.940466E+10 -3.987788E+09 -3.975448E+08
        79  23  6.845892E+10 -2.112011E+10  3.707324E+11 -2.787171E+10 -4.087745E+09 -3.768197E+08
        79  24  6.659666E+10 -2.489750E+10  3.775127E+11 -2.598337E+10 -4.204597E+09 -3.512895E+08
        79  25  7.556249E+10 -2.059010E+10  3.632344E+11 -3.114335E+10 -3.890083E+09 -4.210529E+08
        79  26  7.532838E+10 -2.350013E+10  3.698371E+11 -2.910469E+10 -3.982351E+09 -3.934903E+08
        79  27  7.324001E+10 -2.695517E+10  3.759179E+11 -2.667283E+10 -4.092920E+09 -3.606116E+08
        80   1  5.537789E+10 -5.334149E+09  3.436800E+11 -2.417491E+10  3.899032E+09  3.268368E+08
        80   2  5.977664E+10 -8.411679E+09  3.520966E+11 -2.608560E+10  3.953367E+09  3.526698E+08
        80   3  6.186999E+10 -1.240078E+10  3.598837E+11 -2.744175E+10  4.030143E+09  3.710052E+08
        80   4  6.120518E+10 -9.272880E+09  3.438052E+11 -2.875022E+10  3.822557E+09  3.886970E+08
        80   5  6.530911E+10 -1.226530E+10  3.517262E+11 -2.965471E+10  3.873886E+09  4.009258E+08
        80   6  6.668196E+10 -1.631491E+10  3.587618E+11 -2.992876E+10  3.950213E+09  4.046305E+08
        80   7  6.997044E+10 -1.193544E+10  3.454758E+11 -3.328649E+10  3.725807E+09  4.500293E+08
        80   8  7.410155E+10 -1.471392E+10  3.529827E+11 -3.307293E+10  3.771192E+09  4.471414E+08
        80   9  7.503974E+10 -1.870114E+10  3.593365E+11 -3.213806E+10  3.844470E+09  4.345010E+08
        80  10  5.532642E+10 -5.333621E+09  3.437333E+11 -2.417742E+10 -2.842171E-04 -6.661338E-05
        80  11  5.972420E+10 -8.411249E+09  3.521505E+11 -2.608817E+10 -1.123546E-03 -6.661338E-05
        80  12  6.181652E+10 -1.240035E+10  3.599386E+11 -2.744439E+10 -1.532108E-04 -2.220446E-05
        80  13  6.115373E+10 -9.272785E+09  3.438570E+11 -2.875281E+10 -4.440892E-06 -1.421085E-04
        80  14  6.525678E+10 -1.226529E+10  3.517786E+11 -2.965735E+10  2.842171E-04  7.105427E-05
        80  15  6.662867E+10 -1.631487E+10  3.588152E+11 -2.993145E+10 -6.439294E-05  0.000000E+00
        80  16  6.991908E+10 -1.193587E+10  3.455257E+11 -3.328916E+10  2.708944E-04  0.000000E+00
        80  17  7.404937E+10 -1.471443E+10  3.530332E+11 -3.307564E+10 -4.218847E-04 -3.996803E-05
        80  18  7.498667E+10 -1.870161E+10  3.593880E+11 -3.214081E+10 -1.795786E-04  1.998401E-05
        80  19  5.537789E+10 -5.334149E+09  3.436800E+11 -2.417491E+10 -3.899032E+09 -3.268368E+08
        80  20  5.977664E+10 -8.411679E+09  3.520966E+11 -2.608560E+10 -3.953367E+09 -3.526698E+08
        80  21  6.186999E+10 -1.240078E+10  3.598837E+11 -2.744175E+10 -4.030143E+09 -3.710052E+08
        80  22  6.120518E+10 -9.272880E+09  3.438052E+11 -2.875022E+10 -3.822557E+09 -3.886970E+08
        80  23  6.530911E+10 -1.226530E+10  3.517262E+11 -2.965471E+10 -3.873886E+09 -4.009258E+08
        80  24  6.668196E+10 -1.631491E+10  3.587618E+11 -2.992876E+10 -3.950213E+09 -4.046305E+08
        80  25  6.997044E+10 -1.193544E+10  3.454758E+11 -3.328649E+10 -3.725807E+09 -4.500293E+08
        80  26  7.410155E+10 -1.471392E+10  3.529827E+11 -3.307293E+10 -3.771192E+09 -4.471414E+08
        80  27  7.503974E+10 -1.870114E+10  3.593365E+11 -3.213806E+10 -3.844470E+09 -4.345010E+08
        81   1  1.820562E+10 -1.151420E+09  4.028114E+11  1.321826E+09  5.200902E+09 -1.787779E+07
        81   2  1.468383E+10 -4.114725E+08  4.091120E+11  2.233192E+09  5.333977E+09 -3.020871E+07
        81   3  9.859048E+09  6.231639E+08  4.152064E+11  3.187562E+09  5.481442E+09 -4.310110E+07
        81   4  2.176742E+10 -1.141268E+09  4.051356E+11  3.731933E+08  5.184259E+09 -5.048701E+06
        81   5  1.788413E+10 -5.580067E+08  4.117006E+11  1.198950E+09  5.325873E+09 -1.621886E+07
        81   6  1.376803E+10  5.481271E+08  4.185712E+11  1.977789E+09  5.474270E+09 -2.674253E+07
        81   7  2.355075E+10 -1.894871E+09  4.067312E+11 -4.756801E+08  5.181667E+09  6.431294E+06
        81   8  1.890297E+10 -1.585349E+09  4.134266E+11  2.038850E+08  5.335371E+09 -2.758263E+06
        81   9  1.456918E+10 -6.669728E+08  4.207437E+11  7.603278E+08  5.492669E+09 -1.027932E+07
        81  10  1.813455E+10 -1.151749E+09  4.028814E+11  1.321919E+09 -8.881784E-06  0.000000E+00
        81  11  1.461173E+10 -4.114654E+08  4.091841E+11  2.233286E+09  7.105427E-04  9.769963E-05
        81  12  9.785916E+09  6.235874E+08  4.152810E+11  3.187637E+09 -1.820766E-04  1.398881E-04
        81  13  2.169643E+10 -1.141658E+09  4.052053E+11  3.732557E+08  5.551115E-04 -1.398881E-04
        81  14  1.781200E+10 -5.580664E+08  4.117725E+11  1.199046E+09 -1.705303E-03  2.842171E-04
        81  15  1.369475E+10  5.484390E+08  4.186456E+11  1.977905E+09  2.042810E-04  2.675637E-04
        81  16  2.347979E+10 -1.895262E+09  4.068008E+11 -4.756435E+08 -1.776357E-05 -2.131628E-04
        81  17  1.883076E+10 -1.585393E+09  4.134987E+11  2.039773E+08  1.136868E-03 -1.332268E-04
        81  18  1.449570E+10 -6.666454E+08  4.208183E+11  7.604661E+08 -4.352074E-04 -6.217249E-05
        81  19  1.820562E+10 -1.151420E+09  4.028114E+11  1.321826E+09 -5.200902E+09  1.787779E+07
        81  20  1.468383E+10 -4.114725E+08  4.091120E+11  2.233192E+09 -5.333977E+09  3.020871E+07
        81  21  9.859048E+09  6.231639E+08  4.152064E+11  3.187562E+09 -5.481442E+09  4.310110E+07
        81  22  2.176742E+10 -1.141268E+09  4.051356E+11  3.731933E+08 -5.184259E+09  5.048701E+06
        81  23  1.788413E+10 -5.580067E+08  4.117006E+11  1.198950E+09 -5.325873E+09  1.621886E+07
        81  24  1.376803E+10  5.481271E+08  4.185712E+11  1.977789E+09 -5.474270E+09  2.674253E+07
        81  25  2.355075E+10 -1.894871E+09  4.067312E+11 -4.756801E+08 -5.181667E+09 -6.431294E+06
        81  26  1.890297E+10 -1.585349E+09  4.134266E+11  2.038850E+08 -5.335371E+09  2.758263E+06
        81  27  1.456918E+10 -6.669728E+08  4.207437E+11  7.603278E+08 -5.492669E+09  1.027932E+07
        82   1  9.256473E+09  1.875294E+09  4.196458E+11  3.689560E+09  5.549583E+09 -4.990618E+07
        82   2  6.962678E+09  2.825826E+09  4.263219E+11  3.954347E+09  5.671013E+09 -5.351203E+07
        82   3  3.610065E+09  3.746334E+09  4.323111E+11  4.101440E+09  5.797127E+09 -5.541909E+07
        82   4  1.071314E+10  1.220313E+09  4.224837E+11  2.277594E+09  5.568484E+09 -3.081502E+07
        82   5  7.316111E+09  2.687618E+09  4.298855E+11  2.875060E+09  5.714726E+09 -3.894351E+07
        82   6  3.820043E+09  4.637526E+09  4.373839E+11  3.093082E+09  5.863182E+09 -4.190742E+07
        82   7  1.223455E+10  4.239327E+08  4.252793E+11  1.161863E+09  5.585588E+09 -1.571687E+07
        82   8  7.027116E+09  2.186348E+09  4.327394E+11  2.137509E+09  5.757199E+09 -2.893899E+07
        82   9  2.548495E+09  4.899341E+09  4.410167E+11  2.496182E+09  5.929393E+09 -3.381161E+07
        82  10  9.181211E+09  1.875182E+09  4.197208E+11  3.689782E+09 -3.197442E-04  0.000000E+00
        82  11  6.886704E+09  2.826195E+09  4.263990E+11  3.954414E+09  4.263256E-04  5.329071E-05
        82  12  3.535191E+09  3.748278E+09  4.323912E+11  4.100747E+09 -7.105427E-04  7.105427E-05
        82  13  1.063718E+10  1.220004E+09  4.225588E+11  2.277862E+09  5.773160E-04 -1.443290E-04
        82  14  7.239025E+09  2.687683E+09  4.299629E+11  2.875268E+09  2.842171E-04  1.509903E-04
        82  15  3.742064E+09  4.638114E+09  4.374639E+11  3.093140E+09  9.059420E-04  3.996803E-05
        82  16  1.215794E+10  4.234351E+08  4.253543E+11  1.162183E+09 -2.808864E-04 -7.105427E-05
        82  17  6.949166E+09  2.186201E+09  4.328172E+11  2.137809E+09  1.708494E-03 -5.329071E-05
        82  18  2.469205E+09  4.899554E+09  4.410973E+11  2.496467E+09 -1.931788E-04 -3.996803E-05
        82  19  9.256473E+09  1.875294E+09  4.196458E+11  3.689560E+09 -5.549583E+09  4.990618E+07
        82  20  6.962678E+09  2.825826E+09  4.263219E+11  3.954347E+09 -5.671013E+09  5.351203E+07
        82  21  3.610065E+09  3.746334E+09  4.323111E+11  4.101440E+09 -5.797127E+09  5.541909E+07
        82  22  1.071314E+10  1.220313E+09  4.224837E+11  2.277594E+09 -5.568484E+09  3.081502E+07
        82  23  7.316111E+09  2.687618E+09  4.298855E+11  2.875060E+09 -5.714726E+09  3.894351E+07
        82  24  3.820043E+09  4.637526E+09  4.373839E+11  3.093082E+09 -5.863182E+09  4.190742E+07
        82  25  1.223455E+10  4.239327E+08  4.252793E+11  1.161863E+09 -5.585588E+09  1.571687E+07
        82  26  7.027116E+09  2.186348E+09  4.327394E+11  2.137509E+09 -5.757199E+09  2.893899E+07
        82  27  2.548495E+09  4.899341E+09  4.410167E+11  2.496182E+09 -5.929393E+09  3.381161E+07
        83   1  1.313470E+10  6.281209E+08  4.267649E+11  3.859212E+08  5.593567E+09 -5.220749E+06
        83   2  7.548512E+09  2.308387E+09  4.343868E+11  1.098268E+09  5.772505E+09 -1.486092E+07
        83   3  2.451396E+09  5.127081E+09  4.429223E+11  2.020434E+09  5.956511E+09 -2.733924E+07
        83   4  1.334786E+10 -6.800506E+08  4.278162E+11 -1.096502E+09  5.605163E+09  1.481173E+07
        83   5  7.710167E+09  1.428963E+09  4.360148E+11 -3.221339E+06  5.792607E+09 -2.493918E+04
        83   6  2.849482E+09  4.927178E+09  4.453333E+11  9.598798E+08  5.983985E+09 -1.311709E+07
        83   7  1.427807E+10 -1.661330E+09  4.291454E+11 -2.513025E+09  5.610340E+09  3.396999E+07
        83   8  7.951245E+09  7.120697E+08  4.371894E+11 -9.529743E+08  5.805071E+09  1.284298E+07
        83   9  2.556941E+09  4.846956E+09  4.465231E+11  1.342657E+08  6.003829E+09 -1.901773E+06
        83  10  1.305821E+10  6.277651E+08  4.268401E+11  3.858024E+08 -2.886580E-04  7.105427E-05
        83  11  7.470683E+09  2.308571E+09  4.344650E+11  1.098161E+09 -4.263256E-04  1.154632E-04
        83  12  2.372241E+09  5.127878E+09  4.430036E+11  2.020286E+09  5.329071E-05  1.332268E-04
        83  13  1.327113E+10 -6.804637E+08  4.278916E+11 -1.096560E+09 -5.906386E-04 -1.426637E-04
        83  14  7.631960E+09  1.429026E+09  4.360933E+11 -3.226170E+06  0.000000E+00 -2.192690E-04
        83  15  2.769778E+09  4.927732E+09  4.454149E+11  9.599236E+08 -1.150191E-03 -1.365574E-04
        83  16  1.420108E+10 -1.661840E+09  4.292207E+11 -2.513039E+09 -2.220446E-05 -1.421085E-04
        83  17  7.872723E+09  7.119470E+08  4.372678E+11 -9.529023E+08 -2.842171E-04  0.000000E+00
        83  18  2.476833E+09  4.847184E+09  4.466047E+11  1.344597E+08  2.287059E-04 -3.108624E-05
        83  19  1.313470E+10  6.281209E+08  4.267649E+11  3.859212E+08 -5.593567E+09  5.220749E+06
        83  20  7.548512E+09  2.308387E+09  4.343868E+11  1.098268E+09 -5.772505E+09  1.486092E+07
        83  21  2.451396E+09  5.127081E+09  4.429223E+11  2.020434E+09 -5.956511E+09  2.733924E+07
        83  22  1.334786E+10 -6.800506E+08  4.278162E+11 -1.096502E+09 -5.605163E+09 -1.481173E+07
        83  23  7.710167E+09  1.428963E+09  4.360148E+11 -3.221339E+06 -5.792607E+09  2.493918E+04
        83  24  2.849482E+09  4.927178E+09  4.453333E+11  9.598798E+08 -5.983985E+09  1.311709E+07
        83  25  1.427807E+10 -1.661330E+09  4.291454E+11 -2.513025E+09 -5.610340E+09 -3.396999E+07
        83  26  7.951245E+09  7.120697E+08  4.371894E+11 -9.529743E+08 -5.805071E+09 -1.284298E+07
        83  27  2.556941E+09  4.846956E+09  4.465231E+11  1.342657E+08 -6.003829E+09  1.901773E+06
        84   1  2.421351E+10 -2.933412E+09  4.073628E+11 -2.106448E+09  5.181347E+09  2.847829E+07
        84   2  1.939845E+10 -2.368405E+09  4.142100E+11 -1.062496E+09  5.339354E+09  1.436397E+07
        84   3  1.516859E+10 -7.295504E+08  4.219367E+11 -1.709126E+07  5.500755E+09  2.299854E+05
        84   4  2.558280E+10 -3.976313E+09  4.087668E+11 -4.010637E+09  5.182032E+09  5.422405E+07
        84   5  2.081892E+10 -3.348197E+09  4.156260E+11 -2.837339E+09  5.339524E+09  3.836117E+07
        84   6  1.664416E+10 -1.638566E+09  4.233668E+11 -1.662648E+09  5.500387E+09  2.247942E+07
        84   7  2.635850E+10 -5.255727E+09  4.100101E+11 -5.859363E+09  5.188140E+09  7.921993E+07
        84   8  2.162879E+10 -4.570798E+09  4.168799E+11 -4.553356E+09  5.345299E+09  6.156301E+07
        84   9  1.749138E+10 -2.796934E+09  4.246334E+11 -3.245878E+09  5.505812E+09  4.388617E+07
        84  10  2.414261E+10 -2.933782E+09  4.074325E+11 -2.106776E+09 -2.731149E-04 -7.105427E-05
        84  11  1.932626E+10 -2.368411E+09  4.142822E+11 -1.062768E+09  2.819966E-04  1.154632E-04
        84  12  1.509509E+10 -7.291821E+08  4.220114E+11 -1.730767E+07 -1.532108E-04  8.881784E-06
        84  13  2.551183E+10 -3.976705E+09  4.088365E+11 -4.010974E+09 -1.150191E-03 -1.665335E-06
        84  14  2.074668E+10 -3.348226E+09  4.156982E+11 -2.837597E+09 -5.684342E-04 -4.918288E-04
        84  15  1.657060E+10 -1.638222E+09  4.234415E+11 -1.662825E+09 -1.509903E-04  7.216450E-05
        84  16  2.628748E+10 -5.256107E+09  4.100799E+11 -5.859707E+09 -2.908784E-04  8.881784E-06
        84  17  2.155649E+10 -4.570816E+09  4.169522E+11 -4.553597E+09  2.842171E-04 -1.776357E-04
        84  18  1.741778E+10 -2.796577E+09  4.247082E+11 -3.246014E+09  8.149037E-04 -5.551115E-05
        84  19  2.421351E+10 -2.933412E+09  4.073628E+11 -2.106448E+09 -5.181347E+09 -2.847829E+07
        84  20  1.939845E+10 -2.368405E+09  4.142100E+11 -1.062496E+09 -5.339354E+09 -1.436397E+07
        84  21  1.516859E+10 -7.295504E+08  4.219367E+11 -1.709126E+07 -5.500755E+09 -2.299854E+05
        84  22  2.558280E+10 -3.976313E+09  4.087668E+11 -4.010637E+09 -5.182032E+09 -5.422405E+07
        84  23  2.081892E+10 -3.348197E+09  4.156260E+11 -2.837339E+09 -5.339524E+09 -3.836117E+07
        84  24  1.664416E+10 -1.638566E+09  4.233668E+11 -1.662648E+09 -5.500387E+09 -2.247942E+07
        84  25  2.635850E+10 -5.255727E+09  4.100101E+11 -5.859363E+09 -5.188140E+09 -7.921993E+07
        84  26  2.162879E+10 -4.570798E+09  4.168799E+11 -4.553356E+09 -5.345299E+09 -6.156301E+07
        84  27  1.749138E+10 -2.796934E+09  4.246334E+11 -3.245878E+09 -5.505812E+09 -4.388617E+07
        85   1  1.159006E+10 -5.172856E+10  4.337248E+11 -3.429418E+08  5.710026E+09  4.633347E+06
        85   2  2.867963E+10 -4.769780E+10  4.187852E+11  4.574301E+08  5.278641E+09 -6.184073E+06
        85   3  4.735626E+10 -4.203024E+10  4.071712E+11  1.416748E+09  4.866781E+09 -1.914999E+07
        85   4  2.722822E+10 -4.716061E+10  4.196465E+11 -4.057897E+09  5.308523E+09  5.485844E+07
        85   5  4.283422E+10 -4.497073E+10  4.077329E+11 -3.567499E+09  4.937403E+09  4.823180E+07
        85   6  5.940450E+10 -4.190271E+10  3.981173E+11 -3.076743E+09  4.581195E+09  4.160088E+07
        85   7  4.439721E+10 -3.927301E+10  4.086926E+11 -8.368107E+09  4.927300E+09  1.131306E+08
        85   8  5.785738E+10 -3.922524E+10  3.989677E+11 -8.192994E+09  4.614739E+09  1.107664E+08
        85   9  7.165359E+10 -3.903125E+10  3.906379E+11 -8.193813E+09  4.314144E+09  1.107815E+08
        85  10  1.151474E+10 -5.172776E+10  4.338028E+11 -3.433322E+08 -2.825518E-04  0.000000E+00
        85  11  2.860806E+10 -4.769792E+10  4.188564E+11  4.575067E+08  5.687117E-04 -1.110223E-04
        85  12  4.728834E+10 -4.203116E+10  4.072360E+11  1.417353E+09  7.216450E-06 -7.771561E-06
        85  13  2.715771E+10 -4.716009E+10  4.197187E+11 -4.058687E+09 -1.707523E-03  2.153833E-04
        85  14  4.276700E+10 -4.497095E+10  4.077993E+11 -3.567846E+09  8.526513E-04 -3.996803E-05
        85  15  5.934055E+10 -4.190358E+10  3.981783E+11 -3.076586E+09  7.016610E-04 -6.217249E-05
        85  16  4.433146E+10 -3.927265E+10  4.087595E+11 -8.369411E+09 -5.706546E-04  1.332268E-05
        85  17  5.779455E+10 -3.922544E+10  3.990299E+11 -8.193890E+09 -4.307665E-04 -4.218847E-05
        85  18  7.159370E+10 -3.903193E+10  3.906956E+11 -8.194244E+09 -3.863576E-04 -1.915135E-05
        85  19  1.159006E+10 -5.172856E+10  4.337248E+11 -3.429418E+08 -5.710026E+09 -4.633347E+06
        85  20  2.867963E+10 -4.769780E+10  4.187852E+11  4.574301E+08 -5.278641E+09  6.184073E+06
        85  21  4.735626E+10 -4.203024E+10  4.071712E+11  1.416748E+09 -4.866781E+09  1.914999E+07
        85  22  2.722822E+10 -4.716061E+10  4.196465E+11 -4.057897E+09 -5.308523E+09 -5.485844E+07
        85  23  4.283422E+10 -4.497073E+10  4.077329E+11 -3.567499E+09 -4.937403E+09 -4.823180E+07
        85  24  5.940450E+10 -4.190271E+10  3.981173E+11 -3.076743E+09 -4.581195E+09 -4.160088E+07
        85  25  4.439721E+10 -3.927301E+10  4.086926E+11 -8.368107E+09 -4.927300E+09 -1.131306E+08
        85  26  5.785738E+10 -3.922524E+10  3.989677E+11 -8.192994E+09 -4.614739E+09 -1.107664E+08
        85  27  7.165359E+10 -3.903125E+10  3.906379E+11 -8.193813E+09 -4.314144E+09 -1.107815E+08
        86   1  5.743714E+10 -4.113517E+10  4.004374E+11  2.596676E+09  4.639218E+09 -3.511103E+07
        86   2  7.346624E+10 -4.096059E+10  3.895716E+11  4.754053E+09  4.277086E+09 -6.427551E+07
        86   3  9.061608E+10 -3.986516E+10  3.810347E+11  7.111075E+09  3.927920E+09 -9.613875E+07
        86   4  6.854634E+10 -4.086691E+10  3.928774E+11 -2.399173E+09  4.386431E+09  3.243292E+07
        86   5  8.354473E+10 -4.113865E+10  3.841745E+11 -3.797199E+08  4.067014E+09  5.133122E+06
        86   6  9.925252E+10 -4.096469E+10  3.771311E+11  1.695279E+09  3.757763E+09 -2.291713E+07
        86   7  8.028720E+10 -3.932640E+10  3.863882E+11 -7.729359E+09  4.139791E+09  1.044966E+08
        86   8  9.378975E+10 -4.027287E+10  3.793941E+11 -5.835984E+09  3.863535E+09  7.890127E+07
        86   9  1.075511E+11 -4.125930E+10  3.734343E+11 -4.047836E+09  3.595732E+09  5.472921E+07
        86  10  5.737609E+10 -4.113446E+10  4.005008E+11  2.596422E+09  1.110223E-06 -3.552714E-05
        86  11  7.340808E+10 -4.096075E+10  3.896292E+11  4.754300E+09 -1.412759E-04  3.108624E-05
        86  12  9.056080E+10 -3.986610E+10  3.810869E+11  7.111885E+09 -7.382983E-05  2.886580E-05
        86  13  6.848840E+10 -4.086633E+10  3.929373E+11 -2.399764E+09 -4.440892E-06 -7.549517E-05
        86  14  8.348942E+10 -4.113880E+10  3.842293E+11 -3.798220E+08 -2.842171E-04  7.216450E-05
        86  15  9.919987E+10 -4.096548E+10  3.771811E+11  1.695730E+09 -2.842171E-04  9.992007E-06
        86  16  8.023243E+10 -3.932589E+10  3.864446E+11 -7.730354E+09  2.819966E-04 -2.220446E-05
        86  17  9.373740E+10 -4.027293E+10  3.794463E+11 -5.836509E+09 -1.421085E-04 -3.330669E-05
        86  18  1.075012E+11 -4.125984E+10  3.734823E+11 -4.047826E+09 -6.439294E-05 -1.110223E-05
        86  19  5.743714E+10 -4.113517E+10  4.004374E+11  2.596676E+09 -4.639218E+09  3.511103E+07
        86  20  7.346624E+10 -4.096059E+10  3.895716E+11  4.754053E+09 -4.277086E+09  6.427551E+07
        86  21  9.061608E+10 -3.986516E+10  3.810347E+11  7.111075E+09 -3.927920E+09  9.613875E+07
        86  22  6.854634E+10 -4.086691E+10  3.928774E+11 -2.399173E+09 -4.386431E+09 -3.243292E+07
        86  23  8.354473E+10 -4.113865E+10  3.841745E+11 -3.797199E+08 -4.067014E+09 -5.133122E+06
        86  24  9.925252E+10 -4.096469E+10  3.771311E+11  1.695279E+09 -3.757763E+09  2.291713E+07
        86  25  8.028720E+10 -3.932640E+10  3.863882E+11 -7.729359E+09 -4.139791E+09 -1.044966E+08
        86  26  9.378975E+10 -4.027287E+10  3.793941E+11 -5.835984E+09 -3.863535E+09 -7.890127E+07
        86  27  1.075511E+11 -4.125930E+10  3.734343E+11 -4.047836E+09 -3.595732E+09 -5.472921E+07
        87   1  8.613401E+10 -3.909995E+10  3.823337E+11 -1.110335E+10  4.005522E+09  1.501107E+08
        87   2  9.832982E+10 -4.065439E+10  3.760214E+11 -9.746241E+09  3.756031E+09  1.317645E+08
        87   3  1.117514E+11 -4.121947E+10  3.711805E+11 -7.962064E+09  3.508119E+09  1.076445E+08
        87   4  9.358819E+10 -3.717970E+10  3.753008E+11 -1.773721E+10  3.809007E+09  2.398012E+08
        87   5  1.052419E+11 -3.886229E+10  3.707646E+11 -1.657349E+10  3.590572E+09  2.240697E+08
        87   6  1.179224E+11 -3.973677E+10  3.673667E+11 -1.508824E+10  3.372276E+09  2.039915E+08
        87   7  1.002552E+11 -3.499177E+10  3.683768E+11 -2.430734E+10  3.625614E+09  3.286293E+08
        87   8  1.108465E+11 -3.710730E+10  3.651806E+11 -2.329108E+10  3.439609E+09  3.148916E+08
        87   9  1.221986E+11 -3.861964E+10  3.628003E+11 -2.206654E+10  3.253322E+09  2.983384E+08
        87  10  8.608062E+10 -3.909962E+10  3.823882E+11 -1.110480E+10 -8.881784E-06  3.552714E-05
        87  11  9.827848E+10 -4.065463E+10  3.760720E+11 -9.747399E+09 -3.330669E-06 -9.325873E-05
        87  12  1.117022E+11 -4.122024E+10  3.712271E+11 -7.962871E+09 -4.973799E-04  3.219647E-05
        87  13  9.353750E+10 -3.717935E+10  3.753527E+11 -1.773905E+10  1.110223E-05 -6.439294E-05
        87  14  1.051931E+11 -3.886240E+10  3.708130E+11 -1.657502E+10  1.989520E-03  1.065814E-04
        87  15  1.178756E+11 -3.973729E+10  3.674118E+11 -1.508941E+10  1.509903E-04 -8.992806E-05
        87  16  1.002073E+11 -3.499131E+10  3.684263E+11 -2.430960E+10  8.881784E-06 -6.661338E-05
        87  17  1.108003E+11 -3.710716E+10  3.652273E+11 -2.329304E+10 -1.398881E-04  1.465494E-04
        87  18  1.221543E+11 -3.861976E+10  3.628441E+11 -2.206814E+10 -3.541611E-04 -5.183571E-05
        87  19  8.613401E+10 -3.909995E+10  3.823337E+11 -1.110335E+10 -4.005522E+09 -1.501107E+08
        87  20  9.832982E+10 -4.065439E+10  3.760214E+11 -9.746241E+09 -3.756031E+09 -1.317645E+08
        87  21  1.117514E+11 -4.121947E+10  3.711805E+11 -7.962064E+09 -3.508119E+09 -1.076445E+08
        87  22  9.358819E+10 -3.717970E+10  3.753008E+11 -1.773721E+10 -3.809007E+09 -2.398012E+08
        87  23  1.052419E+11 -3.886229E+10  3.707646E+11 -1.657349E+10 -3.590572E+09 -2.240697E+08
        87  24  1.179224E+11 -3.973677E+10  3.673667E+11 -1.508824E+10 -3.372276E+09 -2.039915E+08
        87  25  1.002552E+11 -3.499177E+10  3.683768E+11 -2.430734E+10 -3.625614E+09 -3.286293E+08
        87  26  1.108465E+11 -3.710730E+10  3.651806E+11 -2.329108E+10 -3.439609E+09 -3.148916E+08
        87  27  1.221986E+11 -3.861964E+10  3.628003E+11 -2.206654E+10 -3.253322E+09 -2.983384E+08
        88   1  5.242121E+10 -3.786741E+10  4.014728E+11 -1.177527E+10  4.720765E+09  1.591970E+08
        88   2  6.468000E+10 -3.873431E+10  3.929042E+11 -1.196361E+10  4.439916E+09  1.617452E+08
        88   3  7.830720E+10 -3.818406E+10  3.861960E+11 -1.175826E+10  4.163713E+09  1.589707E+08
        88   4  6.415140E+10 -3.401356E+10  3.898830E+11 -1.811238E+10  4.405465E+09  2.448736E+08
        88   5  7.547337E+10 -3.541387E+10  3.835943E+11 -1.847904E+10  4.167620E+09  2.498329E+08
        88   6  8.787054E+10 -3.559770E+10  3.787215E+11 -1.855400E+10  3.932810E+09  2.508488E+08
        88   7  7.485983E+10 -2.968318E+10  3.792579E+11 -2.408851E+10  4.116658E+09  3.256690E+08
        88   8  8.442667E+10 -3.218586E+10  3.744428E+11 -2.450120E+10  3.922581E+09  3.312509E+08
        88   9  9.470750E+10 -3.369160E+10  3.706369E+11 -2.471689E+10  3.731305E+09  3.341698E+08
        88  10  5.235847E+10 -3.786695E+10  4.015371E+11 -1.177661E+10  2.819966E-04  0.000000E+00
        88  11  6.461968E+10 -3.873444E+10  3.929641E+11 -1.196475E+10  1.398881E-04  0.000000E+00
        88  12  7.824932E+10 -3.818475E+10  3.862516E+11 -1.175914E+10  2.109424E-04 -1.221245E-05
        88  13  6.409248E+10 -3.401329E+10  3.899428E+11 -1.811424E+10 -5.662137E-04  0.000000E+00
        88  14  7.541659E+10 -3.541406E+10  3.836504E+11 -1.848068E+10  2.842171E-04  2.220446E-06
        88  15  8.781596E+10 -3.559830E+10  3.787741E+11 -1.855538E+10 -1.061373E-03  1.776357E-05
        88  16  7.480469E+10 -2.968296E+10  3.793138E+11 -2.409096E+10 -2.842171E-04  3.996803E-05
        88  17  8.437344E+10 -3.218595E+10  3.744957E+11 -2.450341E+10 -7.127632E-04  1.232348E-04
        88  18  9.465629E+10 -3.369193E+10  3.706870E+11 -2.471881E+10 -1.276756E-04 -2.137179E-05
        88  19  5.242121E+10 -3.786741E+10  4.014728E+11 -1.177527E+10 -4.720765E+09 -1.591970E+08
        88  20  6.468000E+10 -3.873431E+10  3.929042E+11 -1.196361E+10 -4.439916E+09 -1.617452E+08
        88  21  7.830720E+10 -3.818406E+10  3.861960E+11 -1.175826E+10 -4.163713E+09 -1.589707E+08
        88  22  6.415140E+10 -3.401356E+10  3.898830E+11 -1.811238E+10 -4.405465E+09 -2.448736E+08
        88  23  7.547337E+10 -3.541387E+10  3.835943E+11 -1.847904E+10 -4.167620E+09 -2.498329E+08
        88  24  8.787054E+10 -3.559770E+10  3.787215E+11 -1.855400E+10 -3.932810E+09 -2.508488E+08
        88  25  7.485983E+10 -2.968318E+10  3.792579E+11 -2.408851E+10 -4.116658E+09 -3.256690E+08
        88  26  8.442667E+10 -3.218586E+10  3.744428E+11 -2.450120E+10 -3.922581E+09 -3.312509E+08
        88  27  9.470750E+10 -3.369160E+10  3.706369E+11 -2.471689E+10 -3.731305E+09 -3.341698E+08
        89   1  4.807645E+10 -1.124692E+10  3.796228E+11  1.910409E+10  4.483817E+09 -2.582827E+08
        89   2  4.884019E+10 -7.644996E+09  3.716166E+11  1.798337E+10  4.365586E+09 -2.431298E+08
        89   3  4.773971E+10 -5.024983E+09  3.632312E+11  1.626272E+10  4.266780E+09 -2.198656E+08
        89   4  5.337298E+10 -1.342003E+10  3.743400E+11  2.230670E+10  4.341198E+09 -3.015828E+08
        89   5  5.379403E+10 -9.709910E+09  3.665681E+11  2.178015E+10  4.230688E+09 -2.944635E+08
        89   6  5.219331E+10 -7.087762E+09  3.582704E+11  2.060711E+10  4.140019E+09 -2.786035E+08
        89   7  5.927838E+10 -1.526575E+10  3.697392E+11  2.539937E+10  4.198500E+09 -3.433964E+08
        89   8  5.927502E+10 -1.147077E+10  3.621765E+11  2.550052E+10  4.096377E+09 -3.447640E+08
        89   9  5.709252E+10 -8.870464E+09  3.539434E+11  2.490452E+10  4.014528E+09 -3.367060E+08
        89  10  4.801701E+10 -1.124642E+10  3.796839E+11  1.910591E+10 -8.881784E-06  8.881784E-06
        89  11  4.878196E+10 -7.644661E+09  3.716760E+11  1.798519E+10  5.773160E-04 -1.776357E-05
        89  12  4.768265E+10 -5.024719E+09  3.632891E+11  1.626453E+10 -3.247402E-04  1.054712E-05
        89  13  5.331445E+10 -1.341997E+10  3.743988E+11  2.230864E+10  5.684342E-04  1.776357E-05
        89  14  5.373667E+10 -9.709987E+09  3.666252E+11  2.178208E+10  0.000000E+00 -8.881784E-06
        89  15  5.213706E+10 -7.087886E+09  3.583263E+11  2.060903E+10  3.619327E-04  1.110223E-05
        89  16  5.922076E+10 -1.526612E+10  3.697956E+11  2.540142E+10 -5.684342E-04 -1.332268E-05
        89  17  5.921852E+10 -1.147125E+10  3.622314E+11  2.550256E+10 -8.615331E-04 -2.442491E-05
        89  18  5.703709E+10 -8.870959E+09  3.539971E+11  2.490654E+10 -1.021405E-04  4.961309E-06
        89  19  4.807645E+10 -1.124692E+10  3.796228E+11  1.910409E+10 -4.483817E+09  2.582827E+08
        89  20  4.884019E+10 -7.644996E+09  3.716166E+11  1.798337E+10 -4.365586E+09  2.431298E+08
        89  21  4.773971E+10 -5.024983E+09  3.632312E+11  1.626272E+10 -4.266780E+09  2.198656E+08
        89  22  5.337298E+10 -1.342003E+10  3.743400E+11  2.230670E+10 -4.341198E+09  3.015828E+08
        89  23  5.379403E+10 -9.709910E+09  3.665681E+11  2.178015E+10 -4.230688E+09  2.944635E+08
        89  24  5.219331E+10 -7.087762E+09  3.582704E+11  2.060711E+10 -4.140019E+09  2.786035E+08
        89  25  5.927838E+10 -1.526575E+10  3.697392E+11  2.539937E+10 -4.198500E+09  3.433964E+08
        89  26  5.927502E+10 -1.147077E+10  3.621765E+11  2.550052E+10 -4.096377E+09  3.447640E+08
        89  27  5.709252E+10 -8.870464E+09  3.539434E+11  2.490452E+10 -4.014528E+09  3.367060E+08
        90   1  4.648938E+10 -3.430406E+09  3.583924E+11  1.471579E+10  4.218522E+09 -1.989543E+08
        90   2  4.572158E+10 -9.442128E+08  3.508365E+11  1.010152E+10  4.127443E+09 -1.365685E+08
        90   3  4.188633E+10 -3.605141E+08  3.423294E+11  4.467675E+09  4.063657E+09 -6.039770E+07
        90   4  5.056194E+10 -5.322152E+09  3.534759E+11  1.949963E+10  4.097481E+09 -2.636326E+08
        90   5  4.892194E+10 -2.317820E+09  3.459220E+11  1.581661E+10  4.018084E+09 -2.138380E+08
        90   6  4.396894E+10 -1.413442E+09  3.371883E+11  1.103500E+10  3.966667E+09 -1.491902E+08
        90   7  5.545004E+10 -7.034805E+09  3.492842E+11  2.420176E+10  3.973861E+09 -3.272060E+08
        90   8  5.281696E+10 -3.507501E+09  3.417250E+11  2.148996E+10  3.907508E+09 -2.905431E+08
        90   9  4.662497E+10 -2.282386E+09  3.327576E+11  1.759490E+10  3.869827E+09 -2.378822E+08
        90  10  4.643414E+10 -3.429642E+09  3.584502E+11  1.471714E+10 -4.440892E-06  0.000000E+00
        90  11  4.566672E+10 -9.438186E+08  3.508927E+11  1.010265E+10  2.731149E-04 -1.776357E-05
        90  12  4.183183E+10 -3.603303E+08  3.423845E+11  4.468567E+09  1.789541E-04  6.661338E-06
        90  13  5.050701E+10 -5.321960E+09  3.535315E+11  1.950121E+10  5.728751E-04  4.884981E-05
        90  14  4.886736E+10 -2.317941E+09  3.459762E+11  1.581795E+10  2.842171E-04  5.773160E-05
        90  15  4.391469E+10 -1.413720E+09  3.372416E+11  1.103609E+10 -4.440892E-06 -1.110223E-05
        90  16  5.539541E+10 -7.035197E+09  3.493375E+11  2.420359E+10  0.000000E+00  1.332268E-05
        90  17  5.276265E+10 -3.508140E+09  3.417772E+11  2.149154E+10 -2.975398E-04  0.000000E+00
        90  18  4.657095E+10 -2.283118E+09  3.328092E+11  1.759620E+10  3.652634E-04 -2.289835E-05
        90  19  4.648938E+10 -3.430406E+09  3.583924E+11  1.471579E+10 -4.218522E+09  1.989543E+08
        90  20  4.572158E+10 -9.442128E+08  3.508365E+11  1.010152E+10 -4.127443E+09  1.365685E+08
        90  21  4.188633E+10 -3.605141E+08  3.423294E+11  4.467675E+09 -4.063657E+09  6.039770E+07
        90  22  5.056194E+10 -5.322152E+09  3.534759E+11  1.949963E+10 -4.097481E+09  2.636326E+08
        90  23  4.892194E+10 -2.317820E+09  3.459220E+11  1.581661E+10 -4.018084E+09  2.138380E+08
        90  24  4.396894E+10 -1.413442E+09  3.371883E+11  1.103500E+10 -3.966667E+09  1.491902E+08
        90  25  5.545004E+10 -7.034805E+09  3.492842E+11  2.420176E+10 -3.973861E+09  3.272060E+08
        90  26  5.281696E+10 -3.507501E+09  3.417250E+11  2.148996E+10 -3.907508E+09  2.905431E+08
        90  27  4.662497E+10 -2.282386E+09  3.327576E+11  1.759490E+10 -3.869827E+09  2.378822E+08
        91   1  5.885353E+10 -8.141310E+09  3.471710E+11  2.690021E+10  3.899220E+09 -3.636829E+08
        91   2  5.522315E+10 -5.009078E+09  3.392825E+11  2.444558E+10  3.841812E+09 -3.304966E+08
        91   3  4.936099E+10 -3.308552E+09  3.305997E+11  2.122414E+10  3.803642E+09 -2.869426E+08
        91   4  6.470368E+10 -1.052223E+10  3.437231E+11  3.102198E+10  3.774075E+09 -4.194108E+08
        91   5  6.102819E+10 -7.010285E+09  3.361089E+11  2.941441E+10  3.720954E+09 -3.976773E+08
        91   6  5.492127E+10 -5.068585E+09  3.275352E+11  2.697270E+10  3.687818E+09 -3.646661E+08
        91   7  7.191415E+10 -1.227886E+10  3.412641E+11  3.485884E+10  3.642527E+09 -4.712864E+08
        91   8  6.807011E+10 -8.409501E+09  3.339148E+11  3.414927E+10  3.595020E+09 -4.616947E+08
        91   9  6.159549E+10 -6.251086E+09  3.254408E+11  3.253225E+10  3.568238E+09 -4.398339E+08
        91  10  5.880203E+10 -8.140793E+09  3.472243E+11  2.690289E+10 -2.930989E-04  8.881784E-06
        91  11  5.517234E+10 -5.008597E+09  3.393350E+11  2.444809E+10  2.930989E-04  0.000000E+00
        91  12  4.931084E+10 -3.308011E+09  3.306516E+11  2.122645E+10 -1.801510E-04  1.554312E-05
        91  13  6.465262E+10 -1.052225E+10  3.437741E+11  3.102477E+10  5.684342E-04  2.220446E-05
        91  14  6.097780E+10 -7.010329E+09  3.361592E+11  2.941701E+10  8.526513E-04 -7.327472E-05
        91  15  5.487150E+10 -5.068556E+09  3.275850E+11  2.697510E+10  7.105427E-05  1.110223E-05
        91  16  7.186354E+10 -1.227944E+10  3.413128E+11  3.486175E+10  2.842171E-04  0.000000E+00
        91  17  6.802015E+10 -8.410084E+09  3.339628E+11  3.415198E+10 -1.332268E-04 -2.220446E-06
        91  18  6.154612E+10 -6.251572E+09  3.254886E+11  3.253473E+10  7.993606E-05  1.422473E-06
        91  19  5.885353E+10 -8.141310E+09  3.471710E+11  2.690021E+10 -3.899220E+09  3.636829E+08
        91  20  5.522315E+10 -5.009078E+09  3.392825E+11  2.444558E+10 -3.841812E+09  3.304966E+08
        91  21  4.936099E+10 -3.308552E+09  3.305997E+11  2.122414E+10 -3.803642E+09  2.869426E+08
        91  22  6.470368E+10 -1.052223E+10  3.437231E+11  3.102198E+10 -3.774075E+09  4.194108E+08
        91  23  6.102819E+10 -7.010285E+09  3.361089E+11  2.941441E+10 -3.720954E+09  3.976773E+08
        91  24  5.492127E+10 -5.068585E+09  3.275352E+11  2.697270E+10 -3.687818E+09  3.646661E+08
        91  25  7.191415E+10 -1.227886E+10  3.412641E+11  3.485884E+10 -3.642527E+09  4.712864E+08
        91  26  6.807011E+10 -8.409501E+09  3.339148E+11  3.414927E+10 -3.595020E+09  4.616947E+08
        91  27  6.159549E+10 -6.251086E+09  3.254408E+11  3.253225E+10 -3.568238E+09  4.398339E+08
        92   1  6.330568E+10 -1.616204E+10  3.674724E+11  2.724523E+10  4.113345E+09 -3.683478E+08
        92   2  6.282674E+10 -1.255911E+10  3.598916E+11  2.758296E+10  4.017360E+09 -3.729137E+08
        92   3  6.086023E+10 -9.737925E+09  3.519389E+11  2.742837E+10  3.936456E+09 -3.708233E+08
        92   4  6.944401E+10 -1.851438E+10  3.633954E+11  2.979852E+10  3.975656E+09 -4.028695E+08
        92   5  6.904561E+10 -1.491142E+10  3.561583E+11  3.070496E+10  3.883212E+09 -4.151248E+08
        92   6  6.702553E+10 -1.216140E+10  3.484394E+11  3.107604E+10  3.806344E+09 -4.201418E+08
        92   7  7.653952E+10 -2.025845E+10  3.601410E+11  3.210117E+10  3.835131E+09 -4.340023E+08
        92   8  7.613261E+10 -1.669927E+10  3.532204E+11  3.361912E+10  3.746933E+09 -4.545258E+08
        92   9  7.397079E+10 -1.406284E+10  3.457100E+11  3.455395E+10  3.674818E+09 -4.671651E+08
        92  10  6.325089E+10 -1.616169E+10  3.675283E+11  2.724792E+10 -2.842171E-04 -4.440892E-06
        92  11  6.277329E+10 -1.255875E+10  3.599463E+11  2.758569E+10 -1.310063E-04 -3.330669E-06
        92  12  6.080802E+10 -9.737491E+09  3.519926E+11  2.743113E+10 -1.724315E-04 -4.163336E-06
        92  13  6.939016E+10 -1.851442E+10  3.634491E+11  2.980124E+10 -1.141309E-03  2.220446E-06
        92  14  6.899305E+10 -1.491145E+10  3.562107E+11  3.070772E+10  5.684342E-04 -1.110223E-05
        92  15  6.697418E+10 -1.216136E+10  3.484909E+11  3.107882E+10  6.417089E-04 -2.220446E-05
        92  16  7.648663E+10 -2.025890E+10  3.601924E+11  3.210391E+10 -2.842171E-04 -2.220446E-06
        92  17  7.608096E+10 -1.669970E+10  3.532707E+11  3.362189E+10 -2.886580E-04  1.554312E-05
        92  18  7.392030E+10 -1.406318E+10  3.457593E+11  3.455674E+10  1.743050E-04  2.359224E-06
        92  19  6.330568E+10 -1.616204E+10  3.674724E+11  2.724523E+10 -4.113345E+09  3.683478E+08
        92  20  6.282674E+10 -1.255911E+10  3.598916E+11  2.758296E+10 -4.017360E+09  3.729137E+08
        92  21  6.086023E+10 -9.737925E+09  3.519389E+11  2.742837E+10 -3.936456E+09  3.708233E+08
        92  22  6.944401E+10 -1.851438E+10  3.633954E+11  2.979852E+10 -3.975656E+09  4.028695E+08
        92  23  6.904561E+10 -1.491142E+10  3.561583E+11  3.070496E+10 -3.883212E+09  4.151248E+08
        92  24  6.702553E+10 -1.216140E+10  3.484394E+11  3.107604E+10 -3.806344E+09  4.201418E+08
        92  25  7.653952E+10 -2.025845E+10  3.601410E+11  3.210117E+10 -3.835131E+09  4.340023E+08
        92  26  7.613261E+10 -1.669927E+10  3.532204E+11  3.361912E+10 -3.746933E+09  4.545258E+08
        92  27  7.397079E+10 -1.406284E+10  3.457100E+11  3.455395E+10 -3.674818E+09  4.671651E+08
        93   1  1.580322E+10  6.530187E+08  2.889815E+11 -5.296474E+09  3.694746E+09  7.160243E+07
        93   2  2.246591E+10 -1.865000E+08  2.992605E+11 -4.713009E+09  3.743440E+09  6.371283E+07
        93   3  2.957738E+10 -2.094771E+08  3.102488E+11 -4.645108E+09  3.796130E+09  6.279407E+07
        93   4  3.060435E+10 -3.910778E+07  2.953542E+11 -1.689185E+10  3.582273E+09  2.283760E+08
        93   5  3.475207E+10 -1.196668E+09  3.040413E+11 -1.581090E+10  3.643645E+09  2.137609E+08
        93   6  3.940136E+10 -1.310990E+09  3.135200E+11 -1.532331E+10  3.709125E+09  2.071684E+08
        93   7  4.594377E+10 -3.663898E+08  3.025478E+11 -2.831403E+10  3.470819E+09  3.828082E+08
        93   8  4.726084E+10 -1.954855E+09  3.095258E+11 -2.664671E+10  3.547454E+09  3.602656E+08
        93   9  4.912496E+10 -2.247725E+09  3.173878E+11 -2.565589E+10  3.628538E+09  3.468700E+08
        93  10  1.575367E+10  6.531879E+08  2.890316E+11 -5.297757E+09 -2.875478E-04 -8.881784E-06
        93  11  2.241525E+10 -1.865251E+08  2.993111E+11 -4.714295E+09  1.421085E-04 -3.996803E-05
        93  12  2.952554E+10 -2.097054E+08  3.102999E+11 -4.646378E+09 -3.774758E-05  3.330669E-05
        93  13  3.055600E+10 -3.908787E+07  2.954026E+11 -1.689342E+10  6.661338E-06 -2.775558E-07
        93  14  3.470269E+10 -1.196730E+09  3.040904E+11 -1.581241E+10  0.000000E+00 -1.429412E-04
        93  15  3.935091E+10 -1.311135E+09  3.135700E+11 -1.532474E+10  2.220446E-06 -1.804112E-05
        93  16  4.589683E+10 -3.664018E+08  3.025947E+11 -2.831588E+10  2.930989E-04  0.000000E+00
        93  17  4.721298E+10 -1.954818E+09  3.095737E+11 -2.664843E+10  4.274359E-04 -7.105427E-05
        93  18  4.907614E+10 -2.247629E+09  3.174369E+11 -2.565745E+10  4.773959E-05 -5.440093E-05
        93  19  1.580322E+10  6.530187E+08  2.889815E+11 -5.296474E+09 -3.694746E+09 -7.160243E+07
        93  20  2.246591E+10 -1.865000E+08  2.992605E+11 -4.713009E+09 -3.743440E+09 -6.371283E+07
        93  21  2.957738E+10 -2.094771E+08  3.102488E+11 -4.645108E+09 -3.796130E+09 -6.279407E+07
        93  22  3.060435E+10 -3.910778E+07  2.953542E+11 -1.689185E+10 -3.582273E+09 -2.283760E+08
        93  23  3.475207E+10 -1.196668E+09  3.040413E+11 -1.581090E+10 -3.643645E+09 -2.137609E+08
        93  24  3.940136E+10 -1.310990E+09  3.135200E+11 -1.532331E+10 -3.709125E+09 -2.071684E+08
        93  25  4.594377E+10 -3.663898E+08  3.025478E+11 -2.831403E+10 -3.470819E+09 -3.828082E+08
        93  26  4.726084E+10 -1.954855E+09  3.095258E+11 -2.664671E+10 -3.547454E+09 -3.602656E+08
        93  27  4.912496E+10 -2.247725E+09  3.173878E+11 -2.565589E+10 -3.628538E+09 -3.468700E+08
        94   1  3.450554E+10  6.583230E+08  3.173010E+11 -4.277428E+09  3.824967E+09  5.782308E+07
        94   2  3.850974E+10  7.356247E+08  3.279903E+11 -3.652222E+09  3.915219E+09  4.937064E+07
        94   3  4.273540E+10  9.819887E+08  3.392778E+11 -3.539104E+09  4.010661E+09  4.784204E+07
        94   4  4.015412E+10 -1.740875E+09  3.185106E+11 -1.446791E+10  3.766487E+09  1.956033E+08
        94   5  4.227824E+10 -1.882658E+09  3.278604E+11 -1.282987E+10  3.864012E+09  1.734570E+08
        94   6  4.459900E+10 -1.805634E+09  3.377911E+11 -1.172660E+10  3.966613E+09  1.585411E+08
        94   7  4.966944E+10 -2.271830E+09  3.220085E+11 -2.444452E+10  3.683705E+09  3.304923E+08
        94   8  4.983773E+10 -2.646518E+09  3.299397E+11 -2.170914E+10  3.788740E+09  2.935093E+08
        94   9  5.017512E+10 -2.741603E+09  3.384390E+11 -1.952959E+10  3.898852E+09  2.640418E+08
        94  10  3.445397E+10  6.583815E+08  3.173528E+11 -4.278637E+09  1.398881E-04  6.217249E-05
        94  11  3.845687E+10  7.356474E+08  3.280432E+11 -3.653325E+09  0.000000E+00 -9.325873E-05
        94  12  4.268115E+10  9.819743E+08  3.393320E+11 -3.540090E+09  1.088019E-04  1.260103E-04
        94  13  4.010330E+10 -1.740847E+09  3.185615E+11 -1.446924E+10 -5.639933E-04  1.433575E-04
        94  14  4.222621E+10 -1.882583E+09  3.279127E+11 -1.283108E+10  0.000000E+00 -2.126077E-04
        94  15  4.454570E+10 -1.805506E+09  3.378449E+11 -1.172767E+10 -2.797762E-04  7.105427E-05
        94  16  4.961956E+10 -2.271870E+09  3.220583E+11 -2.444597E+10 -1.321165E-04  7.105427E-05
        94  17  4.978673E+10 -2.646427E+09  3.299910E+11 -2.171044E+10  0.000000E+00 -1.110223E-04
        94  18  5.012296E+10 -2.741370E+09  3.384919E+11 -1.953073E+10  5.662137E-04  1.976197E-04
        94  19  3.450554E+10  6.583230E+08  3.173010E+11 -4.277428E+09 -3.824967E+09 -5.782308E+07
        94  20  3.850974E+10  7.356247E+08  3.279903E+11 -3.652222E+09 -3.915219E+09 -4.937064E+07
        94  21  4.273540E+10  9.819887E+08  3.392778E+11 -3.539104E+09 -4.010661E+09 -4.784204E+07
        94  22  4.015412E+10 -1.740875E+09  3.185106E+11 -1.446791E+10 -3.766487E+09 -1.956033E+08
        94  23  4.227824E+10 -1.882658E+09  3.278604E+11 -1.282987E+10 -3.864012E+09 -1.734570E+08
        94  24  4.459900E+10 -1.805634E+09  3.377911E+11 -1.172660E+10 -3.966613E+09 -1.585411E+08
        94  25  4.966944E+10 -2.271830E+09  3.220085E+11 -2.444452E+10 -3.683705E+09 -3.304923E+08
        94  26  4.983773E+10 -2.646518E+09  3.299397E+11 -2.170914E+10 -3.788740E+09 -2.935093E+08
        94  27  5.017512E+10 -2.741603E+09  3.384390E+11 -1.952959E+10 -3.898852E+09 -2.640418E+08
        95   1  5.549996E+10 -4.128012E+09  3.239075E+11 -2.843761E+10  3.630080E+09  3.844670E+08
        95   2  5.463316E+10 -4.538056E+09  3.310667E+11 -2.608778E+10  3.738820E+09  3.526974E+08
        95   3  5.401342E+10 -4.555446E+09  3.388333E+11 -2.400024E+10  3.852034E+09  3.244744E+08
        95   4  6.510945E+10 -7.482153E+09  3.272266E+11 -3.386167E+10  3.545792E+09  4.578027E+08
        95   5  6.304689E+10 -8.033702E+09  3.332349E+11 -3.123237E+10  3.655195E+09  4.222548E+08
        95   6  6.121192E+10 -8.122953E+09  3.398286E+11 -2.889400E+10  3.768946E+09  3.906408E+08
        95   7  7.609982E+10 -1.013955E+10  3.314505E+11 -3.918537E+10  3.453582E+09  5.297815E+08
        95   8  7.272417E+10 -1.085492E+10  3.362696E+11 -3.621965E+10  3.564695E+09  4.896855E+08
        95   9  6.955164E+10 -1.102184E+10  3.416602E+11 -3.357446E+10  3.680208E+09  4.539235E+08
        95  10  5.545032E+10 -4.128257E+09  3.239563E+11 -2.844063E+10 -1.365574E-04  3.552714E-05
        95  11  5.458247E+10 -4.538121E+09  3.311172E+11 -2.609060E+10  1.409983E-04  4.440892E-06
        95  12  5.396165E+10 -4.555319E+09  3.388855E+11 -2.400285E+10 -8.215650E-05  7.938095E-05
        95  13  6.506089E+10 -7.482425E+09  3.272742E+11 -3.386478E+10  4.440892E-06  0.000000E+00
        95  14  6.299742E+10 -8.033736E+09  3.332843E+11 -3.123524E+10  5.684342E-04  1.423861E-04
        95  15  6.116151E+10 -8.122730E+09  3.398798E+11 -2.889662E+10 -2.087219E-04  5.495604E-05
        95  16  7.605258E+10 -1.013978E+10  3.314970E+11 -3.918856E+10  2.220446E-06  7.105427E-05
        95  17  7.267615E+10 -1.085485E+10  3.363179E+11 -3.622256E+10  0.000000E+00 -2.087219E-04
        95  18  6.950284E+10 -1.102144E+10  3.417104E+11 -3.357707E+10  3.663736E-05 -3.108624E-05
        95  19  5.549996E+10 -4.128012E+09  3.239075E+11 -2.843761E+10 -3.630080E+09 -3.844670E+08
        95  20  5.463316E+10 -4.538056E+09  3.310667E+11 -2.608778E+10 -3.738820E+09 -3.526974E+08
        95  21  5.401342E+10 -4.555446E+09  3.388333E+11 -2.400024E+10 -3.852034E+09 -3.244744E+08
        95  22  6.510945E+10 -7.482153E+09  3.272266E+11 -3.386167E+10 -3.545792E+09 -4.578027E+08
        95  23  6.304689E+10 -8.033702E+09  3.332349E+11 -3.123237E+10 -3.655195E+09 -4.222548E+08
        95  24  6.121192E+10 -8.122953E+09  3.398286E+11 -2.889400E+10 -3.768946E+09 -3.906408E+08
        95  25  7.609982E+10 -1.013955E+10  3.314505E+11 -3.918537E+10 -3.453582E+09 -5.297815E+08
        95  26  7.272417E+10 -1.085492E+10  3.362696E+11 -3.621965E+10 -3.564695E+09 -4.896855E+08
        95  27  6.955164E+10 -1.102184E+10  3.416602E+11 -3.357446E+10 -3.680208E+09 -4.539235E+08
        96   1  5.459368E+10 -1.382552E+09  3.066338E+11 -3.286465E+10  3.408598E+09  4.443218E+08
        96   2  5.457220E+10 -3.199961E+09  3.127256E+11 -3.115661E+10  3.491424E+09  4.212284E+08
        96   3  5.499234E+10 -4.116456E+09  3.195459E+11 -2.966830E+10  3.577900E+09  4.011060E+08
        96   4  6.853987E+10 -4.473366E+09  3.131702E+11 -3.915843E+10  3.309031E+09  5.294151E+08
        96   5  6.713905E+10 -6.349591E+09  3.181357E+11 -3.704772E+10  3.395404E+09  5.008780E+08
        96   6  6.622448E+10 -7.112352E+09  3.238845E+11 -3.519142E+10  3.485445E+09  4.757809E+08
        96   7  8.290697E+10 -7.331594E+09  3.201448E+11 -4.535410E+10  3.208521E+09  6.131817E+08
        96   8  7.990688E+10 -9.350534E+09  3.239070E+11 -4.273813E+10  3.300245E+09  5.778140E+08
        96   9  7.743483E+10 -1.001173E+10  3.285203E+11 -4.041019E+10  3.395866E+09  5.463411E+08
        96  10  5.454719E+10 -1.382728E+09  3.066797E+11 -3.286797E+10  1.532108E-04 -1.065814E-04
        96  11  5.452484E+10 -3.200035E+09  3.127727E+11 -3.115984E+10 -5.673240E-04  1.820766E-04
        96  12  5.494406E+10 -4.116418E+09  3.195943E+11 -2.967141E+10 -1.809664E-04 -1.887379E-05
        96  13  6.849456E+10 -4.473619E+09  3.132146E+11 -3.916201E+10  5.662137E-04 -5.551115E-07
        96  14  6.709298E+10 -6.349669E+09  3.181815E+11 -3.705113E+10  2.842171E-04  6.800116E-05
        96  15  6.617764E+10 -7.112242E+09  3.239317E+11 -3.519465E+10  2.176037E-04  8.888723E-05
        96  16  8.286307E+10 -7.331820E+09  3.201879E+11 -4.535792E+10  1.398881E-04  0.000000E+00
        96  17  7.986236E+10 -9.350497E+09  3.239516E+11 -4.274171E+10  1.421085E-04  4.440892E-05
        96  18  7.738968E+10 -1.001141E+10  3.285665E+11 -4.041350E+10 -1.521006E-04  4.551914E-05
        96  19  5.459368E+10 -1.382552E+09  3.066338E+11 -3.286465E+10 -3.408598E+09 -4.443218E+08
        96  20  5.457220E+10 -3.199961E+09  3.127256E+11 -3.115661E+10 -3.491424E+09 -4.212284E+08
        96  21  5.499234E+10 -4.116456E+09  3.195459E+11 -2.966830E+10 -3.577900E+09 -4.011060E+08
        96  22  6.853987E+10 -4.473366E+09  3.131702E+11 -3.915843E+10 -3.309031E+09 -5.294151E+08
        96  23  6.713905E+10 -6.349591E+09  3.181357E+11 -3.704772E+10 -3.395404E+09 -5.008780E+08
        96  24  6.622448E+10 -7.112352E+09  3.238845E+11 -3.519142E+10 -3.485445E+09 -4.757809E+08
        96  25  8.290697E+10 -7.331594E+09  3.201448E+11 -4.535410E+10 -3.208521E+09 -6.131817E+08
        96  26  7.990688E+10 -9.350534E+09  3.239070E+11 -4.273813E+10 -3.300245E+09 -5.778140E+08
        96  27  7.743483E+10 -1.001173E+10  3.285203E+11 -4.041019E+10 -3.395866E+09 -5.463411E+08
        97   1  1.810567E+10 -1.144026E+09  4.024527E+11 -1.251590E+09  5.197391E+09  1.692837E+07
        97   2  2.169436E+10 -1.116079E+09  4.044874E+11 -4.655155E+08  5.176451E+09  6.297124E+06
        97   3  2.346504E+10 -1.869726E+09  4.057658E+11  2.321297E+08  5.169762E+09 -3.138311E+06
        97   4  1.463482E+10 -3.975339E+08  4.087840E+11 -2.236058E+09  5.330193E+09  3.024825E+07
        97   5  1.779185E+10 -5.411645E+08  4.111122E+11 -1.297927E+09  5.319140E+09  1.755757E+07
        97   6  1.883939E+10 -1.543567E+09  4.125961E+11 -3.898983E+08  5.324994E+09  5.273416E+06
        97   7  9.853271E+09  6.341305E+08  4.149050E+11 -3.221225E+09  5.477435E+09  4.355653E+07
        97   8  1.367010E+10  5.555128E+08  4.180517E+11 -2.057295E+09  5.468545E+09  2.781765E+07
        97   9  1.455091E+10 -6.074100E+08  4.200649E+11 -8.783378E+08  5.483730E+09  1.187489E+07
        97  10  1.803465E+10 -1.144355E+09  4.025227E+11 -1.251681E+09  2.842171E-04 -8.881784E-06
        97  11  2.162347E+10 -1.116469E+09  4.045570E+11 -4.655789E+08  5.861978E-04 -8.437695E-05
        97  12  2.339424E+10 -1.870119E+09  4.058353E+11  2.320889E+08  1.088019E-04 -2.220446E-05
        97  13  1.456277E+10 -3.975290E+08  4.088561E+11 -2.236158E+09 -1.110223E-06 -1.154632E-04
        97  14  1.771981E+10 -5.412252E+08  4.111841E+11 -1.298029E+09 -2.853273E-04 -3.108624E-05
        97  15  1.876731E+10 -1.543615E+09  4.126680E+11 -3.899976E+08  6.389334E-04  3.552714E-05
        97  16  9.780185E+09  6.345506E+08  4.149795E+11 -3.221310E+09 -3.197442E-04  1.110223E-05
        97  17  1.359690E+10  5.558240E+08  4.181260E+11 -2.057420E+09  8.881784E-06 -4.406198E-05
        97  18  1.447753E+10 -6.070888E+08  4.201394E+11 -8.784832E+08  8.548717E-04 -1.110223E-05
        97  19  1.810567E+10 -1.144026E+09  4.024527E+11 -1.251590E+09 -5.197391E+09 -1.692837E+07
        97  20  2.169436E+10 -1.116079E+09  4.044874E+11 -4.655155E+08 -5.176451E+09 -6.297124E+06
        97  21  2.346504E+10 -1.869726E+09  4.057658E+11  2.321297E+08 -5.169762E+09  3.138311E+06
        97  22  1.463482E+10 -3.975339E+08  4.087840E+11 -2.236058E+09 -5.330193E+09 -3.024825E+07
        97  23  1.779185E+10 -5.411645E+08  4.111122E+11 -1.297927E+09 -5.319140E+09 -1.755757E+07
        97  24  1.883939E+10 -1.543567E+09  4.125961E+11 -3.898983E+08 -5.324994E+09 -5.273416E+06
        97  25  9.853271E+09  6.341305E+08  4.149050E+11 -3.221225E+09 -5.477435E+09 -4.355653E+07
        97  26  1.367010E+10  5.555128E+08  4.180517E+11 -2.057295E+09 -5.468545E+09 -2.781765E+07
        97  27  1.455091E+10 -6.074100E+08  4.200649E+11 -8.783378E+08 -5.483730E+09 -1.187489E+07
        98   1  2.431825E+10 -2.626830E+09  4.063500E+11  1.696090E+09  5.166214E+09 -2.293041E+07
        98   2  2.567705E+10 -3.625790E+09  4.074240E+11  3.499854E+09  5.162545E+09 -4.731831E+07
        98   3  2.648194E+10 -4.845240E+09  4.083379E+11  5.260457E+09  5.163840E+09 -7.112266E+07
        98   4  1.943150E+10 -2.236252E+09  4.132800E+11  7.598373E+08  5.326319E+09 -1.027218E+07
        98   5  2.088757E+10 -3.166002E+09  4.144433E+11  2.457345E+09  5.322563E+09 -3.322369E+07
        98   6  2.179117E+10 -4.312759E+09  4.154561E+11  4.112740E+09  5.323841E+09 -5.560585E+07
        98   7  1.517924E+10 -6.589671E+08  4.211505E+11 -1.644388E+08  5.489968E+09  2.224152E+06
        98   8  1.673212E+10 -1.523924E+09  4.224046E+11  1.426829E+09  5.486152E+09 -1.929121E+07
        98   9  1.773414E+10 -2.602197E+09  4.235184E+11  2.977040E+09  5.487442E+09 -4.025148E+07
        98  10  2.424757E+10 -2.627190E+09  4.064194E+11  1.696374E+09  1.776357E-05 -1.332268E-05
        98  11  2.560633E+10 -3.626185E+09  4.074934E+11  3.500152E+09 -4.263256E-04 -1.554312E-05
        98  12  2.641120E+10 -4.845641E+09  4.084074E+11  5.260766E+09 -4.973799E-04  5.551115E-05
        98  13  1.935951E+10 -2.236248E+09  4.133520E+11  7.600728E+08 -1.138534E-03 -2.220446E-05
        98  14  2.081554E+10 -3.166037E+09  4.145152E+11  2.457569E+09 -1.423306E-03 -7.105427E-05
        98  15  2.171911E+10 -4.312802E+09  4.155280E+11  4.112950E+09  9.275913E-04 -2.220446E-05
        98  16  1.510591E+10 -6.585874E+08  4.212251E+11 -1.642501E+08 -1.776357E-05 -1.887379E-05
        98  17  1.665875E+10 -1.523586E+09  4.224791E+11  1.426981E+09  4.352074E-04  0.000000E+00
        98  18  1.766072E+10 -2.601868E+09  4.235929E+11  2.977154E+09  2.420286E-04  4.440892E-06
        98  19  2.431825E+10 -2.626830E+09  4.063500E+11  1.696090E+09 -5.166214E+09  2.293041E+07
        98  20  2.567705E+10 -3.625790E+09  4.074240E+11  3.499854E+09 -5.162545E+09  4.731831E+07
        98  21  2.648194E+10 -4.845240E+09  4.083379E+11  5.260457E+09 -5.163840E+09  7.112266E+07
        98  22  1.943150E+10 -2.236252E+09  4.132800E+11  7.598373E+08 -5.326319E+09  1.027218E+07
        98  23  2.088757E+10 -3.166002E+09  4.144433E+11  2.457345E+09 -5.322563E+09  3.322369E+07
        98  24  2.179117E+10 -4.312759E+09  4.154561E+11  4.112740E+09 -5.323841E+09  5.560585E+07
        98  25  1.517924E+10 -6.589671E+08  4.211505E+11 -1.644388E+08 -5.489968E+09 -2.224152E+06
        98  26  1.673212E+10 -1.523924E+09  4.224046E+11  1.426829E+09 -5.486152E+09  1.929121E+07
        98  27  1.773414E+10 -2.602197E+09  4.235184E+11  2.977040E+09 -5.487442E+09  4.025148E+07
        99   1  1.314817E+10  6.492846E+08  4.260696E+11 -5.112741E+08  5.583978E+09  6.915443E+06
        99   2  1.352524E+10 -5.799042E+08  4.270214E+11  9.684746E+08  5.591996E+09 -1.308073E+07
        99   3  1.461965E+10 -1.483423E+09  4.282422E+11  2.387588E+09  5.593510E+09 -3.227393E+07
        99   4  7.547663E+09  2.249979E+09  4.338568E+11 -1.189057E+09  5.765360E+09  1.608875E+07
        99   5  7.766215E+09  1.390160E+09  4.354086E+11 -1.095084E+08  5.783660E+09  1.550851E+06
        99   6  8.049330E+09  6.918852E+08  4.364981E+11  8.397196E+08  5.794429E+09 -1.131085E+07
        99   7  2.500406E+09  5.189748E+09  4.426540E+11 -2.030278E+09  5.952225E+09  2.747348E+07
        99   8  2.910423E+09  4.946863E+09  4.450376E+11 -9.968591E+08  5.979172E+09  1.362190E+07
        99   9  2.657020E+09  4.868235E+09  4.462217E+11 -1.474231E+08  5.998417E+09  2.081565E+06
        99  10  1.307183E+10  6.489352E+08  4.261447E+11 -5.111684E+08  0.000000E+00  1.776357E-05
        99  11  1.344864E+10 -5.803330E+08  4.270966E+11  9.685256E+08 -3.108624E-04 -6.661338E-06
        99  12  1.454280E+10 -1.483971E+09  4.283173E+11  2.387602E+09  2.797762E-04 -1.776357E-05
        99  13  7.469965E+09  2.250184E+09  4.339349E+11 -1.188953E+09 -1.110223E-06  0.000000E+00
        99  14  7.688117E+09  1.390217E+09  4.354869E+11 -1.095100E+08 -5.673240E-04  1.021405E-04
        99  15  7.970895E+09  6.917332E+08  4.365764E+11  8.396419E+08 -2.126077E-04 -3.108624E-05
        99  16  2.421381E+09  5.190589E+09  4.427352E+11 -2.030119E+09 -1.776357E-05  2.220446E-06
        99  17  2.830795E+09  4.947422E+09  4.451192E+11 -9.969047E+08 -1.421085E-04  7.327472E-05
        99  18  2.576939E+09  4.868435E+09  4.463033E+11 -1.476254E+08 -4.130030E-04 -3.774758E-05
        99  19  1.314817E+10  6.492846E+08  4.260696E+11 -5.112741E+08 -5.583978E+09 -6.915443E+06
        99  20  1.352524E+10 -5.799042E+08  4.270214E+11  9.684746E+08 -5.591996E+09  1.308073E+07
        99  21  1.461965E+10 -1.483423E+09  4.282422E+11  2.387588E+09 -5.593510E+09  3.227393E+07
        99  22  7.547663E+09  2.249979E+09  4.338568E+11 -1.189057E+09 -5.765360E+09 -1.608875E+07
        99  23  7.766215E+09  1.390160E+09  4.354086E+11 -1.095084E+08 -5.783660E+09 -1.550851E+06
        99  24  8.049330E+09  6.918852E+08  4.364981E+11  8.397196E+08 -5.794429E+09  1.131085E+07
        99  25  2.500406E+09  5.189748E+09  4.426540E+11 -2.030278E+09 -5.952225E+09 -2.747348E+07
        99  26  2.910423E+09  4.946863E+09  4.450376E+11 -9.968591E+08 -5.979172E+09 -1.362190E+07
        99  27  2.657020E+09  4.868235E+09  4.462217E+11 -1.474231E+08 -5.998417E+09 -2.081565E+06
       100   1  9.255187E+09  1.893445E+09  4.193569E+11 -3.704864E+09  5.545688E+09  5.011389E+07
       100   2  1.071498E+10  1.254604E+09  4.220473E+11 -2.335293E+09  5.562540E+09  3.159592E+07
       100   3  1.224596E+10  4.844498E+08  4.246922E+11 -1.257168E+09  5.577492E+09  1.700585E+07
       100   4  6.935742E+09  2.818548E+09  4.260353E+11 -3.987271E+09  5.667502E+09  5.396017E+07
       100   5  7.277259E+09  2.685704E+09  4.295088E+11 -2.931213E+09  5.710158E+09  3.970641E+07
       100   6  6.996267E+09  2.220609E+09  4.322838E+11 -2.196408E+09  5.751465E+09  2.973702E+07
       100   7  3.679583E+09  3.817881E+09  4.320972E+11 -4.112674E+09  5.793295E+09  5.557207E+07
       100   8  3.826448E+09  4.621542E+09  4.371070E+11 -3.124690E+09  5.859356E+09  4.233998E+07
       100   9  2.585204E+09  4.924538E+09  4.407437E+11 -2.488388E+09  5.925213E+09  3.370856E+07
       100  10  9.179956E+09  1.893323E+09  4.194318E+11 -3.705093E+09 -1.776357E-05 -3.552714E-05
       100  11  1.063907E+10  1.254279E+09  4.221223E+11 -2.335567E+09 -1.065814E-04 -2.664535E-05
       100  12  1.216942E+10  4.839324E+08  4.247671E+11 -1.257492E+09 -2.464695E-04 -3.996803E-05
       100  13  6.859821E+09  2.818923E+09  4.261123E+11 -3.987338E+09  0.000000E+00 -8.881784E-06
       100  14  7.200223E+09  2.685760E+09  4.295862E+11 -2.931426E+09  2.797762E-04  3.552714E-05
       100  15  6.918373E+09  2.220442E+09  4.323615E+11 -2.196714E+09 -5.662137E-04  1.332268E-05
       100  16  3.604873E+09  3.819910E+09  4.321773E+11 -4.111942E+09  7.105427E-05 -1.776357E-04
       100  17  3.748536E+09  4.622135E+09  4.371869E+11 -3.124747E+09  4.529710E-04 -2.220446E-05
       100  18  2.505956E+09  4.924732E+09  4.408242E+11 -2.488678E+09 -3.586020E-04  8.881784E-06
       100  19  9.255187E+09  1.893445E+09  4.193569E+11 -3.704864E+09 -5.545688E+09 -5.011389E+07
       100  20  1.071498E+10  1.254604E+09  4.220473E+11 -2.335293E+09 -5.562540E+09 -3.159592E+07
       100  21  1.224596E+10  4.844498E+08  4.246922E+11 -1.257168E+09 -5.577492E+09 -1.700585E+07
       100  22  6.935742E+09  2.818548E+09  4.260353E+11 -3.987271E+09 -5.667502E+09 -5.396017E+07
       100  23  7.277259E+09  2.685704E+09  4.295088E+11 -2.931213E+09 -5.710158E+09 -3.970641E+07
       100  24  6.996267E+09  2.220609E+09  4.322838E+11 -2.196408E+09 -5.751465E+09 -2.973702E+07
       100  25  3.679583E+09  3.817881E+09  4.320972E+11 -4.112674E+09 -5.793295E+09 -5.557207E+07
       100  26  3.826448E+09  4.621542E+09  4.371070E+11 -3.124690E+09 -5.859356E+09 -4.233998E+07
       100  27  2.585204E+09  4.924538E+09  4.407437E+11 -2.488388E+09 -5.925213E+09 -3.370856E+07
       101   1  9.546146E+10 -1.142820E+10  3.236938E+11 -4.885740E+10  3.086323E+09  6.605433E+08
       101   2  1.107808E+11 -1.663556E+10  3.343951E+11 -4.744756E+10  3.022481E+09  6.414795E+08
       101   3  1.195654E+11 -2.527518E+10  3.418667E+11 -4.472564E+10  3.005763E+09  6.046761E+08
       101   4  1.106673E+11 -1.242990E+10  3.252044E+11 -5.324749E+10  2.902280E+09  7.199009E+08
       101   5  1.257955E+11 -1.848076E+10  3.353336E+11 -4.999855E+10  2.832785E+09  6.759715E+08
       101   6  1.339348E+11 -2.824707E+10  3.418972E+11 -4.531360E+10  2.812537E+09  6.126266E+08
       101   7  1.283058E+11 -1.281615E+10  3.282375E+11 -5.724550E+10  2.703249E+09  7.739570E+08
       101   8  1.434505E+11 -1.969983E+10  3.377814E+11 -5.205513E+10  2.625592E+09  7.037784E+08
       101   9  1.511477E+11 -3.058912E+10  3.434216E+11 -4.529281E+10  2.599340E+09  6.123464E+08
       101  10  9.542325E+10 -1.142669E+10  3.237371E+11 -4.886178E+10  4.440892E-06  3.108624E-05
       101  11  1.107415E+11 -1.663489E+10  3.344366E+11 -4.745208E+10  1.376677E-04 -3.552714E-05
       101  12  1.195247E+11 -2.527517E+10  3.419074E+11 -4.473029E+10 -3.752554E-04  4.371503E-05
       101  13  1.106299E+11 -1.242911E+10  3.252444E+11 -5.325179E+10 -2.220446E-06 -2.220446E-06
       101  14  1.257571E+11 -1.848080E+10  3.353719E+11 -5.000299E+10  8.504308E-04  7.105427E-05
       101  15  1.338952E+11 -2.824777E+10  3.419345E+11 -4.531813E+10 -2.120526E-04  9.103829E-05
       101  16  1.282694E+11 -1.281609E+10  3.282741E+11 -5.724974E+10 -1.376677E-04  7.105427E-05
       101  17  1.434131E+11 -1.970064E+10  3.378161E+11 -5.205949E+10  1.376677E-04 -5.551115E-05
       101  18  1.511091E+11 -3.059060E+10  3.434553E+11 -4.529726E+10 -2.349509E-04  1.998401E-05
       101  19  9.546146E+10 -1.142820E+10  3.236938E+11 -4.885740E+10 -3.086323E+09 -6.605433E+08
       101  20  1.107808E+11 -1.663556E+10  3.343951E+11 -4.744756E+10 -3.022481E+09 -6.414795E+08
       101  21  1.195654E+11 -2.527518E+10  3.418667E+11 -4.472564E+10 -3.005763E+09 -6.046761E+08
       101  22  1.106673E+11 -1.242990E+10  3.252044E+11 -5.324749E+10 -2.902280E+09 -7.199009E+08
       101  23  1.257955E+11 -1.848076E+10  3.353336E+11 -4.999855E+10 -2.832785E+09 -6.759715E+08
       101  24  1.339348E+11 -2.824707E+10  3.418972E+11 -4.531360E+10 -2.812537E+09 -6.126266E+08
       101  25  1.283058E+11 -1.281615E+10  3.282375E+11 -5.724550E+10 -2.703249E+09 -7.739570E+08
       101  26  1.434505E+11 -1.969983E+10  3.377814E+11 -5.205513E+10 -2.625592E+09 -7.037784E+08
       101  27  1.511477E+11 -3.058912E+10  3.434216E+11 -4.529281E+10 -2.599340E+09 -6.123464E+08
       102   1  1.245631E+11 -2.896264E+10  3.464477E+11 -4.109738E+10  2.999914E+09  5.556302E+08
       102   2  1.292550E+11 -3.308257E+10  3.535224E+11 -3.358476E+10  3.030540E+09  4.540575E+08
       102   3  1.300884E+11 -3.858780E+10  3.586715E+11 -2.570950E+10  3.090236E+09  3.475816E+08
       102   4  1.388211E+11 -3.203809E+10  3.461397E+11 -4.063160E+10  2.803638E+09  5.493354E+08
       102   5  1.424875E+11 -3.588522E+10  3.524707E+11 -3.195001E+10  2.837844E+09  4.319578E+08
       102   6  1.420435E+11 -4.118638E+10  3.567327E+11 -2.285221E+10  2.902731E+09  3.089525E+08
       102   7  1.552177E+11 -3.409722E+10  3.471964E+11 -3.960293E+10  2.595403E+09  5.354301E+08
       102   8  1.579911E+11 -3.757861E+10  3.528124E+11 -2.965977E+10  2.632106E+09  4.009955E+08
       102   9  1.563991E+11 -4.257795E+10  3.562168E+11 -1.923835E+10  2.701152E+09  2.600944E+08
       102  10  1.245253E+11 -2.896146E+10  3.464894E+11 -4.110085E+10  1.421085E-04  3.108624E-05
       102  11  1.292150E+11 -3.308214E+10  3.535638E+11 -3.358794E+10 -4.307665E-04  3.552714E-05
       102  12  1.300460E+11 -3.858808E+10  3.587130E+11 -2.571241E+10 -9.992007E-05 -4.649059E-05
       102  13  1.387849E+11 -3.203734E+10  3.461783E+11 -4.063476E+10 -5.639933E-04  6.661338E-05
       102  14  1.424492E+11 -3.588518E+10  3.525091E+11 -3.195286E+10 -1.110223E-06 -1.088019E-04
       102  15  1.420028E+11 -4.118699E+10  3.567714E+11 -2.285476E+10  1.110223E-06  8.881784E-06
       102  16  1.551833E+11 -3.409693E+10  3.472318E+11 -3.960577E+10 -4.440892E-06  0.000000E+00
       102  17  1.579546E+11 -3.757900E+10  3.528476E+11 -2.966227E+10 -1.421085E-04 -1.776357E-05
       102  18  1.563603E+11 -4.257894E+10  3.562523E+11 -1.924053E+10  1.493250E-04 -7.438494E-05
       102  19  1.245631E+11 -2.896264E+10  3.464477E+11 -4.109738E+10 -2.999914E+09 -5.556302E+08
       102  20  1.292550E+11 -3.308257E+10  3.535224E+11 -3.358476E+10 -3.030540E+09 -4.540575E+08
       102  21  1.300884E+11 -3.858780E+10  3.586715E+11 -2.570950E+10 -3.090236E+09 -3.475816E+08
       102  22  1.388211E+11 -3.203809E+10  3.461397E+11 -4.063160E+10 -2.803638E+09 -5.493354E+08
       102  23  1.424875E+11 -3.588522E+10  3.524707E+11 -3.195001E+10 -2.837844E+09 -4.319578E+08
       102  24  1.420435E+11 -4.118638E+10  3.567327E+11 -2.285221E+10 -2.902731E+09 -3.089525E+08
       102  25  1.552177E+11 -3.409722E+10  3.471964E+11 -3.960293E+10 -2.595403E+09 -5.354301E+08
       102  26  1.579911E+11 -3.757861E+10  3.528124E+11 -2.965977E+10 -2.632106E+09 -4.009955E+08
       102  27  1.563991E+11 -4.257795E+10  3.562168E+11 -1.923835E+10 -2.701152E+09 -2.600944E+08
       103   1  1.661618E+11 -3.477536E+10  3.485752E+11 -3.859480E+10  2.465856E+09  5.217974E+08
       103   2  1.662049E+11 -3.910459E+10  3.527658E+11 -2.754675E+10  2.520208E+09  3.724254E+08
       103   3  1.646261E+11 -4.334949E+10  3.560383E+11 -1.668026E+10  2.587290E+09  2.255079E+08
       103   4  1.824136E+11 -3.790334E+10  3.498205E+11 -3.461553E+10  2.263389E+09  4.679999E+08
       103   5  1.802728E+11 -4.153208E+10  3.529169E+11 -2.274243E+10  2.332412E+09  3.074731E+08
       103   6  1.764018E+11 -4.498818E+10  3.550984E+11 -1.103675E+10  2.415507E+09  1.492096E+08
       103   7  2.016068E+11 -3.934501E+10  3.527044E+11 -2.973675E+10  2.042486E+09  4.020409E+08
       103   8  1.973918E+11 -4.211370E+10  3.547551E+11 -1.693791E+10  2.125645E+09  2.289978E+08
       103   9  1.913392E+11 -4.460599E+10  3.558975E+11 -4.285016E+09  2.224270E+09  5.792769E+07
       103  10  1.661311E+11 -3.477422E+10  3.486097E+11 -3.859788E+10  2.842171E-04  4.440892E-06
       103  11  1.661715E+11 -3.910430E+10  3.528002E+11 -2.754934E+10  2.886580E-04  5.329071E-05
       103  12  1.645897E+11 -4.335009E+10  3.560727E+11 -1.668238E+10 -1.199041E-04 -3.608225E-06
       103  13  1.823850E+11 -3.790246E+10  3.498520E+11 -3.461810E+10  5.706546E-04 -2.220446E-06
       103  14  1.802415E+11 -4.153194E+10  3.529486E+11 -2.274447E+10  5.673240E-04  3.552714E-05
       103  15  1.763677E+11 -4.498882E+10  3.551304E+11 -1.103830E+10  2.187139E-04  8.881784E-06
       103  16  2.015805E+11 -3.934445E+10  3.527325E+11 -2.973878E+10  1.287859E-04  0.000000E+00
       103  17  1.973628E+11 -4.211378E+10  3.547838E+11 -1.693937E+10 -1.421085E-04  1.998401E-05
       103  18  1.913073E+11 -4.460674E+10  3.559268E+11 -4.285935E+09  5.019596E-04  4.996004E-05
       103  19  1.661618E+11 -3.477536E+10  3.485752E+11 -3.859480E+10 -2.465856E+09 -5.217974E+08
       103  20  1.662049E+11 -3.910459E+10  3.527658E+11 -2.754675E+10 -2.520208E+09 -3.724254E+08
       103  21  1.646261E+11 -4.334949E+10  3.560383E+11 -1.668026E+10 -2.587290E+09 -2.255079E+08
       103  22  1.824136E+11 -3.790334E+10  3.498205E+11 -3.461553E+10 -2.263389E+09 -4.679999E+08
       103  23  1.802728E+11 -4.153208E+10  3.529169E+11 -2.274243E+10 -2.332412E+09 -3.074731E+08
       103  24  1.764018E+11 -4.498818E+10  3.550984E+11 -1.103675E+10 -2.415507E+09 -1.492096E+08
       103  25  2.016068E+11 -3.934501E+10  3.527044E+11 -2.973675E+10 -2.042486E+09 -4.020409E+08
       103  26  1.973918E+11 -4.211370E+10  3.547551E+11 -1.693791E+10 -2.125645E+09 -2.289978E+08
       103  27  1.913392E+11 -4.460599E+10  3.558975E+11 -4.285016E+09 -2.224270E+09 -5.792769E+07
       104   1  1.396970E+11 -1.341323E+10  3.304972E+11 -5.930833E+10  2.579639E+09  8.018403E+08
       104   2  1.538951E+11 -2.136103E+10  3.392022E+11 -5.248544E+10  2.503251E+09  7.095911E+08
       104   3  1.624663E+11 -3.147593E+10  3.450461E+11 -4.489198E+10  2.467984E+09  6.069232E+08
       104   4  1.607565E+11 -1.546591E+10  3.349383E+11 -6.178340E+10  2.356000E+09  8.353071E+08
       104   5  1.731521E+11 -2.374996E+10  3.425114E+11 -5.237442E+10  2.288203E+09  7.080929E+08
       104   6  1.794707E+11 -3.438474E+10  3.469543E+11 -4.206094E+10  2.264284E+09  5.686493E+08
       104   7  1.862267E+11 -1.622553E+10  3.415898E+11 -6.336503E+10  2.100206E+09  8.566938E+08
       104   8  1.970950E+11 -2.475401E+10  3.480369E+11 -5.120093E+10  2.038006E+09  6.922296E+08
       104   9  2.014337E+11 -3.581568E+10  3.510837E+11 -3.798107E+10  2.022470E+09  5.134905E+08
       104  10  1.396665E+11 -1.341134E+10  3.305340E+11 -5.931340E+10  4.440892E-06 -3.996803E-05
       104  11  1.538626E+11 -2.136043E+10  3.392367E+11 -5.249041E+10  4.263256E-04  1.110223E-06
       104  12  1.624316E+11 -3.147650E+10  3.450789E+11 -4.489685E+10  7.549517E-05  3.413936E-05
       104  13  1.607277E+11 -1.546462E+10  3.349714E+11 -6.178821E+10  4.440892E-06 -7.105427E-05
       104  14  1.731213E+11 -2.374987E+10  3.425425E+11 -5.237905E+10  5.662137E-04  6.883383E-05
       104  15  1.794377E+11 -3.438573E+10  3.469839E+11 -4.206541E+10  6.883383E-05 -9.992007E-05
       104  16  1.861997E+11 -1.622494E+10  3.416187E+11 -6.336958E+10  1.421085E-04  3.552714E-05
       104  17  1.970661E+11 -2.475457E+10  3.480640E+11 -5.120525E+10 -1.354472E-04 -1.065814E-04
       104  18  2.014027E+11 -3.581726E+10  3.511095E+11 -3.798515E+10  1.742009E-04  5.551115E-05
       104  19  1.396970E+11 -1.341323E+10  3.304972E+11 -5.930833E+10 -2.579639E+09 -8.018403E+08
       104  20  1.538951E+11 -2.136103E+10  3.392022E+11 -5.248544E+10 -2.503251E+09 -7.095911E+08
       104  21  1.624663E+11 -3.147593E+10  3.450461E+11 -4.489198E+10 -2.467984E+09 -6.069232E+08
       104  22  1.607565E+11 -1.546591E+10  3.349383E+11 -6.178340E+10 -2.356000E+09 -8.353071E+08
       104  23  1.731521E+11 -2.374996E+10  3.425114E+11 -5.237442E+10 -2.288203E+09 -7.080929E+08
       104  24  1.794707E+11 -3.438474E+10  3.469543E+11 -4.206094E+10 -2.264284E+09 -5.686493E+08
       104  25  1.862267E+11 -1.622553E+10  3.415898E+11 -6.336503E+10 -2.100206E+09 -8.566938E+08
       104  26  1.970950E+11 -2.475401E+10  3.480369E+11 -5.120093E+10 -2.038006E+09 -6.922296E+08
       104  27  2.014337E+11 -3.581568E+10  3.510837E+11 -3.798107E+10 -2.022470E+09 -5.134905E+08
       105   1  1.263331E+11 -3.323742E+10  3.526221E+11  3.489897E+10  3.059708E+09 -4.718256E+08
       105   2  1.151093E+11 -3.100717E+10  3.529395E+11  3.561936E+10  3.216234E+09 -4.815643E+08
       105   3  1.053702E+11 -2.810608E+10  3.541425E+11  3.601972E+10  3.363886E+09 -4.869758E+08
       105   4  1.253705E+11 -2.881284E+10  3.475664E+11  4.002816E+10  3.003733E+09 -5.411742E+08
       105   5  1.140809E+11 -2.683789E+10  3.474247E+11  3.991857E+10  3.155108E+09 -5.396909E+08
       105   6  1.043370E+11 -2.416613E+10  3.482074E+11  3.947423E+10  3.297183E+09 -5.336816E+08
       105   7  1.227296E+11 -2.503285E+10  3.417420E+11  4.478555E+10  2.961419E+09 -6.054957E+08
       105   8  1.113637E+11 -2.330248E+10  3.411971E+11  4.381866E+10  3.108334E+09 -5.924212E+08
       105   9  1.016067E+11 -2.084797E+10  3.416181E+11  4.250153E+10  3.245522E+09 -5.746112E+08
       105  10  1.262901E+11 -3.323814E+10  3.526627E+11  3.490223E+10 -1.421085E-04  1.332268E-05
       105  11  1.150649E+11 -3.100754E+10  3.529826E+11  3.562279E+10  1.421085E-04  4.440892E-06
       105  12  1.053246E+11 -2.810613E+10  3.541879E+11  3.602332E+10  3.708145E-04  7.771561E-06
       105  13  1.253290E+11 -2.881322E+10  3.476067E+11  4.003157E+10  4.440892E-06  2.220446E-06
       105  14  1.140382E+11 -2.683792E+10  3.474673E+11  3.992215E+10  5.684342E-04 -8.881784E-06
       105  15  1.042930E+11 -2.416585E+10  3.482522E+11  3.947798E+10  1.443290E-04  6.661338E-06
       105  16  1.226896E+11 -2.503282E+10  3.417821E+11  4.478914E+10 -1.554312E-04  0.000000E+00
       105  17  1.113225E+11 -2.330211E+10  3.412395E+11  4.382241E+10  7.105427E-04 -4.440892E-06
       105  18  1.015644E+11 -2.084730E+10  3.416626E+11  4.250545E+10  7.438494E-05 -3.885781E-06
       105  19  1.263331E+11 -3.323742E+10  3.526221E+11  3.489897E+10 -3.059708E+09  4.718256E+08
       105  20  1.151093E+11 -3.100717E+10  3.529395E+11  3.561936E+10 -3.216234E+09  4.815643E+08
       105  21  1.053702E+11 -2.810608E+10  3.541425E+11  3.601972E+10 -3.363886E+09  4.869758E+08
       105  22  1.253705E+11 -2.881284E+10  3.475664E+11  4.002816E+10 -3.003733E+09  5.411742E+08
       105  23  1.140809E+11 -2.683789E+10  3.474247E+11  3.991857E+10 -3.155108E+09  5.396909E+08
       105  24  1.043370E+11 -2.416613E+10  3.482074E+11  3.947423E+10 -3.297183E+09  5.336816E+08
       105  25  1.227296E+11 -2.503285E+10  3.417420E+11  4.478555E+10 -2.961419E+09  6.054957E+08
       105  26  1.113637E+11 -2.330248E+10  3.411971E+11  4.381866E+10 -3.108334E+09  5.924212E+08
       105  27  1.016067E+11 -2.084797E+10  3.416181E+11  4.250153E+10 -3.245522E+09  5.746112E+08
       106   1  9.949155E+10 -2.670466E+10  3.548109E+11  3.574942E+10  3.452531E+09 -4.833250E+08
       106   2  8.980791E+10 -2.439425E+10  3.562939E+11  3.468126E+10  3.604120E+09 -4.688822E+08
       106   3  8.146123E+10 -2.139138E+10  3.586999E+11  3.332370E+10  3.749075E+09 -4.505265E+08
       106   4  9.850709E+10 -2.277652E+10  3.486890E+11  3.881074E+10  3.382686E+09 -5.247152E+08
       106   5  8.893424E+10 -2.072428E+10  3.497923E+11  3.712290E+10  3.527784E+09 -5.018939E+08
       106   6  8.074530E+10 -1.796049E+10  3.518427E+11  3.513305E+10  3.665849E+09 -4.749892E+08
       106   7  9.599950E+10 -1.958424E+10  3.419632E+11  4.142931E+10  3.326095E+09 -5.601192E+08
       106   8  8.653831E+10 -1.777669E+10  3.427452E+11  3.909962E+10  3.465284E+09 -5.286197E+08
       106   9  7.851078E+10 -1.523688E+10  3.445012E+11  3.645468E+10  3.597042E+09 -4.928577E+08
       106  10  9.944344E+10 -2.670527E+10  3.548569E+11  3.575261E+10  8.881784E-06 -8.881784E-06
       106  11  8.975872E+10 -2.439445E+10  3.563424E+11  3.468452E+10 -2.886580E-04  4.996004E-06
       106  12  8.141097E+10 -2.139120E+10  3.587507E+11  3.332702E+10 -3.530509E-04  1.387779E-07
       106  13  9.846036E+10 -2.277694E+10  3.487343E+11  3.881400E+10  5.528911E-04  0.000000E+00
       106  14  8.888646E+10 -2.072432E+10  3.498400E+11  3.712624E+10  4.440892E-06 -1.110223E-06
       106  15  8.069649E+10 -1.796017E+10  3.518926E+11  3.513646E+10 -7.327472E-05  1.720846E-05
       106  16  9.595409E+10 -1.958443E+10  3.420080E+11  4.143265E+10  1.376677E-04  1.110223E-06
       106  17  8.649190E+10 -1.777651E+10  3.427922E+11  3.910305E+10  2.819966E-04 -7.771561E-06
       106  18  7.846339E+10 -1.523635E+10  3.445504E+11  3.645818E+10 -1.394718E-04  4.302114E-06
       106  19  9.949155E+10 -2.670466E+10  3.548109E+11  3.574942E+10 -3.452531E+09  4.833250E+08
       106  20  8.980791E+10 -2.439425E+10  3.562939E+11  3.468126E+10 -3.604120E+09  4.688822E+08
       106  21  8.146123E+10 -2.139138E+10  3.586999E+11  3.332370E+10 -3.749075E+09  4.505265E+08
       106  22  9.850709E+10 -2.277652E+10  3.486890E+11  3.881074E+10 -3.382686E+09  5.247152E+08
       106  23  8.893424E+10 -2.072428E+10  3.497923E+11  3.712290E+10 -3.527784E+09  5.018939E+08
       106  24  8.074530E+10 -1.796049E+10  3.518427E+11  3.513305E+10 -3.665849E+09  4.749892E+08
       106  25  9.599950E+10 -1.958424E+10  3.419632E+11  4.142931E+10 -3.326095E+09  5.601192E+08
       106  26  8.653831E+10 -1.777669E+10  3.427452E+11  3.909962E+10 -3.465284E+09  5.286197E+08
       106  27  7.851078E+10 -1.523688E+10  3.445012E+11  3.645468E+10 -3.597042E+09  4.928577E+08
       107   1  9.342246E+10 -1.748221E+10  3.378161E+11  4.257805E+10  3.304833E+09 -5.756474E+08
       107   2  8.442304E+10 -1.568005E+10  3.385969E+11  3.980736E+10  3.437787E+09 -5.381860E+08
       107   3  7.648338E+10 -1.340682E+10  3.401628E+11  3.684128E+10  3.565775E+09 -4.980829E+08
       107   4  8.820873E+10 -1.258440E+10  3.308733E+11  4.321075E+10  3.281017E+09 -5.842036E+08
       107   5  7.962898E+10 -1.134807E+10  3.314172E+11  3.992173E+10  3.405212E+09 -5.397341E+08
       107   6  7.214223E+10 -9.636029E+09  3.327577E+11  3.642932E+10  3.524110E+09 -4.925144E+08
       107   7  8.076324E+10 -9.181577E+09  3.228551E+11  4.311197E+10  3.273749E+09 -5.828700E+08
       107   8  7.260729E+10 -8.513929E+09  3.232125E+11  3.928174E+10  3.389611E+09 -5.310829E+08
       107   9  6.557966E+10 -7.365154E+09  3.243806E+11  3.523960E+10  3.499843E+09 -4.764304E+08
       107  10  9.337598E+10 -1.748299E+10  3.378600E+11  4.258182E+10  1.421085E-04  4.440892E-06
       107  11  8.437598E+10 -1.568031E+10  3.386431E+11  3.981111E+10 -1.421085E-04 -8.881784E-06
       107  12  7.643576E+10 -1.340657E+10  3.402113E+11  3.684501E+10 -3.197442E-04  5.273559E-06
       107  13  8.816311E+10 -1.258494E+10  3.309172E+11  4.321435E+10 -8.881784E-06  4.440892E-06
       107  14  7.958281E+10 -1.134812E+10  3.314631E+11  3.992533E+10  5.706546E-04  4.440892E-06
       107  15  7.209554E+10 -9.635619E+09  3.328058E+11  3.643291E+10  4.285461E-04 -1.110223E-06
       107  16  8.071841E+10 -9.181825E+09  3.228991E+11  4.311539E+10 -1.509903E-04  8.881784E-06
       107  17  7.256194E+10 -8.513729E+09  3.232586E+11  3.928517E+10  6.661338E-06  1.332268E-05
       107  18  6.553383E+10 -7.364519E+09  3.244286E+11  3.524304E+10 -7.244205E-05  5.551115E-06
       107  19  9.342246E+10 -1.748221E+10  3.378161E+11  4.257805E+10 -3.304833E+09  5.756474E+08
       107  20  8.442304E+10 -1.568005E+10  3.385969E+11  3.980736E+10 -3.437787E+09  5.381860E+08
       107  21  7.648338E+10 -1.340682E+10  3.401628E+11  3.684128E+10 -3.565775E+09  4.980829E+08
       107  22  8.820873E+10 -1.258440E+10  3.308733E+11  4.321075E+10 -3.281017E+09  5.842036E+08
       107  23  7.962898E+10 -1.134807E+10  3.314172E+11  3.992173E+10 -3.405212E+09  5.397341E+08
       107  24  7.214223E+10 -9.636029E+09  3.327577E+11  3.642932E+10 -3.524110E+09  4.925144E+08
       107  25  8.076324E+10 -9.181577E+09  3.228551E+11  4.311197E+10 -3.273749E+09  5.828700E+08
       107  26  7.260729E+10 -8.513929E+09  3.232125E+11  3.928174E+10 -3.389611E+09  5.310829E+08
       107  27  6.557966E+10 -7.365154E+09  3.243806E+11  3.523960E+10 -3.499843E+09  4.764304E+08
       108   1  1.195834E+11 -2.244705E+10  3.379472E+11  4.724699E+10  2.952598E+09 -6.387691E+08
       108   2  1.086668E+11 -2.070123E+10  3.373904E+11  4.567240E+10  3.093318E+09 -6.174793E+08
       108   3  9.892285E+10 -1.860637E+10  3.375623E+11  4.390689E+10  3.226943E+09 -5.936080E+08
       108   4  1.136454E+11 -1.578891E+10  3.318443E+11  4.980505E+10  2.949648E+09 -6.733572E+08
       108   5  1.030159E+11 -1.479132E+10  3.309378E+11  4.745754E+10  3.081912E+09 -6.416169E+08
       108   6  9.360392E+10 -1.343959E+10  3.307828E+11  4.490998E+10  3.206706E+09 -6.071718E+08
       108   7  1.050729E+11 -1.071967E+10  3.243736E+11  5.161417E+10  2.965339E+09 -6.978192E+08
       108   8  9.472143E+10 -1.048258E+10  3.231664E+11  4.846232E+10  3.089697E+09 -6.552038E+08
       108   9  8.563475E+10 -9.885709E+09  3.227357E+11  4.510076E+10  3.206207E+09 -6.097527E+08
       108  10  1.195413E+11 -2.244800E+10  3.379862E+11  4.725133E+10  0.000000E+00 -4.440892E-06
       108  11  1.086240E+11 -2.070167E+10  3.374318E+11  4.567679E+10 -2.708944E-04  1.665335E-06
       108  12  9.887934E+10 -1.860632E+10  3.376060E+11  4.391133E+10 -1.887379E-04 -1.561251E-06
       108  13  1.136043E+11 -1.578944E+10  3.318837E+11  4.980928E+10  5.684342E-04 -1.665335E-06
       108  14  1.029741E+11 -1.479138E+10  3.309794E+11  4.746181E+10  4.440892E-06 -8.604228E-06
       108  15  9.356148E+10 -1.343919E+10  3.308265E+11  4.491431E+10  3.530509E-04 -1.297573E-05
       108  16  1.050327E+11 -1.071972E+10  3.244137E+11  5.161826E+10 -2.753353E-04  2.220446E-06
       108  17  9.468060E+10 -1.048218E+10  3.232086E+11  4.846646E+10  2.220446E-06 -2.775558E-07
       108  18  8.559332E+10 -9.884889E+09  3.227799E+11  4.510496E+10 -4.496403E-04  8.673617E-07
       108  19  1.195834E+11 -2.244705E+10  3.379472E+11  4.724699E+10 -2.952598E+09  6.387691E+08
       108  20  1.086668E+11 -2.070123E+10  3.373904E+11  4.567240E+10 -3.093318E+09  6.174793E+08
       108  21  9.892285E+10 -1.860637E+10  3.375623E+11  4.390689E+10 -3.226943E+09  5.936080E+08
       108  22  1.136454E+11 -1.578891E+10  3.318443E+11  4.980505E+10 -2.949648E+09  6.733572E+08
       108  23  1.030159E+11 -1.479132E+10  3.309378E+11  4.745754E+10 -3.081912E+09  6.416169E+08
       108  24  9.360392E+10 -1.343959E+10  3.307828E+11  4.490998E+10 -3.206706E+09  6.071718E+08
       108  25  1.050729E+11 -1.071967E+10  3.243736E+11  5.161417E+10 -2.965339E+09  6.978192E+08
       108  26  9.472143E+10 -1.048258E+10  3.231664E+11  4.846232E+10 -3.089697E+09  6.552038E+08
       108  27  8.563475E+10 -9.885709E+09  3.227357E+11  4.510076E+10 -3.206207E+09  6.097527E+08
       109   1  5.672779E+11  1.176495E+11  4.974861E+11 -1.325978E+10 -9.447851E+08  1.792721E+08
       109   2  5.913360E+11  1.140798E+11  5.040359E+11  1.242933E+10 -1.182360E+09 -1.680415E+08
       109   3  6.012838E+11  1.034117E+11  5.038422E+11  3.577811E+10 -1.318370E+09 -4.837201E+08
       109   4  6.024699E+11  1.147086E+11  5.072663E+11 -3.947315E+10 -1.288483E+09  5.336685E+08
       109   5  6.203717E+11  9.804378E+10  5.093631E+11 -1.583315E+10 -1.502139E+09  2.140617E+08
       109   6  6.308396E+11  7.885483E+10  5.083273E+11  5.229788E+09 -1.657074E+09 -7.070834E+07
       109   7  6.240130E+11  1.034348E+11  5.102352E+11 -6.223550E+10 -1.538621E+09  8.414140E+08
       109   8  6.364779E+11  6.926387E+10  5.068228E+11 -3.898728E+10 -1.752789E+09  5.271038E+08
       109   9  6.458975E+11  3.780024E+10  5.033570E+11 -1.923104E+10 -1.927299E+09  2.600022E+08
       109  10  5.672840E+11  1.176466E+11  4.974705E+11 -1.326060E+10 -1.598721E-04  0.000000E+00
       109  11  5.913530E+11  1.140802E+11  5.040203E+11  1.243049E+10  4.352074E-04  3.996803E-05
       109  12  6.013046E+11  1.034130E+11  5.038257E+11  3.578039E+10  1.942890E-05  2.886580E-05
       109  13  6.024876E+11  1.147087E+11  5.072491E+11 -3.947646E+10  4.440892E-06  6.217249E-05
       109  14  6.203936E+11  9.804445E+10  5.093435E+11 -1.583432E+10 -2.842171E-04  1.998401E-05
       109  15  6.308634E+11  7.885541E+10  5.083055E+11  5.230020E+09 -1.421085E-04  8.881784E-06
       109  16  6.240362E+11  1.034359E+11  5.102154E+11 -6.224036E+10  1.421085E-04  3.552714E-05
       109  17  6.365028E+11  6.926437E+10  5.067996E+11 -3.899007E+10 -6.394885E-04 -8.881784E-05
       109  18  6.459232E+11  3.780010E+10  5.033308E+11 -1.923231E+10  6.217249E-05  4.343748E-05
       109  19  5.672779E+11  1.176495E+11  4.974861E+11 -1.325978E+10  9.447851E+08 -1.792721E+08
       109  20  5.913360E+11  1.140798E+11  5.040359E+11  1.242933E+10  1.182360E+09  1.680415E+08
       109  21  6.012838E+11  1.034117E+11  5.038422E+11  3.577811E+10  1.318370E+09  4.837201E+08
       109  22  6.024699E+11  1.147086E+11  5.072663E+11 -3.947315E+10  1.288483E+09 -5.336685E+08
       109  23  6.203717E+11  9.804378E+10  5.093631E+11 -1.583315E+10  1.502139E+09 -2.140617E+08
       109  24  6.308396E+11  7.885483E+10  5.083273E+11  5.229788E+09  1.657074E+09  7.070834E+07
       109  25  6.240130E+11  1.034348E+11  5.102352E+11 -6.223550E+10  1.538621E+09 -8.414140E+08
       109  26  6.364779E+11  6.926387E+10  5.068228E+11 -3.898728E+10  1.752789E+09 -5.271038E+08
       109  27  6.458975E+11  3.780024E+10  5.033570E+11 -1.923104E+10  1.927299E+09 -2.600022E+08
       110   1  6.005910E+11  8.723064E+10  4.985468E+11  5.376110E+10 -1.378865E+09 -7.268516E+08
       110   2  6.540366E+11  5.555430E+10  5.049349E+11  4.949828E+10 -2.013817E+09 -6.692026E+08
       110   3  6.752978E+11  6.316869E+09  4.970537E+11  3.826919E+10 -2.409944E+09 -5.173694E+08
       110   4  6.451380E+11  7.223552E+10  5.115032E+11  1.493902E+10 -1.806846E+09 -2.019768E+08
       110   5  6.686396E+11  5.406095E+10  5.148019E+11  1.925907E+10 -2.079982E+09 -2.603758E+08
       110   6  6.727957E+11  1.949603E+10  5.076723E+11  1.583259E+10 -2.234247E+09 -2.140405E+08
       110   7  6.524022E+11  1.755280E+10  5.011143E+11 -8.152714E+09 -2.045860E+09  1.102230E+08
       110   8  6.587523E+11  1.416975E+10  5.052303E+11 -4.919971E+08 -2.076327E+09  6.652954E+06
       110   9  6.524274E+11 -5.121553E+09  5.006897E+11  2.846092E+08 -2.052555E+09 -3.842335E+06
       110  10  6.006126E+11  8.723190E+10  4.985294E+11  5.376437E+10 -1.465494E-04  4.440892E-06
       110  11  6.540613E+11  5.555323E+10  5.049066E+11  4.950275E+10  0.000000E+00  1.110223E-05
       110  12  6.753247E+11  6.314404E+09  4.970186E+11  3.827445E+10  3.580469E-04  2.220446E-06
       110  13  6.451631E+11  7.223581E+10  5.114790E+11  1.493987E+10  2.220446E-06 -3.552714E-05
       110  14  6.686662E+11  5.406030E+10  5.147731E+11  1.926095E+10 -2.842171E-04  1.776357E-05
       110  15  6.728233E+11  1.949491E+10  5.076409E+11  1.583517E+10  7.327472E-05  0.000000E+00
       110  16  6.524297E+11  1.755270E+10  5.010866E+11 -8.153402E+09  1.465494E-04 -3.108624E-05
       110  17  6.587801E+11  1.416964E+10  5.052021E+11 -4.918867E+08 -7.105427E-05  2.220446E-06
       110  18  6.524553E+11 -5.121475E+09  5.006621E+11  2.852357E+08  1.454392E-04 -6.661338E-06
       110  19  6.005910E+11  8.723064E+10  4.985468E+11  5.376110E+10  1.378865E+09  7.268516E+08
       110  20  6.540366E+11  5.555430E+10  5.049349E+11  4.949828E+10  2.013817E+09  6.692026E+08
       110  21  6.752978E+11  6.316869E+09  4.970537E+11  3.826919E+10  2.409944E+09  5.173694E+08
       110  22  6.451380E+11  7.223552E+10  5.115032E+11  1.493902E+10  1.806846E+09  2.019768E+08
       110  23  6.686396E+11  5.406095E+10  5.148019E+11  1.925907E+10  2.079982E+09  2.603758E+08
       110  24  6.727957E+11  1.949603E+10  5.076723E+11  1.583259E+10  2.234247E+09  2.140405E+08
       110  25  6.524022E+11  1.755280E+10  5.011143E+11 -8.152714E+09  2.045860E+09 -1.102230E+08
       110  26  6.587523E+11  1.416975E+10  5.052303E+11 -4.919971E+08  2.076327E+09 -6.652954E+06
       110  27  6.524274E+11 -5.121553E+09  5.006897E+11  2.846092E+08  2.052555E+09  3.842335E+06
       111   1  6.570011E+11 -5.233802E+09  4.979565E+11 -4.557873E+08 -2.151018E+09  6.160400E+06
       111   2  6.542242E+11 -2.248619E+09  5.019002E+11  1.656881E+08 -2.060437E+09 -2.243622E+06
       111   3  6.488617E+11 -5.392586E+09  5.030029E+11  5.377586E+08 -1.972879E+09 -7.275186E+06
       111   4  6.514981E+11 -4.769253E+09  5.004649E+11  1.461121E+09 -2.043132E+09 -1.975202E+07
       111   5  6.480871E+11 -1.768614E+09  5.050570E+11  9.788182E+08 -1.935461E+09 -1.323378E+07
       111   6  6.425728E+11 -3.637081E+09  5.072008E+11  6.968842E+08 -1.831745E+09 -9.424039E+06
       111   7  6.500871E+11  3.233676E+09  5.061771E+11  1.421950E+09 -1.946541E+09 -1.921915E+07
       111   8  6.455690E+11  4.637901E+09  5.106660E+11  1.189765E+08 -1.825294E+09 -1.605818E+06
       111   9  6.394352E+11  2.581909E+09  5.131421E+11 -6.670072E+08 -1.708453E+09  9.018174E+06
       111  10  6.570294E+11 -5.234106E+09  4.979271E+11 -4.559347E+08 -2.831069E-04  3.552714E-05
       111  11  6.542517E+11 -2.248776E+09  5.018722E+11  1.653639E+08  4.300726E-04 -3.108624E-05
       111  12  6.488884E+11 -5.392578E+09  5.029762E+11  5.373052E+08  1.615375E-04  2.886580E-05
       111  13  6.515249E+11 -4.769576E+09  5.004370E+11  1.461519E+09  1.110223E-05  0.000000E+00
       111  14  6.481131E+11 -1.768678E+09  5.050308E+11  9.789016E+08 -5.684342E-04  7.105427E-05
       111  15  6.425980E+11 -3.636893E+09  5.071762E+11  6.967233E+08  7.105427E-05  8.881784E-05
       111  16  6.501126E+11  3.233345E+09  5.061505E+11  1.422691E+09 -1.110223E-05 -2.664535E-05
       111  17  6.455937E+11  4.637904E+09  5.106414E+11  1.193215E+08  0.000000E+00  0.000000E+00
       111  18  6.394590E+11  2.582226E+09  5.131194E+11 -6.669816E+08  5.617729E-04 -4.662937E-05
       111  19  6.570011E+11 -5.233802E+09  4.979565E+11 -4.557873E+08  2.151018E+09 -6.160400E+06
       111  20  6.542242E+11 -2.248619E+09  5.019002E+11  1.656881E+08  2.060437E+09  2.243622E+06
       111  21  6.488617E+11 -5.392586E+09  5.030029E+11  5.377586E+08  1.972879E+09  7.275186E+06
       111  22  6.514981E+11 -4.769253E+09  5.004649E+11  1.461121E+09  2.043132E+09  1.975202E+07
       111  23  6.480871E+11 -1.768614E+09  5.050570E+11  9.788182E+08  1.935461E+09  1.323378E+07
       111  24  6.425728E+11 -3.637081E+09  5.072008E+11  6.968842E+08  1.831745E+09  9.424039E+06
       111  25  6.500871E+11  3.233676E+09  5.061771E+11  1.421950E+09  1.946541E+09  1.921915E+07
       111  26  6.455690E+11  4.637901E+09  5.106660E+11  1.189765E+08  1.825294E+09  1.605818E+06
       111  27  6.394352E+11  2.581909E+09  5.131421E+11 -6.670072E+08  1.708453E+09 -9.018174E+06
       112   1  6.467151E+11  7.568124E+10  5.085481E+11 -7.683297E+10 -1.866862E+09  1.038778E+09
       112   2  6.640536E+11  4.392453E+10  5.084030E+11 -2.825957E+10 -2.103815E+09  3.820583E+08
       112   3  6.645317E+11  1.945453E+10  5.052806E+11 -7.394514E+09 -2.153343E+09  9.996898E+07
       112   4  7.052085E+11  5.397995E+10  5.197401E+11 -6.053492E+10 -2.505482E+09  8.184104E+08
       112   5  6.841033E+11  3.303268E+10  5.133151E+11 -2.234751E+10 -2.309965E+09  3.021205E+08
       112   6  6.544685E+11  4.028424E+09  5.011208E+11 -5.236435E+08 -2.074486E+09  7.071819E+06
       112   7  7.027394E+11 -2.552130E+09  5.029515E+11 -2.998128E+10 -2.702101E+09  4.053062E+08
       112   8  6.705358E+11 -1.475322E+09  5.013727E+11 -5.315310E+09 -2.291302E+09  7.183605E+07
       112   9  6.272489E+11 -2.432147E+10  4.878107E+11  1.291129E+10 -1.887261E+09 -1.745731E+08
       112  10  6.467416E+11  7.568177E+10  5.085234E+11 -7.683797E+10 -1.398881E-04  1.776357E-05
       112  11  6.640812E+11  4.392415E+10  5.083742E+11 -2.826223E+10 -4.318768E-04  1.776357E-05
       112  12  6.645596E+11  1.945400E+10  5.052509E+11 -7.395277E+09  2.309264E-04  2.220446E-06
       112  13  7.052384E+11  5.397823E+10  5.197045E+11 -6.054067E+10  5.706546E-04 -2.220446E-06
       112  14  6.841327E+11  3.303190E+10  5.132831E+11 -2.235052E+10  8.526513E-04  2.886580E-05
       112  15  6.544971E+11  4.028681E+09  5.010930E+11 -5.243754E+08 -2.908784E-04 -5.329071E-05
       112  16  7.027713E+11 -2.554119E+09  5.029130E+11 -2.998704E+10  2.897682E-04 -3.552714E-05
       112  17  6.705663E+11 -1.475522E+09  5.013416E+11 -5.318228E+09 -4.973799E-04 -7.105427E-05
       112  18  6.272779E+11 -2.431998E+10  4.877867E+11  1.291083E+10  1.426637E-04  0.000000E+00
       112  19  6.467151E+11  7.568124E+10  5.085481E+11 -7.683297E+10  1.866862E+09 -1.038778E+09
       112  20  6.640536E+11  4.392453E+10  5.084030E+11 -2.825957E+10  2.103815E+09 -3.820583E+08
       112  21  6.645317E+11  1.945453E+10  5.052806E+11 -7.394514E+09  2.153343E+09 -9.996898E+07
       112  22  7.052085E+11  5.397995E+10  5.197401E+11 -6.053492E+10  2.505482E+09 -8.184104E+08
       112  23  6.841033E+11  3.303268E+10  5.133151E+11 -2.234751E+10  2.309965E+09 -3.021205E+08
       112  24  6.544685E+11  4.028424E+09  5.011208E+11 -5.236435E+08  2.074486E+09 -7.071819E+06
       112  25  7.027394E+11 -2.552130E+09  5.029515E+11 -2.998128E+10  2.702101E+09 -4.053062E+08
       112  26  6.705358E+11 -1.475322E+09  5.013727E+11 -5.315310E+09  2.291302E+09 -7.183605E+07
       112  27  6.272489E+11 -2.432147E+10  4.878107E+11  1.291129E+10  1.887261E+09  1.745731E+08
       113   1  8.703673E+09  8.384693E+10  3.295149E+11  2.490952E+09  4.341257E+09 -3.381107E+07
       113   2 -1.421084E+08  7.218331E+10  3.119384E+11  2.018102E+07  4.227929E+09 -3.428011E+05
       113   3  2.169731E+09  7.119880E+10  3.027553E+11  1.349077E+10  4.067788E+09 -1.823957E+08
       113   4  1.025311E+09  4.645581E+10  3.148731E+11  1.073555E+10  4.247161E+09 -1.452756E+08
       113   5 -4.322921E+09  3.085299E+10  2.973112E+11  4.664818E+09  4.086780E+09 -6.313711E+07
       113   6  2.365868E+09  2.499708E+10  2.881285E+11  1.369038E+10  3.867463E+09 -1.850947E+08
       113   7 -5.821347E+09  1.098411E+10  3.010841E+11  1.851294E+10  4.153239E+09 -2.504232E+08
       113   8 -7.423363E+09 -7.983763E+09  2.837917E+11  8.755194E+09  3.945839E+09 -1.184375E+08
       113   9  3.951867E+09 -1.799512E+10  2.749252E+11  1.322701E+10  3.667382E+09 -1.788299E+08
       113  10  8.646028E+09  8.384736E+10  3.295740E+11  2.485519E+09 -7.105427E-05  5.551115E-07
       113  11 -1.974877E+08  7.218402E+10  3.119961E+11  2.024502E+07  2.486900E-04  3.053113E-06
       113  12  2.117120E+09  7.119980E+10  3.028112E+11  1.349778E+10 -2.664535E-05 -3.115563E-05
       113  13  9.679601E+08  4.645582E+10  3.149305E+11  1.073078E+10  0.000000E+00  1.110223E-05
       113  14 -4.377946E+09  3.085304E+10  2.973664E+11  4.665236E+09 -3.019807E-04  4.440892E-06
       113  15  2.313693E+09  2.499711E+10  2.881808E+11  1.369735E+10 -2.753353E-04 -1.665335E-06
       113  16 -5.878403E+09  1.098371E+10  3.011398E+11  1.850884E+10  2.842171E-04 -3.885781E-06
       113  17 -7.478033E+09 -7.984377E+09  2.838443E+11  8.755966E+09 -7.105427E-05  1.054712E-05
       113  18  3.900130E+09 -1.799606E+10  2.749738E+11  1.323394E+10 -6.217249E-05 -6.800116E-06
       113  19  8.703673E+09  8.384693E+10  3.295149E+11  2.490952E+09 -4.341257E+09  3.381107E+07
       113  20 -1.421084E+08  7.218331E+10  3.119384E+11  2.018102E+07 -4.227929E+09  3.428011E+05
       113  21  2.169731E+09  7.119880E+10  3.027553E+11  1.349077E+10 -4.067788E+09  1.823957E+08
       113  22  1.025311E+09  4.645581E+10  3.148731E+11  1.073555E+10 -4.247161E+09  1.452756E+08
       113  23 -4.322921E+09  3.085299E+10  2.973112E+11  4.664818E+09 -4.086780E+09  6.313711E+07
       113  24  2.365868E+09  2.499708E+10  2.881285E+11  1.369038E+10 -3.867463E+09  1.850947E+08
       113  25 -5.821347E+09  1.098411E+10  3.010841E+11  1.851294E+10 -4.153239E+09  2.504232E+08
       113  26 -7.423363E+09 -7.983763E+09  2.837917E+11  8.755194E+09 -3.945839E+09  1.184375E+08
       113  27  3.951867E+09 -1.799512E+10  2.749252E+11  1.322701E+10 -3.667382E+09  1.788299E+08
       114   1  1.610846E+09  6.217876E+10  2.953099E+11  5.359904E+09  3.976233E+09 -7.258533E+07
       114   2 -4.590277E+09  2.819558E+10  2.777023E+11  2.620732E+09  3.829021E+09 -3.545669E+07
       114   3  3.991868E+09  3.313543E+09  2.699835E+11  5.834960E+09  3.601522E+09 -7.881597E+07
       114   4  3.784169E+09  1.698800E+10  2.816597E+11  4.836993E+09  3.762368E+09 -6.551673E+07
       114   5 -3.453282E+09 -1.315284E+10  2.650183E+11  1.979516E+09  3.642219E+09 -2.678825E+07
       114   6  2.686256E+09 -3.514417E+10  2.575591E+11  5.084997E+09  3.451228E+09 -6.867680E+07
       114   7  5.937053E+09 -2.828340E+10  2.680220E+11  4.278471E+09  3.548740E+09 -5.796666E+07
       114   8 -2.367937E+09 -5.464662E+10  2.523074E+11  1.348851E+09  3.455596E+09 -1.826245E+07
       114   9  1.288652E+09 -7.383341E+10  2.450596E+11  4.408671E+09  3.301055E+09 -5.953325E+07
       114  10  1.559537E+09  6.217978E+10  2.953646E+11  5.351955E+09 -2.842171E-04  0.000000E+00
       114  11 -4.639816E+09  2.819647E+10  2.777548E+11  2.621071E+09 -2.131628E-04  7.771561E-06
       114  12  3.944968E+09  3.314283E+09  2.700329E+11  5.844108E+09  8.881784E-05  1.776357E-05
       114  13  3.733309E+09  1.698797E+10  2.817105E+11  4.828902E+09  5.773160E-04 -1.332268E-05
       114  14 -3.502433E+09 -1.315287E+10  2.650673E+11  1.979736E+09 -2.842171E-04  0.000000E+00
       114  15  2.639668E+09 -3.514416E+10  2.576057E+11  5.094059E+09 -4.263256E-04 -7.771561E-06
       114  16  5.886644E+09 -2.828447E+10  2.680689E+11  4.270238E+09  7.105427E-05  4.440892E-06
       114  17 -2.416697E+09 -5.464757E+10  2.523530E+11  1.348953E+09  7.105427E-05 -4.440892E-06
       114  18  1.242378E+09 -7.383414E+10  2.451034E+11  4.417646E+09  0.000000E+00  6.938894E-07
       114  19  1.610846E+09  6.217876E+10  2.953099E+11  5.359904E+09 -3.976233E+09  7.258533E+07
       114  20 -4.590277E+09  2.819558E+10  2.777023E+11  2.620732E+09 -3.829021E+09  3.545669E+07
       114  21  3.991868E+09  3.313543E+09  2.699835E+11  5.834960E+09 -3.601522E+09  7.881597E+07
       114  22  3.784169E+09  1.698800E+10  2.816597E+11  4.836993E+09 -3.762368E+09  6.551673E+07
       114  23 -3.453282E+09 -1.315284E+10  2.650183E+11  1.979516E+09 -3.642219E+09  2.678825E+07
       114  24  2.686256E+09 -3.514417E+10  2.575591E+11  5.084997E+09 -3.451228E+09  6.867680E+07
       114  25  5.937053E+09 -2.828340E+10  2.680220E+11  4.278471E+09 -3.548740E+09  5.796666E+07
       114  26 -2.367937E+09 -5.464662E+10  2.523074E+11  1.348851E+09 -3.455596E+09  1.826245E+07
       114  27  1.288652E+09 -7.383341E+10  2.450596E+11  4.408671E+09 -3.301055E+09  5.953325E+07
       115   1 -4.023363E+09 -5.981155E+10  2.551802E+11  2.629631E+09  3.509782E+09 -3.567422E+07
       115   2 -1.155870E+09 -7.868396E+10  2.451326E+11  9.263742E+08  3.342183E+09 -1.255020E+07
       115   3  1.508971E+09 -9.593515E+10  2.382301E+11  4.309245E+09  3.205731E+09 -5.818855E+07
       115   4 -2.277826E+09 -1.057899E+11  2.412590E+11  2.124513E+09  3.298005E+09 -2.884509E+07
       115   5 -1.524625E+08 -1.205058E+11  2.323503E+11  6.050025E+08  3.155786E+09 -8.205466E+06
       115   6  4.252839E+08 -1.345356E+11  2.258873E+11  4.184379E+09  3.053511E+09 -5.650073E+07
       115   7 -5.108369E+08 -1.517505E+11  2.273915E+11  1.575910E+09  3.086460E+09 -2.142801E+07
       115   8  8.650381E+08 -1.623194E+11  2.196068E+11  2.835493E+08  2.969565E+09 -3.859628E+06
       115   9 -6.521400E+08 -1.731384E+11  2.135677E+11  4.118748E+09  2.901411E+09 -5.561381E+07
       115  10 -4.068725E+09 -5.981068E+10  2.552285E+11  2.621328E+09  0.000000E+00  1.332268E-05
       115  11 -1.199824E+09 -7.868350E+10  2.451780E+11  9.264956E+08  2.842171E-04  0.000000E+00
       115  12  1.466976E+09 -9.593460E+10  2.382740E+11  4.318264E+09 -3.907985E-04  4.996004E-06
       115  13 -2.322755E+09 -1.057901E+11  2.413033E+11  2.116169E+09  5.773160E-04  1.332268E-05
       115  14 -1.960361E+08 -1.205063E+11  2.323924E+11  6.050789E+08 -8.526513E-04 -4.440892E-06
       115  15  3.835995E+08 -1.345358E+11  2.259283E+11  4.193347E+09  2.131628E-04  6.661338E-06
       115  16 -5.553267E+08 -1.517517E+11  2.274320E+11  1.567524E+09 -1.421085E-04 -2.220446E-05
       115  17  8.218475E+08 -1.623207E+11  2.196454E+11  2.835808E+08  1.421085E-04  2.220446E-06
       115  18 -6.935127E+08 -1.731394E+11  2.136059E+11  4.127667E+09  8.881784E-05 -9.992007E-06
       115  19 -4.023363E+09 -5.981155E+10  2.551802E+11  2.629631E+09 -3.509782E+09  3.567422E+07
       115  20 -1.155870E+09 -7.868396E+10  2.451326E+11  9.263742E+08 -3.342183E+09  1.255020E+07
       115  21  1.508971E+09 -9.593515E+10  2.382301E+11  4.309245E+09 -3.205731E+09  5.818855E+07
       115  22 -2.277826E+09 -1.057899E+11  2.412590E+11  2.124513E+09 -3.298005E+09  2.884509E+07
       115  23 -1.524625E+08 -1.205058E+11  2.323503E+11  6.050025E+08 -3.155786E+09  8.205466E+06
       115  24  4.252839E+08 -1.345356E+11  2.258873E+11  4.184379E+09 -3.053511E+09  5.650073E+07
       115  25 -5.108369E+08 -1.517505E+11  2.273915E+11  1.575910E+09 -3.086460E+09  2.142801E+07
       115  26  8.650381E+08 -1.623194E+11  2.196068E+11  2.835493E+08 -2.969565E+09  3.859628E+06
       115  27 -6.521400E+08 -1.731384E+11  2.135677E+11  4.118748E+09 -2.901411E+09  5.561381E+07
       116   1 -4.362227E+09 -7.701970E+09  2.952962E+11  1.857504E+10  4.055240E+09 -2.512623E+08
       116   2  3.024637E+09 -2.475480E+10  2.813728E+11  9.484581E+09  3.771825E+09 -1.282982E+08
       116   3  3.633248E+08 -4.363200E+10  2.657195E+11  1.205445E+10  3.591423E+09 -1.629768E+08
       116   4 -1.138789E+10 -4.720421E+10  2.803009E+11  7.069635E+09  3.947478E+09 -9.571280E+07
       116   5  2.703627E+08 -6.493780E+10  2.676315E+11  2.420321E+09  3.623196E+09 -3.279222E+07
       116   6  2.842888E+09 -8.483642E+10  2.533806E+11  1.041423E+10  3.391088E+09 -1.408028E+08
       116   7 -1.921718E+10 -8.860517E+10  2.645257E+11 -4.867512E+09  3.839906E+09  6.567413E+07
       116   8 -3.542926E+09 -1.076201E+11  2.528595E+11 -5.152022E+09  3.474779E+09  6.958334E+07
       116   9  3.943828E+09 -1.292908E+11  2.396962E+11  8.170588E+09  3.190992E+09 -1.104703E+08
       116  10 -4.416445E+09 -7.701728E+09  2.953512E+11  1.857099E+10  0.000000E+00  0.000000E+00
       116  11  2.973828E+09 -2.475477E+10  2.814237E+11  9.485450E+09  3.552714E-04  0.000000E+00
       116  12  3.164038E+08 -4.363132E+10  2.657687E+11  1.206132E+10 -2.131628E-04 -2.220446E-05
       116  13 -1.144180E+10 -4.720446E+10  2.803540E+11  7.064598E+09  5.684342E-04 -2.220446E-05
       116  14  2.199138E+08 -6.493847E+10  2.676797E+11  2.420515E+09  1.119105E-03  0.000000E+00
       116  15  2.796393E+09 -8.483672E+10  2.534261E+11  1.042082E+10 -1.421085E-04  1.110223E-05
       116  16 -1.927078E+10 -8.860591E+10  2.645768E+11 -4.873538E+09 -1.421085E-04  3.108624E-05
       116  17 -3.593012E+09 -1.076214E+11  2.529050E+11 -5.152504E+09  6.394885E-04 -2.220446E-06
       116  18  3.897762E+09 -1.292920E+11  2.397381E+11  8.176896E+09  2.664535E-05  2.164935E-05
       116  19 -4.362227E+09 -7.701970E+09  2.952962E+11  1.857504E+10 -4.055240E+09  2.512623E+08
       116  20  3.024637E+09 -2.475480E+10  2.813728E+11  9.484581E+09 -3.771825E+09  1.282982E+08
       116  21  3.633248E+08 -4.363200E+10  2.657195E+11  1.205445E+10 -3.591423E+09  1.629768E+08
       116  22 -1.138789E+10 -4.720421E+10  2.803009E+11  7.069635E+09 -3.947478E+09  9.571280E+07
       116  23  2.703627E+08 -6.493780E+10  2.676315E+11  2.420321E+09 -3.623196E+09  3.279222E+07
       116  24  2.842888E+09 -8.483642E+10  2.533806E+11  1.041423E+10 -3.391088E+09  1.408028E+08
       116  25 -1.921718E+10 -8.860517E+10  2.645257E+11 -4.867512E+09 -3.839906E+09 -6.567413E+07
       116  26 -3.542926E+09 -1.076201E+11  2.528595E+11 -5.152022E+09 -3.474779E+09 -6.958334E+07
       116  27  3.943828E+09 -1.292908E+11  2.396962E+11  8.170588E+09 -3.190992E+09  1.104703E+08
       117   1  2.012859E+09  3.841766E+10  2.865972E+11 -7.680608E+09  3.847495E+09  1.039769E+08
       117   2 -2.752708E+09  2.314098E+10  2.599964E+11 -8.502717E+08  3.551215E+09  1.164749E+07
       117   3  1.314235E+09  8.905811E+09  2.359097E+11 -1.369998E+09  3.171549E+09  1.868780E+07
       117   4 -1.264858E+08  2.008514E+10  2.814486E+11 -1.130145E+10  3.806744E+09  1.529288E+08
       117   5 -3.435260E+09  1.153168E+10  2.571361E+11 -3.246999E+09  3.521684E+09  4.405035E+07
       117   6  2.011102E+09  4.636856E+09  2.354967E+11 -2.183755E+09  3.156506E+09  2.969008E+07
       117   7 -2.728991E+09  6.779894E+08  2.758307E+11 -1.486307E+10  3.765979E+09  2.010800E+08
       117   8 -4.708329E+09 -1.451742E+09  2.536816E+11 -5.561286E+09  3.492149E+09  7.533855E+07
       117   9  1.958068E+09 -1.380558E+09  2.343326E+11 -2.886079E+09  3.141469E+09  3.918572E+07
       117  10  1.961660E+09  3.841802E+10  2.866496E+11 -7.682537E+09  2.131628E-04  0.000000E+00
       117  11 -2.799680E+09  2.314144E+10  2.600449E+11 -8.503179E+08 -3.552714E-05 -3.552714E-05
       117  12  1.271877E+09  8.906039E+09  2.359528E+11 -1.368856E+09 -1.776357E-04 -5.773160E-05
       117  13 -1.777347E+08  2.008524E+10  2.815001E+11 -1.130377E+10  8.881784E-06 -5.329071E-05
       117  14 -3.482280E+09  1.153194E+10  2.571840E+11 -3.247277E+09  0.000000E+00  3.552714E-05
       117  15  1.968690E+09  4.636974E+09  2.355395E+11 -2.182651E+09  5.684342E-04  1.065814E-04
       117  16 -2.780293E+09  6.778280E+08  2.758815E+11 -1.486577E+10  2.131628E-04 -3.996803E-05
       117  17 -4.755398E+09 -1.451670E+09  2.537289E+11 -5.561794E+09  5.329071E-04  7.938095E-05
       117  18  1.915602E+09 -1.380551E+09  2.343751E+11 -2.885013E+09 -8.881784E-06  2.775558E-05
       117  19  2.012859E+09  3.841766E+10  2.865972E+11 -7.680608E+09 -3.847495E+09 -1.039769E+08
       117  20 -2.752708E+09  2.314098E+10  2.599964E+11 -8.502717E+08 -3.551215E+09 -1.164749E+07
       117  21  1.314235E+09  8.905811E+09  2.359097E+11 -1.369998E+09 -3.171549E+09 -1.868780E+07
       117  22 -1.264858E+08  2.008514E+10  2.814486E+11 -1.130145E+10 -3.806744E+09 -1.529288E+08
       117  23 -3.435260E+09  1.153168E+10  2.571361E+11 -3.246999E+09 -3.521684E+09 -4.405035E+07
       117  24  2.011102E+09  4.636856E+09  2.354967E+11 -2.183755E+09 -3.156506E+09 -2.969008E+07
       117  25 -2.728991E+09  6.779894E+08  2.758307E+11 -1.486307E+10 -3.765979E+09 -2.010800E+08
       117  26 -4.708329E+09 -1.451742E+09  2.536816E+11 -5.561286E+09 -3.492149E+09 -7.533855E+07
       117  27  1.958068E+09 -1.380558E+09  2.343326E+11 -2.886079E+09 -3.141469E+09 -3.918572E+07
       118   1  2.173214E+09  2.769743E+09  2.218546E+11 -5.992915E+09  2.970489E+09  8.117689E+07
       118   2 -1.520600E+09  6.443564E+08  1.985103E+11 -1.783703E+09  2.704659E+09  2.427159E+07
       118   3  8.322064E+08  8.054703E+07  1.773479E+11 -3.082139E+08  2.386801E+09  4.324977E+06
       118   4  2.826623E+09  2.740041E+08  2.218748E+11 -4.855436E+09  2.961911E+09  6.579846E+07
       118   5 -1.193285E+09 -6.498651E+08  1.986729E+11 -1.334007E+09  2.702406E+09  1.819192E+07
       118   6  5.613136E+08  3.374712E+07  1.775911E+11 -7.661123E+08  2.393744E+09  1.051588E+07
       118   7  3.540934E+09 -2.079241E+09  2.219557E+11 -3.687128E+09  2.953343E+09  5.000319E+07
       118   8 -7.719850E+08 -1.725110E+09  1.989298E+11 -8.399015E+08  2.700163E+09  1.151181E+07
       118   9  4.295075E+08  3.103394E+08  1.779744E+11 -1.161043E+09  2.400700E+09  1.585542E+07
       118  10  2.133333E+09  2.769863E+09  2.218948E+11 -5.993599E+09 -1.421085E-04  1.776357E-05
       118  11 -1.556777E+09  6.445245E+08  1.985470E+11 -1.783858E+09  1.065814E-04 -8.881784E-06
       118  12  8.000421E+08  8.059227E+07  1.773802E+11 -3.081025E+08 -6.217249E-05 -1.776357E-05
       118  13  2.786686E+09  2.740508E+08  2.219149E+11 -4.856036E+09 -2.842171E-04 -8.437695E-05
       118  14 -1.229512E+09 -6.497316E+08  1.987095E+11 -1.334123E+09  4.085621E-04  3.108624E-05
       118  15  5.290962E+08  3.380991E+07  1.776235E+11 -7.660236E+08 -7.993606E-05  8.881784E-06
       118  16  3.500942E+09 -2.079268E+09  2.219956E+11 -3.687643E+09  2.842171E-04  3.108624E-05
       118  17 -8.082632E+08 -1.725011E+09  1.989664E+11 -8.399786E+08 -1.421085E-04 -1.110223E-05
       118  18  3.972370E+08  3.104198E+08  1.780070E+11 -1.160977E+09  5.329071E-05 -1.776357E-05
       118  19  2.173214E+09  2.769743E+09  2.218546E+11 -5.992915E+09 -2.970489E+09 -8.117689E+07
       118  20 -1.520600E+09  6.443564E+08  1.985103E+11 -1.783703E+09 -2.704659E+09 -2.427159E+07
       118  21  8.322064E+08  8.054703E+07  1.773479E+11 -3.082139E+08 -2.386801E+09 -4.324977E+06
       118  22  2.826623E+09  2.740041E+08  2.218748E+11 -4.855436E+09 -2.961911E+09 -6.579846E+07
       118  23 -1.193285E+09 -6.498651E+08  1.986729E+11 -1.334007E+09 -2.702406E+09 -1.819192E+07
       118  24  5.613136E+08  3.374712E+07  1.775911E+11 -7.661123E+08 -2.393744E+09 -1.051588E+07
       118  25  3.540934E+09 -2.079241E+09  2.219557E+11 -3.687128E+09 -2.953343E+09 -5.000319E+07
       118  26 -7.719850E+08 -1.725110E+09  1.989298E+11 -8.399015E+08 -2.700163E+09 -1.151181E+07
       118  27  4.295075E+08  3.103394E+08  1.779744E+11 -1.161043E+09 -2.400700E+09 -1.585542E+07
       119   1  9.033021E+08 -4.788482E+09  2.206855E+11 -3.721529E+09  2.971831E+09  5.046830E+07
       119   2 -8.554251E+08 -2.550835E+09  1.989210E+11 -9.950258E+08  2.701164E+09  1.360905E+07
       119   3  8.347861E+08  7.371335E+08  1.784225E+11 -7.351498E+08  2.401275E+09  1.009759E+07
       119   4  1.698515E+09 -6.973419E+09  2.208448E+11 -2.987992E+09  2.963221E+09  4.055115E+07
       119   5 -5.242460E+08 -3.712561E+09  1.991260E+11 -4.713400E+08  2.699446E+09  6.529087E+06
       119   6  4.102983E+08  6.482949E+08  1.786104E+11 -4.866197E+08  2.409554E+09  6.737731E+06
       119   7  2.483847E+09 -9.181022E+09  2.209938E+11 -2.220356E+09  2.954620E+09  3.017295E+07
       119   8 -1.951902E+08 -4.879633E+09  1.993293E+11  1.010574E+08  2.697740E+09 -1.209484E+06
       119   9 -5.832765E+06  5.776578E+08  1.788079E+11 -1.694086E+08  2.417847E+09  2.449259E+06
       119  10  8.633375E+08 -4.788390E+09  2.207257E+11 -3.722050E+09  1.421085E-04  1.776357E-05
       119  11 -8.917513E+08 -2.550751E+09  1.989576E+11 -9.951183E+08  3.552714E-05  3.108624E-05
       119  12  8.023202E+08  7.371334E+08  1.784550E+11 -7.350422E+08  1.776357E-04 -4.440892E-06
       119  13  1.658494E+09 -6.973401E+09  2.208849E+11 -2.988452E+09  2.842171E-04  1.332268E-05
       119  14 -5.606246E+08 -3.712509E+09  1.991625E+11 -4.713839E+08  0.000000E+00 -7.105427E-05
       119  15  3.777764E+08  6.483189E+08  1.786430E+11 -4.864803E+08  2.486900E-04  3.108624E-05
       119  16  2.443770E+09 -9.181078E+09  2.210337E+11 -2.220755E+09  1.421085E-04 -6.328271E-05
       119  17 -2.316217E+08 -4.879613E+09  1.993658E+11  1.010621E+08 -1.065814E-04  1.243450E-04
       119  18 -3.841067E+07  5.777058E+08  1.788407E+11 -1.692374E+08  1.154632E-04 -1.176836E-04
       119  19  9.033021E+08 -4.788482E+09  2.206855E+11 -3.721529E+09 -2.971831E+09 -5.046830E+07
       119  20 -8.554251E+08 -2.550835E+09  1.989210E+11 -9.950258E+08 -2.701164E+09 -1.360905E+07
       119  21  8.347861E+08  7.371335E+08  1.784225E+11 -7.351498E+08 -2.401275E+09 -1.009759E+07
       119  22  1.698515E+09 -6.973419E+09  2.208448E+11 -2.987992E+09 -2.963221E+09 -4.055115E+07
       119  23 -5.242460E+08 -3.712561E+09  1.991260E+11 -4.713400E+08 -2.699446E+09 -6.529087E+06
       119  24  4.102983E+08  6.482949E+08  1.786104E+11 -4.866197E+08 -2.409554E+09 -6.737731E+06
       119  25  2.483847E+09 -9.181022E+09  2.209938E+11 -2.220356E+09 -2.954620E+09 -3.017295E+07
       119  26 -1.951902E+08 -4.879633E+09  1.993293E+11  1.010574E+08 -2.697740E+09  1.209484E+06
       119  27 -5.832765E+06  5.776578E+08  1.788079E+11 -1.694086E+08 -2.417847E+09 -2.449259E+06
       120   1  6.384699E+09 -5.766855E+09  2.771962E+11 -1.314857E+10  3.661199E+09  1.779006E+08
       120   2  1.138006E+08 -6.546300E+09  2.540740E+11 -4.384714E+09  3.432221E+09  5.943188E+07
       120   3  2.370495E+08 -5.907200E+09  2.328404E+11 -2.900084E+09  3.144552E+09  3.937544E+07
       120   4  3.269132E+09 -2.432501E+10  2.716463E+11 -8.850452E+09  3.628229E+09  1.197912E+08
       120   5 -1.399453E+09 -1.883150E+10  2.507395E+11 -1.671050E+09  3.407519E+09  2.274423E+07
       120   6  2.640059E+08 -1.146111E+10  2.318391E+11 -2.116969E+09  3.130615E+09  2.878849E+07
       120   7  3.885495E+08 -4.233023E+10  2.663267E+11 -4.511214E+09  3.595254E+09  6.112600E+07
       120   8 -2.590955E+09 -3.036300E+10  2.477238E+11  1.101310E+09  3.382817E+09 -1.473705E+07
       120   9  7.208475E+08 -1.601081E+10  2.312666E+11 -1.253200E+09  3.116686E+09  1.711103E+07
       120  10  6.335903E+09 -5.766549E+09  2.772460E+11 -1.315112E+10  1.421085E-04 -2.664535E-05
       120  11  6.832392E+07 -6.545893E+09  2.541208E+11 -4.385103E+09 -5.684342E-04  2.664535E-05
       120  12  1.950191E+08 -5.906988E+09  2.328831E+11 -2.898990E+09  7.993606E-05 -6.661338E-06
       120  13  3.220277E+09 -2.432492E+10  2.716954E+11 -8.852645E+09  5.684342E-04  1.332268E-05
       120  14 -1.444983E+09 -1.883126E+10  2.507858E+11 -1.671196E+09  5.684342E-04  3.552714E-05
       120  15  2.219198E+08 -1.146100E+10  2.318816E+11 -2.115769E+09  2.842171E-04  8.881784E-06
       120  16  3.396335E+08 -4.233035E+10  2.663751E+11 -4.513054E+09 -4.263256E-04 -1.776357E-05
       120  17 -2.636541E+09 -3.036292E+10  2.477696E+11  1.101408E+09 -1.421085E-04  8.881784E-06
       120  18  6.787048E+08 -1.601081E+10  2.313088E+11 -1.251892E+09  7.993606E-05 -1.776357E-05
       120  19  6.384699E+09 -5.766855E+09  2.771962E+11 -1.314857E+10 -3.661199E+09 -1.779006E+08
       120  20  1.138006E+08 -6.546300E+09  2.540740E+11 -4.384714E+09 -3.432221E+09 -5.943188E+07
       120  21  2.370495E+08 -5.907200E+09  2.328404E+11 -2.900084E+09 -3.144552E+09 -3.937544E+07
       120  22  3.269132E+09 -2.432501E+10  2.716463E+11 -8.850452E+09 -3.628229E+09 -1.197912E+08
       120  23 -1.399453E+09 -1.883150E+10  2.507395E+11 -1.671050E+09 -3.407519E+09 -2.274423E+07
       120  24  2.640059E+08 -1.146111E+10  2.318391E+11 -2.116969E+09 -3.130615E+09 -2.878849E+07
       120  25  3.885495E+08 -4.233023E+10  2.663267E+11 -4.511214E+09 -3.595254E+09 -6.112600E+07
       120  26 -2.590955E+09 -3.036300E+10  2.477238E+11  1.101310E+09 -3.382817E+09  1.473705E+07
       120  27  7.208475E+08 -1.601081E+10  2.312666E+11 -1.253200E+09 -3.116686E+09 -1.711103E+07
       121   1  5.965298E+11  5.116685E+08  5.320591E+11 -3.450365E+08 -8.720777E+08  4.663857E+06
       121   2  5.995412E+11  6.056218E+07  5.309313E+11 -1.620830E+08 -9.283032E+08  2.192875E+06
       121   3  6.027649E+11 -9.184349E+08  5.295244E+11  2.176637E+08 -9.907019E+08 -2.938990E+06
       121   4  5.995210E+11  3.726288E+07  5.307953E+11 -3.315604E+07 -9.298568E+08  4.450441E+05
       121   5  6.029829E+11  3.773149E+07  5.297558E+11 -1.011001E+07 -9.910377E+08  1.360601E+05
       121   6  6.066426E+11 -5.040605E+08  5.284038E+11  2.097177E+08 -1.058583E+09 -2.833646E+06
       121   7  6.025327E+11 -2.491318E+08  5.294116E+11  8.331729E+07 -9.891039E+08 -1.131738E+06
       121   8  6.064330E+11  1.909593E+08  5.284325E+11 -5.353752E+07 -1.055411E+09  7.211898E+05
       121   9  6.105154E+11  7.307969E+07  5.271043E+11  6.379486E+06 -1.128290E+09 -8.646804E+04
       121  10  5.965421E+11  5.118677E+08  5.320475E+11 -3.450848E+08  0.000000E+00 -4.440892E-06
       121  11  5.995543E+11  6.079375E+07  5.309190E+11 -1.618450E+08 -4.352074E-04  2.220446E-06
       121  12  6.027788E+11 -9.182044E+08  5.295113E+11  2.181778E+08  1.099121E-04 -3.608225E-05
       121  13  5.995337E+11  3.728170E+07  5.307828E+11 -3.343027E+07  0.000000E+00 -4.440892E-06
       121  14  6.029964E+11  3.776865E+07  5.297425E+11 -1.010235E+07 -5.706546E-04 -4.440892E-06
       121  15  6.066570E+11 -5.040398E+08  5.283895E+11  2.099971E+08 -2.144132E-04 -1.998401E-05
       121  16  6.025456E+11 -2.493021E+08  5.293980E+11  8.281707E+07  2.842171E-04 -2.664535E-05
       121  17  6.064468E+11  1.907924E+08  5.284181E+11 -5.376020E+07  2.930989E-04  1.998401E-05
       121  18  6.105302E+11  7.287988E+07  5.270888E+11  6.424196E+06  1.110223E-06  2.498002E-06
       121  19  5.965298E+11  5.116685E+08  5.320591E+11 -3.450365E+08  8.720777E+08 -4.663857E+06
       121  20  5.995412E+11  6.056218E+07  5.309313E+11 -1.620830E+08  9.283032E+08 -2.192875E+06
       121  21  6.027649E+11 -9.184349E+08  5.295244E+11  2.176637E+08  9.907019E+08  2.938990E+06
       121  22  5.995210E+11  3.726288E+07  5.307953E+11 -3.315604E+07  9.298568E+08 -4.450441E+05
       121  23  6.029829E+11  3.773149E+07  5.297558E+11 -1.011001E+07  9.910377E+08 -1.360601E+05
       121  24  6.066426E+11 -5.040605E+08  5.284038E+11  2.097177E+08  1.058583E+09  2.833646E+06
       121  25  6.025327E+11 -2.491318E+08  5.294116E+11  8.331729E+07  9.891039E+08  1.131738E+06
       121  26  6.064330E+11  1.909593E+08  5.284325E+11 -5.353752E+07  1.055411E+09 -7.211898E+05
       121  27  6.105154E+11  7.307969E+07  5.271043E+11  6.379486E+06  1.128290E+09  8.646804E+04
       122   1  6.055381E+11  2.490150E+08  5.294020E+11  7.035071E+07 -1.029914E+09 -9.521660E+05
       122   2  6.094655E+11  1.197680E+08  5.281101E+11 -4.423220E+07 -1.100833E+09  5.999633E+05
       122   3  6.135115E+11 -7.025184E+07  5.265826E+11 -2.388784E+07 -1.175895E+09  3.277840E+05
       122   4  6.093321E+11  2.077614E+08  5.279880E+11  1.213936E+08 -1.100635E+09 -1.644764E+06
       122   5  6.134232E+11  1.434863E+08  5.265218E+11  8.602173E+06 -1.176168E+09 -1.168435E+05
       122   6  6.176185E+11  4.049583E+06  5.247863E+11  3.078356E+07 -1.256061E+09 -4.138477E+05
       122   7  6.129631E+11 -2.927749E+07  5.262263E+11  3.930326E+07 -1.173300E+09 -5.373100E+05
       122   8  6.172038E+11 -4.261981E+07  5.245530E+11 -7.167681E+07 -1.253661E+09  9.661264E+05
       122   9  6.215328E+11 -1.470569E+08  5.225731E+11 -4.763564E+07 -1.338624E+09  6.439838E+05
       122  10  6.055525E+11  2.492497E+08  5.293884E+11  7.031297E+07 -2.930989E-04 -1.776357E-05
       122  11  6.094810E+11  1.200255E+08  5.280955E+11 -4.395552E+07  1.283418E-03  8.881784E-06
       122  12  6.135280E+11 -6.999566E+07  5.265670E+11 -2.329724E+07  3.219647E-05 -2.442491E-05
       122  13  6.093471E+11  2.077790E+08  5.279732E+11  1.210797E+08  0.000000E+00  2.664535E-05
       122  14  6.134392E+11  1.435171E+08  5.265059E+11  8.603550E+06  8.526513E-04 -3.552714E-05
       122  15  6.176355E+11  4.068784E+06  5.247694E+11  3.109971E+07 -1.421085E-04  0.000000E+00
       122  16  6.129785E+11 -2.948829E+07  5.262103E+11  3.871320E+07  0.000000E+00  4.440892E-05
       122  17  6.172203E+11 -4.282760E+07  5.245358E+11 -7.195074E+07 -1.332268E-04  1.154632E-04
       122  18  6.215504E+11 -1.472876E+08  5.225547E+11 -4.759395E+07  3.552714E-04  1.304512E-05
       122  19  6.055381E+11  2.490150E+08  5.294020E+11  7.035071E+07  1.029914E+09  9.521660E+05
       122  20  6.094655E+11  1.197680E+08  5.281101E+11 -4.423220E+07  1.100833E+09 -5.999633E+05
       122  21  6.135115E+11 -7.025184E+07  5.265826E+11 -2.388784E+07  1.175895E+09 -3.277840E+05
       122  22  6.093321E+11  2.077614E+08  5.279880E+11  1.213936E+08  1.100635E+09  1.644764E+06
       122  23  6.134232E+11  1.434863E+08  5.265218E+11  8.602173E+06  1.176168E+09  1.168435E+05
       122  24  6.176185E+11  4.049583E+06  5.247863E+11  3.078356E+07  1.256061E+09  4.138477E+05
       122  25  6.129631E+11 -2.927749E+07  5.262263E+11  3.930326E+07  1.173300E+09  5.373100E+05
       122  26  6.172038E+11 -4.261981E+07  5.245530E+11 -7.167681E+07  1.253661E+09 -9.661264E+05
       122  27  6.215328E+11 -1.470569E+08  5.225731E+11 -4.763564E+07  1.338624E+09 -6.439838E+05
       123   1  6.151428E+11 -7.495899E+07  5.251308E+11  7.263692E+06 -1.217622E+09 -9.920366E+04
       123   2  6.194795E+11 -8.158473E+07  5.233205E+11 -1.155411E+08 -1.301158E+09  1.564530E+06
       123   3  6.241270E+11 -2.695829E+06  5.213048E+11  8.305148E+06 -1.390903E+09 -1.066036E+05
       123   4  6.193650E+11  8.724785E+07  5.232385E+11  1.042771E+08 -1.300665E+09 -1.413702E+06
       123   5  6.239606E+11  4.495143E+07  5.211812E+11 -1.735888E+07 -1.391114E+09  2.342314E+05
       123   6  6.288458E+11  6.688224E+07  5.188688E+11  1.076562E+08 -1.488086E+09 -1.452701E+06
       123   7  6.234009E+11  5.199230E+07  5.209229E+11 -3.156772E+07 -1.386252E+09  4.201904E+05
       123   8  6.282346E+11 -4.694768E+07  5.185697E+11 -1.520349E+08 -1.483926E+09  2.052325E+06
       123   9  6.333340E+11 -1.054181E+08  5.159060E+11 -2.585110E+07 -1.588475E+09  3.495924E+05
       123  10  6.151599E+11 -7.469338E+07  5.251147E+11  7.215937E+06  8.881784E-06  0.000000E+00
       123  11  6.194978E+11 -8.128344E+07  5.233032E+11 -1.152261E+08  1.150191E-03  2.664535E-05
       123  12  6.241465E+11 -2.392765E+06  5.212863E+11  8.984048E+06  1.398881E-04  7.771561E-06
       123  13  6.193826E+11  8.727069E+07  5.232209E+11  1.039126E+08 -5.684342E-04 -2.220446E-05
       123  14  6.239795E+11  4.499327E+07  5.211624E+11 -1.736030E+07  8.526513E-04 -8.881784E-06
       123  15  6.288660E+11  6.690775E+07  5.188487E+11  1.080189E+08  4.263256E-04  2.220446E-05
       123  16  6.234191E+11  5.175897E+07  5.209039E+11 -3.224895E+07 -5.684342E-04  8.881784E-06
       123  17  6.282541E+11 -4.718005E+07  5.185494E+11 -1.523528E+08  1.332268E-04  4.440892E-05
       123  18  6.333548E+11 -1.056864E+08  5.158842E+11 -2.580451E+07  1.387779E-04  4.496403E-05
       123  19  6.151428E+11 -7.495899E+07  5.251308E+11  7.263692E+06  1.217622E+09  9.920366E+04
       123  20  6.194795E+11 -8.158473E+07  5.233205E+11 -1.155411E+08  1.301158E+09 -1.564530E+06
       123  21  6.241270E+11 -2.695829E+06  5.213048E+11  8.305148E+06  1.390903E+09  1.066036E+05
       123  22  6.193650E+11  8.724785E+07  5.232385E+11  1.042771E+08  1.300665E+09  1.413702E+06
       123  23  6.239606E+11  4.495143E+07  5.211812E+11 -1.735888E+07  1.391114E+09 -2.342314E+05
       123  24  6.288458E+11  6.688224E+07  5.188688E+11  1.076562E+08  1.488086E+09  1.452701E+06
       123  25  6.234009E+11  5.199230E+07  5.209229E+11 -3.156772E+07  1.386252E+09 -4.201904E+05
       123  26  6.282346E+11 -4.694768E+07  5.185697E+11 -1.520349E+08  1.483926E+09 -2.052325E+06
       123  27  6.333340E+11 -1.054181E+08  5.159060E+11 -2.585110E+07  1.588475E+09 -3.495924E+05
       124   1  6.045352E+11 -1.844945E+08  5.286609E+11  6.021525E+07 -1.026375E+09 -8.151882E+05
       124   2  6.086082E+11 -1.362713E+08  5.274862E+11 -5.506946E+07 -1.097673E+09  7.463527E+05
       124   3  6.128225E+11  1.349244E+08  5.261698E+11 -4.238682E+07 -1.172156E+09  5.777525E+05
       124   4  6.085006E+11  1.224942E+08  5.274111E+11  3.911897E+07 -1.097189E+09 -5.324351E+05
       124   5  6.126307E+11  5.141765E+07  5.259744E+11 -3.074887E+06 -1.172838E+09  4.091216E+04
       124   6  6.168891E+11  1.903031E+08  5.243657E+11  8.271209E+07 -1.251876E+09 -1.116068E+06
       124   7  6.122320E+11  6.848281E+07  5.257427E+11 -9.822013E+07 -1.169945E+09  1.322003E+06
       124   8  6.164055E+11 -1.355945E+08  5.240121E+11 -6.733484E+07 -1.250155E+09  9.073109E+05
       124   9  6.206930E+11 -1.441734E+08  5.220756E+11  9.154500E+07 -1.333982E+09 -1.237898E+06
       124  10  6.045496E+11 -1.842604E+08  5.286472E+11  6.017851E+07  0.000000E+00 -4.440892E-06
       124  11  6.086236E+11 -1.360182E+08  5.274716E+11 -5.479838E+07  2.886580E-04  2.220446E-05
       124  12  6.128389E+11  1.351773E+08  5.261542E+11 -4.180345E+07  2.176037E-04 -9.436896E-06
       124  13  6.085155E+11  1.225100E+08  5.273963E+11  3.880478E+07  5.673240E-04 -2.220446E-05
       124  14  6.126466E+11  5.144420E+07  5.259586E+11 -3.077962E+06 -5.706546E-04  8.881784E-06
       124  15  6.169061E+11  1.903205E+08  5.243488E+11  8.302459E+07 -1.426621E-04  1.332268E-05
       124  16  6.122473E+11  6.826930E+07  5.257267E+11 -9.881178E+07  8.881784E-06 -3.552714E-05
       124  17  6.164219E+11 -1.358064E+08  5.239950E+11 -6.761207E+07 -2.797762E-04 -1.110223E-05
       124  18  6.207104E+11 -1.444042E+08  5.220574E+11  9.158664E+07 -2.087219E-04  7.494005E-06
       124  19  6.045352E+11 -1.844945E+08  5.286609E+11  6.021525E+07  1.026375E+09  8.151882E+05
       124  20  6.086082E+11 -1.362713E+08  5.274862E+11 -5.506946E+07  1.097673E+09 -7.463527E+05
       124  21  6.128225E+11  1.349244E+08  5.261698E+11 -4.238682E+07  1.172156E+09 -5.777525E+05
       124  22  6.085006E+11  1.224942E+08  5.274111E+11  3.911897E+07  1.097189E+09  5.324351E+05
       124  23  6.126307E+11  5.141765E+07  5.259744E+11 -3.074887E+06  1.172838E+09 -4.091216E+04
       124  24  6.168891E+11  1.903031E+08  5.243657E+11  8.271209E+07  1.251876E+09  1.116068E+06
       124  25  6.122320E+11  6.848281E+07  5.257427E+11 -9.822013E+07  1.169945E+09 -1.322003E+06
       124  26  6.164055E+11 -1.355945E+08  5.240121E+11 -6.733484E+07  1.250155E+09 -9.073109E+05
       124  27  6.206930E+11 -1.441734E+08  5.220756E+11  9.154500E+07  1.333982E+09  1.237898E+06
       125   1  6.053865E+11  1.441560E+10  5.468486E+11 -1.505510E+10 -7.910965E+08  2.035345E+08
       125   2  5.953666E+11  1.515537E+10  5.428468E+11 -5.954318E+09 -7.096865E+08  8.049904E+07
       125   3  5.825530E+11 -8.683915E+09  5.306745E+11  3.258376E+09 -7.014656E+08 -4.405432E+07
       125   4  5.860638E+11 -7.012980E+09  5.331129E+11 -4.458319E+09 -7.153107E+08  6.026937E+07
       125   5  5.853685E+11  1.885661E+08  5.339200E+11 -2.590845E+08 -6.956852E+08  3.501690E+06
       125   6  5.817929E+11 -1.727548E+10  5.263543E+11  4.052126E+09 -7.500511E+08 -5.478478E+07
       125   7  5.778133E+11 -2.701307E+09  5.305447E+11  2.113120E+09 -6.392087E+08 -2.857055E+07
       125   8  5.863705E+11  1.088960E+10  5.359927E+11  1.410896E+09 -6.820379E+08 -1.907169E+07
       125   9  5.919538E+11 -2.786140E+08  5.328489E+11  8.206406E+08 -7.997281E+08 -1.109151E+07
       125  10  6.053964E+11  1.441525E+10  5.468375E+11 -1.505673E+10  0.000000E+00 -1.332268E-05
       125  11  5.953765E+11  1.515552E+10  5.428374E+11 -5.954798E+09 -7.016610E-04  2.220446E-05
       125  12  5.825632E+11 -8.683628E+09  5.306653E+11  3.258624E+09  4.229950E-04 -6.161738E-05
       125  13  5.860737E+11 -7.012870E+09  5.331033E+11 -4.459057E+09 -1.110223E-06  3.552714E-05
       125  14  5.853786E+11  1.888749E+08  5.339109E+11 -2.590520E+08 -5.684342E-04 -5.773160E-05
       125  15  5.818033E+11 -1.727535E+10  5.263443E+11  4.052504E+09  4.258719E-04 -1.443290E-05
       125  16  5.778233E+11 -2.700720E+09  5.305366E+11  2.113274E+09 -2.753353E-04  1.332268E-05
       125  17  5.863809E+11  1.089007E+10  5.359840E+11  1.411440E+09  4.352074E-04  4.440892E-06
       125  18  5.919645E+11 -2.786444E+08  5.328381E+11  8.211502E+08 -7.549517E-05 -2.498002E-06
       125  19  6.053865E+11  1.441560E+10  5.468486E+11 -1.505510E+10  7.910965E+08 -2.035345E+08
       125  20  5.953666E+11  1.515537E+10  5.428468E+11 -5.954318E+09  7.096865E+08 -8.049904E+07
       125  21  5.825530E+11 -8.683915E+09  5.306745E+11  3.258376E+09  7.014656E+08  4.405432E+07
       125  22  5.860638E+11 -7.012980E+09  5.331129E+11 -4.458319E+09  7.153107E+08 -6.026937E+07
       125  23  5.853685E+11  1.885661E+08  5.339200E+11 -2.590845E+08  6.956852E+08 -3.501690E+06
       125  24  5.817929E+11 -1.727548E+10  5.263543E+11  4.052126E+09  7.500511E+08  5.478478E+07
       125  25  5.778133E+11 -2.701307E+09  5.305447E+11  2.113120E+09  6.392087E+08  2.857055E+07
       125  26  5.863705E+11  1.088960E+10  5.359927E+11  1.410896E+09  6.820379E+08  1.907169E+07
       125  27  5.919538E+11 -2.786140E+08  5.328489E+11  8.206406E+08  7.997281E+08  1.109151E+07
       126   1  5.883882E+11  8.318942E+08  5.345346E+11 -1.529944E+09 -7.285169E+08  2.068462E+07
       126   2  5.924153E+11  9.601551E+08  5.342808E+11 -2.481961E+08 -7.865753E+08  3.357392E+06
       126   3  5.962816E+11 -4.894849E+08  5.333616E+11  1.089899E+09 -8.510716E+08 -1.473199E+07
       126   4  5.927142E+11  2.794675E+08  5.340586E+11 -2.879578E+08 -7.937461E+08  3.890623E+06
       126   5  5.958614E+11  3.105728E+08  5.333565E+11 -6.285265E+07 -8.459668E+08  8.496401E+05
       126   6  5.988347E+11 -1.249226E+09  5.319587E+11  2.185854E+08 -9.047880E+08 -2.953303E+06
       126   7  5.975306E+11  1.008844E+09  5.339356E+11  1.439149E+09 -8.602987E+08 -1.946252E+07
       126   8  5.998010E+11  9.458291E+08  5.327923E+11  6.076118E+08 -9.067006E+08 -8.217260E+06
       126   9  6.018839E+11 -7.215674E+08  5.309219E+11 -1.676018E+08 -9.598742E+08  2.266172E+06
       126  10  5.883987E+11  8.321537E+08  5.345250E+11 -1.529977E+09  1.776357E-05 -1.776357E-05
       126  11  5.924265E+11  9.603938E+08  5.342704E+11 -2.479350E+08  1.136868E-03  4.440892E-05
       126  12  5.962935E+11 -4.893018E+08  5.333503E+11  1.090428E+09  1.343370E-04 -4.996004E-05
       126  13  5.927249E+11  2.794886E+08  5.340479E+11 -2.881740E+08 -1.110223E-06  4.440892E-06
       126  14  5.958729E+11  3.106109E+08  5.333451E+11 -6.279501E+07  5.639933E-04 -3.552714E-05
       126  15  5.988470E+11 -1.249208E+09  5.319465E+11  2.188904E+08 -4.984901E-04  2.220446E-05
       126  16  5.975417E+11  1.008616E+09  5.339238E+11  1.438749E+09  2.753353E-04  1.776357E-05
       126  17  5.998128E+11  9.456571E+08  5.327799E+11  6.074660E+08 -7.194245E-04 -4.440892E-06
       126  18  6.018965E+11 -7.217209E+08  5.309088E+11 -1.675208E+08  1.776357E-04  4.746203E-05
       126  19  5.883882E+11  8.318942E+08  5.345346E+11 -1.529944E+09  7.285169E+08 -2.068462E+07
       126  20  5.924153E+11  9.601551E+08  5.342808E+11 -2.481961E+08  7.865753E+08 -3.357392E+06
       126  21  5.962816E+11 -4.894849E+08  5.333616E+11  1.089899E+09  8.510716E+08  1.473199E+07
       126  22  5.927142E+11  2.794675E+08  5.340586E+11 -2.879578E+08  7.937461E+08 -3.890623E+06
       126  23  5.958614E+11  3.105728E+08  5.333565E+11 -6.285265E+07  8.459668E+08 -8.496401E+05
       126  24  5.988347E+11 -1.249226E+09  5.319587E+11  2.185854E+08  9.047880E+08  2.953303E+06
       126  25  5.975306E+11  1.008844E+09  5.339356E+11  1.439149E+09  8.602987E+08  1.946252E+07
       126  26  5.998010E+11  9.458291E+08  5.327923E+11  6.076118E+08  9.067006E+08  8.217260E+06
       126  27  6.018839E+11 -7.215674E+08  5.309219E+11 -1.676018E+08  9.598742E+08 -2.266172E+06
       127   1  5.969604E+11 -7.382763E+08  5.321263E+11  6.134412E+08 -8.770028E+08 -8.295200E+06
       127   2  6.003694E+11 -4.963391E+08  5.313238E+11  1.939763E+08 -9.342583E+08 -2.621215E+06
       127   3  6.040265E+11  9.117540E+07  5.304978E+11 -6.221339E+07 -9.946278E+08  8.452470E+05
       127   4  5.998735E+11 -3.470720E+08  5.310924E+11  3.543806E+08 -9.305807E+08 -4.794667E+06
       127   5  6.037242E+11 -1.884471E+08  5.302102E+11  1.834751E+08 -9.949374E+08 -2.481344E+06
       127   6  6.078124E+11  3.053619E+08  5.292804E+11  1.758449E+08 -1.062565E+09 -2.375545E+06
       127   7  6.026371E+11 -1.718649E+08  5.297758E+11 -2.368952E+08 -9.855771E+08  3.197625E+06
       127   8  6.069145E+11 -1.113838E+08  5.287794E+11 -1.592413E+08 -1.057232E+09  2.150286E+06
       127   9  6.114178E+11  2.726074E+08  5.277080E+11  8.168798E+07 -1.132333E+09 -1.104577E+06
       127  10  5.969727E+11 -7.381036E+08  5.321147E+11  6.134015E+08 -2.753353E-04 -8.881784E-06
       127  11  6.003826E+11 -4.961303E+08  5.313114E+11  1.942143E+08  3.019807E-04  5.329071E-05
       127  12  6.040404E+11  9.140095E+07  5.304846E+11 -6.169193E+07 -1.254552E-04 -2.886580E-05
       127  13  5.998862E+11 -3.470590E+08  5.310799E+11  3.541003E+08 -5.684342E-04 -2.220446E-05
       127  14  6.037377E+11 -1.884229E+08  5.301968E+11  1.834744E+08  0.000000E+00 -1.332268E-05
       127  15  6.078268E+11  3.053776E+08  5.292660E+11  1.761293E+08 -3.552714E-04  3.108624E-05
       127  16  6.026500E+11 -1.720193E+08  5.297623E+11 -2.374160E+08 -8.881784E-06  1.776357E-05
       127  17  6.069284E+11 -1.115532E+08  5.287649E+11 -1.594807E+08  5.728751E-04  3.108624E-05
       127  18  6.114326E+11  2.724025E+08  5.276925E+11  8.173533E+07  4.607426E-04 -4.052314E-05
       127  19  5.969604E+11 -7.382763E+08  5.321263E+11  6.134412E+08  8.770028E+08  8.295200E+06
       127  20  6.003694E+11 -4.963391E+08  5.313238E+11  1.939763E+08  9.342583E+08  2.621215E+06
       127  21  6.040265E+11  9.117540E+07  5.304978E+11 -6.221339E+07  9.946278E+08 -8.452470E+05
       127  22  5.998735E+11 -3.470720E+08  5.310924E+11  3.543806E+08  9.305807E+08  4.794667E+06
       127  23  6.037242E+11 -1.884471E+08  5.302102E+11  1.834751E+08  9.949374E+08  2.481344E+06
       127  24  6.078124E+11  3.053619E+08  5.292804E+11  1.758449E+08  1.062565E+09  2.375545E+06
       127  25  6.026371E+11 -1.718649E+08  5.297758E+11 -2.368952E+08  9.855771E+08 -3.197625E+06
       127  26  6.069145E+11 -1.113838E+08  5.287794E+11 -1.592413E+08  1.057232E+09 -2.150286E+06
       127  27  6.114178E+11  2.726074E+08  5.277080E+11  8.168798E+07  1.132333E+09  1.104577E+06
       128   1  5.799414E+11 -2.019228E+09  5.306116E+11  3.036147E+09 -6.676893E+08 -4.105195E+07
       128   2  5.898774E+11 -3.789504E+06  5.328876E+11  1.743980E+09 -7.718619E+08 -2.357762E+07
       128   3  5.954998E+11  2.393002E+08  5.330295E+11 -1.640677E+09 -8.452970E+08  2.218854E+07
       128   4  5.867565E+11 -8.008171E+08  5.315275E+11  7.831290E+08 -7.477110E+08 -1.059287E+07
       128   5  5.947528E+11  4.711212E+08  5.327537E+11  7.383067E+08 -8.396000E+08 -9.983362E+06
       128   6  5.984667E+11  2.145733E+06  5.319191E+11 -1.399016E+09 -9.005220E+08  1.891811E+07
       128   7  5.932694E+11 -1.271941E+08  5.319809E+11 -5.204723E+08 -8.291829E+08  7.029489E+06
       128   8  5.993353E+11  4.106724E+08  5.321792E+11  6.820627E+08 -9.087585E+08 -9.225998E+06
       128   9  6.011522E+11 -7.589767E+08  5.303948E+11 -2.079204E+08 -9.571259E+08  2.810725E+06
       128  10  5.799510E+11 -2.018945E+09  5.306028E+11  3.036096E+09  2.930989E-04 -8.881784E-06
       128  11  5.898882E+11 -3.650812E+06  5.328773E+11  1.744302E+09 -2.930989E-04 -2.442491E-05
       128  12  5.955115E+11  2.394341E+08  5.330182E+11 -1.639979E+09  5.440093E-05  3.164136E-05
       128  13  5.867665E+11 -8.008542E+08  5.315174E+11  7.827276E+08  5.684342E-04  1.332268E-05
       128  14  5.947638E+11  4.710082E+08  5.327422E+11  7.382844E+08 -5.684342E-04 -1.776357E-05
       128  15  5.984788E+11  2.103738E+06  5.319069E+11 -1.398656E+09  7.020737E-05  1.554312E-05
       128  16  5.932798E+11 -1.275664E+08  5.319693E+11 -5.212239E+08  5.861978E-04  0.000000E+00
       128  17  5.993467E+11  4.102959E+08  5.321665E+11  6.816965E+08 -5.551115E-04 -3.996803E-05
       128  18  6.011646E+11 -7.592031E+08  5.303817E+11 -2.078980E+08  1.054712E-04  2.026157E-05
       128  19  5.799414E+11 -2.019228E+09  5.306116E+11  3.036147E+09  6.676893E+08  4.105195E+07
       128  20  5.898774E+11 -3.789504E+06  5.328876E+11  1.743980E+09  7.718619E+08  2.357762E+07
       128  21  5.954998E+11  2.393002E+08  5.330295E+11 -1.640677E+09  8.452970E+08 -2.218854E+07
       128  22  5.867565E+11 -8.008171E+08  5.315275E+11  7.831290E+08  7.477110E+08  1.059287E+07
       128  23  5.947528E+11  4.711212E+08  5.327537E+11  7.383067E+08  8.396000E+08  9.983362E+06
       128  24  5.984667E+11  2.145733E+06  5.319191E+11 -1.399016E+09  9.005220E+08 -1.891811E+07
       128  25  5.932694E+11 -1.271941E+08  5.319809E+11 -5.204723E+08  8.291829E+08 -7.029489E+06
       128  26  5.993353E+11  4.106724E+08  5.321792E+11  6.820627E+08  9.087585E+08  9.225998E+06
       128  27  6.011522E+11 -7.589767E+08  5.303948E+11 -2.079204E+08  9.571259E+08 -2.810725E+06
       129   1  4.357919E+11  1.672190E+11  5.397960E+11  8.231592E+08  1.405483E+09 -1.112977E+07
       129   2  4.697972E+11  1.371333E+11  5.421533E+11  1.875478E+10  9.766754E+08 -2.535500E+08
       129   3  4.900848E+11  9.081551E+10  5.353011E+11  3.075572E+10  6.100880E+08 -4.157871E+08
       129   4  4.679781E+11  1.322173E+11  5.399834E+11 -1.521047E+10  9.720202E+08  2.056318E+08
       129   5  5.047157E+11  1.112695E+11  5.455943E+11  5.697853E+09  5.498488E+08 -7.703664E+07
       129   6  5.287990E+11  7.438718E+10  5.423752E+11  2.110717E+10  1.807789E+08 -2.853582E+08
       129   7  4.924290E+11  8.950433E+10  5.352772E+11 -2.776099E+10  5.784122E+08  3.753050E+08
       129   8  5.329657E+11  7.697885E+10  5.441135E+11 -3.907363E+09  1.487422E+08  5.281324E+07
       129   9  5.615518E+11  4.874984E+10  5.443640E+11  1.475745E+10 -2.338918E+08 -1.995253E+08
       129  10  4.357768E+11  1.672206E+11  5.398167E+11  8.232299E+08  2.842171E-04 -8.881784E-06
       129  11  4.697872E+11  1.371347E+11  5.421679E+11  1.875762E+10  2.753353E-04  8.881784E-06
       129  12  4.900795E+11  9.081677E+10  5.353107E+11  3.076099E+10 -9.880985E-05  5.551115E-06
       129  13  4.679670E+11  1.322182E+11  5.399975E+11 -1.521279E+10 -1.332268E-05  3.108624E-05
       129  14  5.047089E+11  1.112698E+11  5.456020E+11  5.698109E+09  1.423306E-03  2.664535E-05
       129  15  5.287962E+11  7.438706E+10  5.423776E+11  2.110972E+10 -1.421085E-04 -8.881784E-06
       129  16  4.924209E+11  8.950420E+10  5.352849E+11 -2.776513E+10 -8.526513E-04 -4.440892E-05
       129  17  5.329613E+11  7.697785E+10  5.441145E+11 -3.909049E+09 -4.440892E-04  1.332268E-05
       129  18  5.615510E+11  4.874814E+10  5.443592E+11  1.475796E+10 -6.106227E-04  4.718448E-06
       129  19  4.357919E+11  1.672190E+11  5.397960E+11  8.231592E+08 -1.405483E+09  1.112977E+07
       129  20  4.697972E+11  1.371333E+11  5.421533E+11  1.875478E+10 -9.766754E+08  2.535500E+08
       129  21  4.900848E+11  9.081551E+10  5.353011E+11  3.075572E+10 -6.100880E+08  4.157871E+08
       129  22  4.679781E+11  1.322173E+11  5.399834E+11 -1.521047E+10 -9.720202E+08 -2.056318E+08
       129  23  5.047157E+11  1.112695E+11  5.455943E+11  5.697853E+09 -5.498488E+08  7.703664E+07
       129  24  5.287990E+11  7.438718E+10  5.423752E+11  2.110717E+10 -1.807789E+08  2.853582E+08
       129  25  4.924290E+11  8.950433E+10  5.352772E+11 -2.776099E+10 -5.784122E+08 -3.753050E+08
       129  26  5.329657E+11  7.697885E+10  5.441135E+11 -3.907363E+09 -1.487422E+08 -5.281324E+07
       129  27  5.615518E+11  4.874984E+10  5.443640E+11  1.475745E+10  2.338918E+08  1.995253E+08
       130   1  5.168813E+11  9.098808E+10  5.439445E+11  5.721847E+10  3.639427E+08 -7.735939E+08
       130   2  5.845193E+11  7.756563E+10  5.608699E+11  5.833647E+10 -3.231030E+08 -7.886896E+08
       130   3  5.995289E+11  1.452856E+10  5.464330E+11  3.665615E+10 -7.189774E+08 -4.955447E+08
       130   4  5.501835E+11  5.103144E+10  5.419637E+11  2.132249E+10 -1.140513E+08 -2.882829E+08
       130   5  5.865692E+11  4.054060E+10  5.496010E+11  2.152732E+10 -5.026806E+08 -2.910384E+08
       130   6  5.840491E+11 -7.319742E+09  5.338882E+11  4.483565E+09 -6.785588E+08 -6.058733E+07
       130   7  5.798045E+11  3.093310E+10  5.443372E+11  9.054757E+09 -4.808282E+08 -1.224364E+08
       130   8  5.896369E+11  1.810644E+10  5.427948E+11  6.107663E+09 -6.346629E+08 -8.258112E+07
       130   9  5.704418E+11 -2.289200E+10  5.238563E+11 -9.946339E+09 -6.300952E+08  1.344840E+08
       130  10  5.168807E+11  9.098993E+10  5.439513E+11  5.722214E+10  8.881784E-06 -2.664535E-05
       130  11  5.845236E+11  7.756559E+10  5.608655E+11  5.834227E+10  1.376677E-04  8.881784E-06
       130  12  5.995372E+11  1.452794E+10  5.464227E+11  3.666344E+10 -1.687539E-04 -6.661338E-06
       130  13  5.501850E+11  5.103147E+10  5.419622E+11  2.132345E+10 -5.662137E-04  4.440892E-05
       130  14  5.865745E+11  4.053998E+10  5.495936E+11  2.152979E+10  5.739853E-04 -2.664535E-05
       130  15  5.840576E+11 -7.320031E+09  5.338788E+11  4.487080E+09 -5.682954E-04  7.993606E-05
       130  16  5.798077E+11  3.093166E+10  5.443293E+11  9.053526E+09 -8.881784E-06  3.552714E-05
       130  17  5.896430E+11  1.810539E+10  5.427852E+11  6.107452E+09  2.797762E-04 -6.217249E-05
       130  18  5.704505E+11 -2.289194E+10  5.238479E+11 -9.945882E+09  2.486900E-04 -9.992007E-06
       130  19  5.168813E+11  9.098808E+10  5.439445E+11  5.721847E+10 -3.639427E+08  7.735939E+08
       130  20  5.845193E+11  7.756563E+10  5.608699E+11  5.833647E+10  3.231030E+08  7.886896E+08
       130  21  5.995289E+11  1.452856E+10  5.464330E+11  3.665615E+10  7.189774E+08  4.955447E+08
       130  22  5.501835E+11  5.103144E+10  5.419637E+11  2.132249E+10  1.140513E+08  2.882829E+08
       130  23  5.865692E+11  4.054060E+10  5.496010E+11  2.152732E+10  5.026806E+08  2.910384E+08
       130  24  5.840491E+11 -7.319742E+09  5.338882E+11  4.483565E+09  6.785588E+08  6.058733E+07
       130  25  5.798045E+11  3.093310E+10  5.443372E+11  9.054757E+09  4.808282E+08  1.224364E+08
       130  26  5.896369E+11  1.810644E+10  5.427948E+11  6.107663E+09  6.346629E+08  8.258112E+07
       130  27  5.704418E+11 -2.289200E+10  5.238563E+11 -9.946339E+09  6.300952E+08 -1.344840E+08
       131   1  5.782996E+11  3.294944E+09  5.350974E+11  2.256147E+09 -5.845737E+08 -3.050433E+07
       131   2  5.847388E+11 -4.125151E+08  5.350956E+11  3.595099E+08 -6.719844E+08 -4.859893E+06
       131   3  5.882595E+11 -2.661173E+09  5.344950E+11 -3.024324E+09 -7.273407E+08  4.089291E+07
       131   4  5.842730E+11  1.548444E+09  5.353951E+11 -5.050869E+08 -6.615285E+08  6.825382E+06
       131   5  5.898226E+11  1.559970E+09  5.359635E+11 -6.287731E+08 -7.290809E+08  8.499727E+06
       131   6  5.928284E+11  2.426549E+09  5.358757E+11 -2.073444E+09 -7.705542E+08  2.803497E+07
       131   7  5.861699E+11 -8.012565E+09  5.319973E+11 -1.491143E+09 -7.328344E+08  2.015434E+07
       131   8  5.912854E+11 -4.124559E+09  5.333233E+11 -1.811278E+08 -7.842496E+08  2.445291E+06
       131   9  5.941435E+11  1.310388E+08  5.339422E+11 -4.907061E+07 -8.142908E+08  6.632030E+05
       131  10  5.783083E+11  3.295269E+09  5.350899E+11  2.256239E+09  0.000000E+00  1.776357E-05
       131  11  5.847482E+11 -4.123731E+08  5.350867E+11  3.597124E+08 -5.684342E-04 -8.881784E-06
       131  12  5.882696E+11 -2.661068E+09  5.344852E+11 -3.023968E+09 -2.020606E-04 -4.107825E-05
       131  13  5.842820E+11  1.548488E+09  5.353862E+11 -5.053843E+08  1.134648E-03  4.440892E-06
       131  14  5.898324E+11  1.559920E+09  5.359536E+11 -6.288487E+08  1.135203E-03 -6.217249E-05
       131  15  5.928388E+11  2.426525E+09  5.358653E+11 -2.073268E+09  7.108203E-04 -8.437695E-05
       131  16  5.861793E+11 -8.012789E+09  5.319871E+11 -1.491754E+09 -8.881784E-06  2.664535E-05
       131  17  5.912955E+11 -4.124801E+09  5.333125E+11 -1.814175E+08 -4.263256E-04  6.217249E-05
       131  18  5.941541E+11  1.308792E+08  5.339311E+11 -4.901950E+07  7.549517E-05  2.581269E-05
       131  19  5.782996E+11  3.294944E+09  5.350974E+11  2.256147E+09  5.845737E+08  3.050433E+07
       131  20  5.847388E+11 -4.125151E+08  5.350956E+11  3.595099E+08  6.719844E+08  4.859893E+06
       131  21  5.882595E+11 -2.661173E+09  5.344950E+11 -3.024324E+09  7.273407E+08 -4.089291E+07
       131  22  5.842730E+11  1.548444E+09  5.353951E+11 -5.050869E+08  6.615285E+08 -6.825382E+06
       131  23  5.898226E+11  1.559970E+09  5.359635E+11 -6.287731E+08  7.290809E+08 -8.499727E+06
       131  24  5.928284E+11  2.426549E+09  5.358757E+11 -2.073444E+09  7.705542E+08 -2.803497E+07
       131  25  5.861699E+11 -8.012565E+09  5.319973E+11 -1.491143E+09  7.328344E+08 -2.015434E+07
       131  26  5.912854E+11 -4.124559E+09  5.333233E+11 -1.811278E+08  7.842496E+08 -2.445291E+06
       131  27  5.941435E+11  1.310388E+08  5.339422E+11 -4.907061E+07  8.142908E+08 -6.632030E+05
       132   1  5.000909E+11  9.170858E+10  5.386774E+11 -4.304809E+10  5.202352E+08  5.820125E+08
       132   2  5.497920E+11  7.383554E+10  5.482608E+11 -1.180698E+10 -2.252374E+07  1.596357E+08
       132   3  5.717629E+11  2.753761E+10  5.407354E+11  6.892561E+09 -4.203065E+08 -9.317528E+07
       132   4  5.520810E+11  6.248672E+10  5.460263E+11 -4.253765E+10 -8.483321E+07  5.750961E+08
       132   5  5.792984E+11  5.278928E+10  5.506100E+11 -1.662385E+10 -3.901163E+08  2.247483E+08
       132   6  5.840766E+11  1.818392E+10  5.408724E+11 -8.810073E+08 -5.851244E+08  1.191459E+07
       132   7  5.847470E+11  1.921799E+10  5.427179E+11 -3.305407E+10 -5.693323E+08  4.468600E+08
       132   8  5.937237E+11  1.746538E+10  5.437263E+11 -1.217971E+10 -6.764551E+08  1.646491E+08
       132   9  5.843456E+11 -6.377847E+09  5.326355E+11  3.921588E+08 -6.993970E+08 -5.310075E+06
       132  10  5.000886E+11  9.171060E+10  5.386865E+11 -4.305046E+10 -1.776357E-05  0.000000E+00
       132  11  5.497939E+11  7.383622E+10  5.482612E+11 -1.180702E+10 -4.307665E-04  3.108624E-05
       132  12  5.717685E+11  2.753761E+10  5.407297E+11  6.894482E+09  2.220446E-04  1.776357E-05
       132  13  5.520815E+11  6.248645E+10  5.460249E+11 -4.254152E+10 -5.528911E-04  1.776357E-05
       132  14  5.793023E+11  5.278870E+10  5.506041E+11 -1.662539E+10  5.639933E-04 -8.881784E-06
       132  15  5.840836E+11  1.818354E+10  5.408641E+11 -8.805440E+08  2.853273E-04  1.554312E-05
       132  16  5.847497E+11  1.921582E+10  5.427081E+11 -3.305914E+10  5.773160E-04  1.776357E-05
       132  17  5.937291E+11  1.746379E+10  5.437156E+11 -1.218243E+10 -1.421085E-04 -2.664535E-05
       132  18  5.843537E+11 -6.378450E+09  5.326254E+11  3.914878E+08 -1.532108E-04  7.771561E-06
       132  19  5.000909E+11  9.170858E+10  5.386774E+11 -4.304809E+10 -5.202352E+08 -5.820125E+08
       132  20  5.497920E+11  7.383554E+10  5.482608E+11 -1.180698E+10  2.252374E+07 -1.596357E+08
       132  21  5.717629E+11  2.753761E+10  5.407354E+11  6.892561E+09  4.203065E+08  9.317528E+07
       132  22  5.520810E+11  6.248672E+10  5.460263E+11 -4.253765E+10  8.483321E+07 -5.750961E+08
       132  23  5.792984E+11  5.278928E+10  5.506100E+11 -1.662385E+10  3.901163E+08 -2.247483E+08
       132  24  5.840766E+11  1.818392E+10  5.408724E+11 -8.810073E+08  5.851244E+08 -1.191459E+07
       132  25  5.847470E+11  1.921799E+10  5.427179E+11 -3.305407E+10  5.693323E+08 -4.468600E+08
       132  26  5.937237E+11  1.746538E+10  5.437263E+11 -1.217971E+10  6.764551E+08 -1.646491E+08
       132  27  5.843456E+11 -6.377847E+09  5.326355E+11  3.921588E+08  6.993970E+08  5.310075E+06
       133   1  4.998651E+11  1.788072E+11  4.774961E+11 -2.428431E+11 -3.117286E+08  3.283253E+09
       133   2  4.362470E+11  8.200366E+10  4.364124E+11 -1.467121E+11 -1.420647E+07  1.983535E+09
       133   3  4.492752E+11  4.060518E+10  4.319819E+11 -7.998578E+10 -2.410914E+08  1.081371E+09
       133   4  5.686289E+11  1.692336E+11  5.027202E+11 -1.709440E+11 -9.045726E+08  2.311140E+09
       133   5  4.863631E+11  8.729268E+10  4.576381E+11 -9.299031E+10 -4.047172E+08  1.257197E+09
       133   6  4.918319E+11  6.617596E+10  4.550572E+11 -4.519700E+10 -5.052083E+08  6.110234E+08
       133   7  5.963251E+11  1.450182E+11  5.089243E+11 -1.014916E+11 -1.187672E+09  1.372114E+09
       133   8  4.980521E+11  8.149630E+10  4.623478E+11 -4.290611E+10 -4.906752E+08  5.800484E+08
       133   9  4.999381E+11  8.432777E+10  4.645767E+11 -1.508232E+10 -4.818792E+08  2.038798E+08
       133  10  4.998745E+11  1.788095E+11  4.774943E+11 -2.428591E+11 -1.421085E-04 -8.881784E-06
       133  11  4.362423E+11  8.200166E+10  4.364105E+11 -1.467243E+11  8.881784E-06  3.996803E-05
       133  12  4.492596E+11  4.059713E+10  4.319707E+11 -7.999558E+10  2.664535E-05 -1.831868E-05
       133  13  5.686540E+11  1.692392E+11  5.027137E+11 -1.709589E+11  5.639933E-04 -2.220446E-06
       133  14  4.863708E+11  8.729372E+10  4.576339E+11 -9.300073E+10 -4.440892E-06  3.552714E-05
       133  15  4.918266E+11  6.617077E+10  4.550453E+11 -4.520470E+10  2.842171E-04  2.220446E-05
       133  16  5.963687E+11  1.450300E+11  5.089202E+11 -1.015047E+11 -2.664535E-05 -3.552714E-05
       133  17  4.980740E+11  8.150287E+10  4.623479E+11 -4.291406E+10  8.881784E-06  2.220446E-05
       133  18  4.999442E+11  8.432760E+10  4.645701E+11 -1.508720E+10 -2.289141E-04  1.998401E-05
       133  19  4.998651E+11  1.788072E+11  4.774961E+11 -2.428431E+11  3.117286E+08 -3.283253E+09
       133  20  4.362470E+11  8.200366E+10  4.364124E+11 -1.467121E+11  1.420647E+07 -1.983535E+09
       133  21  4.492752E+11  4.060518E+10  4.319819E+11 -7.998578E+10  2.410914E+08 -1.081371E+09
       133  22  5.686289E+11  1.692336E+11  5.027202E+11 -1.709440E+11  9.045726E+08 -2.311140E+09
       133  23  4.863631E+11  8.729268E+10  4.576381E+11 -9.299031E+10  4.047172E+08 -1.257197E+09
       133  24  4.918319E+11  6.617596E+10  4.550572E+11 -4.519700E+10  5.052083E+08 -6.110234E+08
       133  25  5.963251E+11  1.450182E+11  5.089243E+11 -1.014916E+11  1.187672E+09 -1.372114E+09
       133  26  4.980521E+11  8.149630E+10  4.623478E+11 -4.290611E+10  4.906752E+08 -5.800484E+08
       133  27  4.999381E+11  8.432777E+10  4.645767E+11 -1.508232E+10  4.818792E+08 -2.038798E+08
       134   1  4.152436E+11  3.347074E+10  4.209764E+11 -5.902158E+10  7.453857E+07  7.979818E+08
       134   2  3.951386E+11  1.448025E+10  4.112427E+11 -3.080571E+10  2.120921E+08  4.164989E+08
       134   3  3.812668E+11 -2.620165E+09  4.030571E+11 -4.833452E+09  2.911793E+08  6.534842E+07
       134   4  4.519703E+11  5.747434E+10  4.410451E+11 -3.191444E+10 -1.526149E+08  4.314877E+08
       134   5  4.198752E+11  3.416152E+10  4.250860E+11 -3.871397E+09  6.279230E+07  5.234102E+07
       134   6  3.963853E+11  1.363899E+10  4.116856E+11  2.170098E+10  2.009388E+08 -2.934034E+08
       134   7  4.970617E+11  8.513513E+10  4.639019E+11 -2.581126E+09 -4.510853E+08  3.489690E+07
       134   8  4.500514E+11  5.604650E+10  4.403196E+11  2.476809E+10 -1.365790E+08 -3.348697E+08
       134   9  4.148706E+11  3.103154E+10  4.206865E+11  4.948501E+10  7.550995E+07 -6.690487E+08
       134  10  4.152436E+11  3.347118E+10  4.209779E+11 -5.902477E+10  4.263256E-04  0.000000E+00
       134  11  3.951327E+11  1.447897E+10  4.112444E+11 -3.080732E+10 -8.526513E-04 -2.664535E-05
       134  12  3.812558E+11 -2.623161E+09  4.030581E+11 -4.833778E+09 -1.387779E-04 -3.191891E-06
       134  13  4.519772E+11  5.747645E+10  4.410453E+11 -3.191628E+10  4.440892E-06 -2.442491E-05
       134  14  4.198753E+11  3.416194E+10  4.250874E+11 -3.871705E+09  5.706546E-04 -1.065814E-04
       134  15  3.963796E+11  1.363774E+10  4.116871E+11  2.170190E+10 -2.153833E-04 -8.881784E-06
       134  16  4.970767E+11  8.513896E+10  4.638997E+11 -2.581331E+09  0.000000E+00  0.000000E+00
       134  17  4.500582E+11  5.604866E+10  4.403200E+11  2.476933E+10 -2.997602E-04  0.000000E+00
       134  18  4.148707E+11  3.103205E+10  4.206881E+11  4.948738E+10 -2.486900E-04  6.661338E-06
       134  19  4.152436E+11  3.347074E+10  4.209764E+11 -5.902158E+10 -7.453857E+07 -7.979818E+08
       134  20  3.951386E+11  1.448025E+10  4.112427E+11 -3.080571E+10 -2.120921E+08 -4.164989E+08
       134  21  3.812668E+11 -2.620165E+09  4.030571E+11 -4.833452E+09 -2.911793E+08 -6.534842E+07
       134  22  4.519703E+11  5.747434E+10  4.410451E+11 -3.191444E+10  1.526149E+08 -4.314877E+08
       134  23  4.198752E+11  3.416152E+10  4.250860E+11 -3.871397E+09 -6.279230E+07 -5.234102E+07
       134  24  3.963853E+11  1.363899E+10  4.116856E+11  2.170098E+10 -2.009388E+08  2.934034E+08
       134  25  4.970617E+11  8.513513E+10  4.639019E+11 -2.581126E+09  4.510853E+08 -3.489690E+07
       134  26  4.500514E+11  5.604650E+10  4.403196E+11  2.476809E+10  1.365790E+08  3.348697E+08
       134  27  4.148706E+11  3.103154E+10  4.206865E+11  4.948501E+10 -7.550995E+07  6.690487E+08
       135   1  4.951052E+11  8.347974E+10  4.630379E+11  7.820166E+09 -4.371238E+08 -1.056958E+08
       135   2  4.971786E+11  6.815592E+10  4.577220E+11  3.655589E+10 -5.419524E+08 -4.941949E+08
       135   3  4.501299E+11  3.993500E+10  4.326809E+11  7.181691E+10 -2.437041E+08 -9.709291E+08
       135   4  4.865190E+11  7.874116E+10  4.586690E+11  2.694094E+10 -3.842344E+08 -3.641942E+08
       135   5  4.906456E+11  8.940432E+10  4.604354E+11  8.090727E+10 -4.266929E+08 -1.093833E+09
       135   6  4.432707E+11  8.298123E+10  4.394826E+11  1.393737E+11 -6.920041E+07 -1.884323E+09
       135   7  5.699327E+11  1.338513E+11  4.989362E+11  7.432149E+10 -9.668490E+08 -1.004767E+09
       135   8  5.600692E+11  1.611391E+11  4.990461E+11  1.507657E+11 -8.420046E+08 -2.038329E+09
       135   9  4.994826E+11  1.685248E+11  4.748334E+11  2.299670E+11 -3.442738E+08 -3.109175E+09
       135  10  4.951117E+11  8.348002E+10  4.630324E+11  7.824421E+09  0.000000E+00  3.552714E-05
       135  11  4.971724E+11  6.815017E+10  4.577090E+11  3.656300E+10 -2.975398E-04 -6.661338E-06
       135  12  4.501127E+11  3.992628E+10  4.326690E+11  7.182597E+10 -1.376677E-04 -6.106227E-06
       135  13  4.865411E+11  7.874845E+10  4.586712E+11  2.694830E+10  2.220446E-06 -4.440892E-06
       135  14  4.906524E+11  8.940487E+10  4.604304E+11  8.091697E+10 -2.842171E-04 -2.220446E-06
       135  15  4.432647E+11  8.297835E+10  4.394791E+11  1.393849E+11 -1.354472E-04  2.220446E-05
       135  16  5.699746E+11  1.338637E+11  4.989356E+11  7.433353E+10 -1.687539E-04  2.220446E-05
       135  17  5.600920E+11  1.611441E+11  4.990399E+11  1.507793E+11 -2.176037E-04 -1.554312E-05
       135  18  4.994897E+11  1.685259E+11  4.748300E+11  2.299813E+11 -1.623701E-05  6.661338E-06
       135  19  4.951052E+11  8.347974E+10  4.630379E+11  7.820166E+09  4.371238E+08  1.056958E+08
       135  20  4.971786E+11  6.815592E+10  4.577220E+11  3.655589E+10  5.419524E+08  4.941949E+08
       135  21  4.501299E+11  3.993500E+10  4.326809E+11  7.181691E+10  2.437041E+08  9.709291E+08
       135  22  4.865190E+11  7.874116E+10  4.586690E+11  2.694094E+10  3.842344E+08  3.641942E+08
       135  23  4.906456E+11  8.940432E+10  4.604354E+11  8.090727E+10  4.266929E+08  1.093833E+09
       135  24  4.432707E+11  8.298123E+10  4.394826E+11  1.393737E+11  6.920041E+07  1.884323E+09
       135  25  5.699327E+11  1.338513E+11  4.989362E+11  7.432149E+10  9.668490E+08  1.004767E+09
       135  26  5.600692E+11  1.611391E+11  4.990461E+11  1.507657E+11  8.420046E+08  2.038329E+09
       135  27  4.994826E+11  1.685248E+11  4.748334E+11  2.299670E+11  3.442738E+08  3.109175E+09
       136   1  5.619018E+11  1.346640E+11  4.973493E+11 -7.032336E+10 -8.760979E+08  9.507810E+08
       136   2  5.227701E+11  1.139458E+11  4.805328E+11 -3.439097E+10 -5.765270E+08  4.649702E+08
       136   3  4.957933E+11  1.018439E+11  4.690436E+11 -2.462779E+09 -3.644927E+08  3.329288E+07
       136   4  5.699615E+11  1.320822E+11  5.010902E+11 -4.032906E+10 -9.369345E+08  5.452490E+08
       136   5  5.426392E+11  1.207483E+11  4.896692E+11 -6.872831E+09 -7.237998E+08  9.291812E+07
       136   6  5.256335E+11  1.168700E+11  4.826335E+11  2.300657E+10 -5.859493E+08 -3.110582E+08
       136   7  5.589560E+11  1.224616E+11  4.960478E+11 -1.167943E+10 -8.538775E+08  1.579028E+08
       136   8  5.504140E+11  1.239577E+11  4.932933E+11  1.952350E+10 -7.779344E+08 -2.639621E+08
       136   9  5.477841E+11  1.304419E+11  4.928303E+11  4.760500E+10 -7.459073E+08 -6.436305E+08
       136  10  5.619121E+11  1.346634E+11  4.973369E+11 -7.032724E+10  0.000000E+00 -1.776357E-05
       136  11  5.227716E+11  1.139431E+11  4.805224E+11 -3.439293E+10 -1.421085E-04 -2.220446E-05
       136  12  4.957882E+11  1.018396E+11  4.690344E+11 -2.463406E+09  1.243450E-04 -1.373901E-05
       136  13  5.699815E+11  1.320854E+11  5.010808E+11 -4.033179E+10 -5.728751E-04 -2.220446E-06
       136  14  5.426481E+11  1.207480E+11  4.896592E+11 -6.873585E+09 -2.842171E-04 -5.329071E-05
       136  15  5.256343E+11  1.168670E+11  4.826226E+11  2.300713E+10 -4.307665E-04 -1.776357E-05
       136  16  5.589886E+11  1.224706E+11  4.960453E+11 -1.168050E+10  1.065814E-04  0.000000E+00
       136  17  5.504319E+11  1.239610E+11  4.932861E+11  1.952438E+10 -2.842171E-04  3.108624E-05
       136  18  5.477920E+11  1.304409E+11  4.928194E+11  4.760710E+10 -1.831868E-05 -2.886580E-05
       136  19  5.619018E+11  1.346640E+11  4.973493E+11 -7.032336E+10  8.760979E+08 -9.507810E+08
       136  20  5.227701E+11  1.139458E+11  4.805328E+11 -3.439097E+10  5.765270E+08 -4.649702E+08
       136  21  4.957933E+11  1.018439E+11  4.690436E+11 -2.462779E+09  3.644927E+08 -3.329288E+07
       136  22  5.699615E+11  1.320822E+11  5.010902E+11 -4.032906E+10  9.369345E+08 -5.452490E+08
       136  23  5.426392E+11  1.207483E+11  4.896692E+11 -6.872831E+09  7.237998E+08 -9.291812E+07
       136  24  5.256335E+11  1.168700E+11  4.826335E+11  2.300657E+10  5.859493E+08  3.110582E+08
       136  25  5.589560E+11  1.224616E+11  4.960478E+11 -1.167943E+10  8.538775E+08 -1.579028E+08
       136  26  5.504140E+11  1.239577E+11  4.932933E+11  1.952350E+10  7.779344E+08  2.639621E+08
       136  27  5.477841E+11  1.304419E+11  4.928303E+11  4.760500E+10  7.459073E+08  6.436305E+08
       137   1 -1.971849E+10  1.399475E+10  2.663483E+11  9.339231E+09  3.872670E+09 -1.261909E+08
       137   2  3.053879E+10  6.606394E+10  2.997074E+11  1.439974E+10  3.651043E+09 -1.946911E+08
       137   3 -4.428468E+10  5.951631E+10  2.804912E+11 -1.807685E+09  4.396695E+09  2.435128E+07
       137   4 -4.498832E+08  5.079312E+10  2.836146E+11  4.326100E+09  3.844595E+09 -5.842086E+07
       137   5  6.179918E+09  7.637439E+10  2.952631E+11  3.629581E+09  3.918109E+09 -4.907675E+07
       137   6 -2.361599E+10  8.546918E+10  2.929972E+11 -3.426371E+09  4.285897E+09  4.625062E+07
       137   7  1.806755E+10  9.225411E+10  3.020566E+11  1.708379E+09  3.842568E+09 -2.304303E+07
       137   8 -1.710658E+10  8.792905E+10  2.916174E+11 -7.754474E+09  4.180939E+09  1.048323E+08
       137   9  5.724575E+10  1.338614E+11  3.305062E+11 -1.162533E+09  3.698199E+09  1.565717E+07
       137  10 -1.976252E+10  1.399830E+10  2.664041E+11  9.348795E+09  0.000000E+00  2.602085E-08
       137  11  3.052921E+10  6.608093E+10  2.997736E+11  1.440255E+10 -1.421085E-04  8.847090E-06
       137  12 -4.424771E+10  5.955761E+10  2.805919E+11 -1.812727E+09  2.309264E-04  6.938894E-08
       137  13 -4.925165E+08  5.079710E+10  2.836705E+11  4.334479E+09 -2.664535E-05  1.776357E-05
       137  14  6.178354E+09  7.639637E+10  2.953379E+11  3.631713E+09 -2.664535E-05 -4.718448E-06
       137  15 -2.355673E+10  8.551938E+10  2.931053E+11 -3.430399E+09 -2.664535E-04 -8.951173E-06
       137  16  1.802679E+10  9.225889E+10  3.021133E+11  1.715059E+09  0.000000E+00 -2.657596E-05
       137  17 -1.709611E+10  8.795773E+10  2.917026E+11 -7.753637E+09  7.105427E-05  1.360023E-05
       137  18  5.734194E+10  1.339240E+11  3.306188E+11 -1.165595E+09 -5.329071E-04 -2.289835E-06
       137  19 -1.971849E+10  1.399475E+10  2.663483E+11  9.339231E+09 -3.872670E+09  1.261909E+08
       137  20  3.053879E+10  6.606394E+10  2.997074E+11  1.439974E+10 -3.651043E+09  1.946911E+08
       137  21 -4.428468E+10  5.951631E+10  2.804912E+11 -1.807685E+09 -4.396695E+09 -2.435128E+07
       137  22 -4.498832E+08  5.079312E+10  2.836146E+11  4.326100E+09 -3.844595E+09  5.842086E+07
       137  23  6.179918E+09  7.637439E+10  2.952631E+11  3.629581E+09 -3.918109E+09  4.907675E+07
       137  24 -2.361599E+10  8.546918E+10  2.929972E+11 -3.426371E+09 -4.285897E+09 -4.625062E+07
       137  25  1.806755E+10  9.225411E+10  3.020566E+11  1.708379E+09 -3.842568E+09  2.304303E+07
       137  26 -1.710658E+10  8.792905E+10  2.916174E+11 -7.754474E+09 -4.180939E+09 -1.048323E+08
       137  27  5.724575E+10  1.338614E+11  3.305062E+11 -1.162533E+09 -3.698199E+09 -1.565717E+07
       138   1 -8.838321E+10  4.855131E+10  2.681514E+11  1.289390E+09  4.824351E+09 -1.747247E+07
       138   2  1.286315E+11  1.465154E+11  3.712680E+11  8.527309E+09  3.289657E+09 -1.153712E+08
       138   3 -3.964753E+09  9.222071E+10  3.254357E+11 -5.159856E+09  4.459882E+09  6.963529E+07
       138   4 -2.042282E+10  9.526242E+10  2.998035E+11  4.280654E+09  4.333516E+09 -5.788768E+07
       138   5  1.177343E+09  1.134709E+11  3.171976E+11  9.444472E+09  4.282156E+09 -1.277227E+08
       138   6 -1.305538E+11  6.185818E+10  2.686633E+11 -2.104618E+09  5.407320E+09  2.839097E+07
       138   7  2.431122E+09  1.219211E+11  3.123131E+11  1.170851E+10  4.191713E+09 -1.582919E+08
       138   8  2.705786E+10  1.465523E+11  3.300066E+11  8.205929E+09  4.100300E+09 -1.109302E+08
       138   9  9.399727E+10  1.825966E+11  3.642437E+11 -3.613278E+09  3.658191E+09  4.884912E+07
       138  10 -8.857306E+10  4.849788E+10  2.681632E+11  1.291118E+09 -2.842171E-04 -1.110223E-06
       138  11  1.285193E+11  1.464863E+11  3.712832E+11  8.526277E+09 -3.552714E-04  1.207368E-05
       138  12 -4.024980E+09  9.222071E+10  3.254959E+11 -5.165168E+09 -3.108624E-05 -1.023487E-05
       138  13 -2.056155E+10  9.522805E+10  2.998276E+11  4.284679E+09 -5.329071E-04  7.216450E-06
       138  14  1.119258E+09  1.134708E+11  3.172553E+11  9.447729E+09 -2.842171E-04 -8.881784E-06
       138  15 -1.305596E+11  6.188700E+10  2.687651E+11 -2.104218E+09  0.000000E+00  1.179612E-06
       138  16  2.374488E+09  1.219211E+11  3.123697E+11  1.171431E+10  0.000000E+00 -8.326673E-07
       138  17  2.708239E+10  1.465866E+11  3.300962E+11  8.213170E+09  2.131628E-04  1.387779E-07
       138  18  9.407206E+10  1.826498E+11  3.643463E+11 -3.607567E+09  3.552714E-05  2.609024E-05
       138  19 -8.838321E+10  4.855131E+10  2.681514E+11  1.289390E+09 -4.824351E+09  1.747247E+07
       138  20  1.286315E+11  1.465154E+11  3.712680E+11  8.527309E+09 -3.289657E+09  1.153712E+08
       138  21 -3.964753E+09  9.222071E+10  3.254357E+11 -5.159856E+09 -4.459882E+09 -6.963529E+07
       138  22 -2.042282E+10  9.526242E+10  2.998035E+11  4.280654E+09 -4.333516E+09  5.788768E+07
       138  23  1.177343E+09  1.134709E+11  3.171976E+11  9.444472E+09 -4.282156E+09  1.277227E+08
       138  24 -1.305538E+11  6.185818E+10  2.686633E+11 -2.104618E+09 -5.407320E+09 -2.839097E+07
       138  25  2.431122E+09  1.219211E+11  3.123131E+11  1.170851E+10 -4.191713E+09  1.582919E+08
       138  26  2.705786E+10  1.465523E+11  3.300066E+11  8.205929E+09 -4.100300E+09  1.109302E+08
       138  27  9.399727E+10  1.825966E+11  3.642437E+11 -3.613278E+09 -3.658191E+09 -4.884912E+07
       139   1 -8.146601E+09  1.039219E+11  2.979820E+11  1.581384E+09  4.141889E+09 -2.132996E+07
       139   2  1.181203E+10  1.158610E+11  3.089161E+11 -7.237479E+09  4.023457E+09  9.782106E+07
       139   3 -6.303325E+10  8.937375E+10  2.812414E+11 -5.751478E+09  4.657707E+09  7.765154E+07
       139   4  5.171558E+09  1.459877E+11  3.151650E+11  4.007033E+09  4.195170E+09 -5.411123E+07
       139   5 -8.741643E+09  1.363735E+11  3.098514E+11  1.114577E+09  4.316829E+09 -1.509151E+07
       139   6  2.174024E+10  1.464132E+11  3.257013E+11 -1.618325E+09  4.114183E+09  2.176946E+07
       139   7  1.941860E+10  1.844802E+11  3.315660E+11  8.751658E+09  4.225268E+09 -1.182514E+08
       139   8 -3.201161E+10  1.543460E+11  3.093202E+11  8.312035E+09  4.626532E+09 -1.124004E+08
       139   9  4.492579E+10  1.799543E+11  3.448378E+11  4.766705E+08  4.059938E+09 -6.562347E+06
       139  10 -8.214168E+09  1.039169E+11  2.980330E+11  1.587618E+09  1.421085E-04  1.769418E-05
       139  11  1.169139E+10  1.158326E+11  3.089420E+11 -7.238983E+09  7.105427E-04  2.775558E-07
       139  12 -6.324158E+10  8.931144E+10  2.812420E+11 -5.760147E+09 -1.953993E-04 -1.797174E-05
       139  13  5.105694E+09  1.459838E+11  3.152177E+11  4.014951E+09 -5.595524E-04 -3.941292E-05
       139  14 -8.850488E+09  1.363518E+11  3.098880E+11  1.114631E+09  1.731948E-03  4.440892E-06
       139  15  2.156885E+10  1.463636E+11  3.257073E+11 -1.626294E+09 -2.486900E-04 -9.992007E-06
       139  16  1.935394E+10  1.844769E+11  3.316199E+11  8.760733E+09  1.421085E-04  2.220446E-06
       139  17 -3.211274E+10  1.543294E+11  3.093660E+11  8.312848E+09  6.394885E-04  0.000000E+00
       139  18  4.477647E+10  1.799138E+11  3.448522E+11  4.685098E+08 -1.421085E-04 -2.775558E-06
       139  19 -8.146601E+09  1.039219E+11  2.979820E+11  1.581384E+09 -4.141889E+09  2.132996E+07
       139  20  1.181203E+10  1.158610E+11  3.089161E+11 -7.237479E+09 -4.023457E+09 -9.782106E+07
       139  21 -6.303325E+10  8.937375E+10  2.812414E+11 -5.751478E+09 -4.657707E+09 -7.765154E+07
       139  22  5.171558E+09  1.459877E+11  3.151650E+11  4.007033E+09 -4.195170E+09  5.411123E+07
       139  23 -8.741643E+09  1.363735E+11  3.098514E+11  1.114577E+09 -4.316829E+09  1.509151E+07
       139  24  2.174024E+10  1.464132E+11  3.257013E+11 -1.618325E+09 -4.114183E+09 -2.176946E+07
       139  25  1.941860E+10  1.844802E+11  3.315660E+11  8.751658E+09 -4.225268E+09  1.182514E+08
       139  26 -3.201161E+10  1.543460E+11  3.093202E+11  8.312035E+09 -4.626532E+09  1.124004E+08
       139  27  4.492579E+10  1.799543E+11  3.448378E+11  4.766705E+08 -4.059938E+09  6.562347E+06
       140   1 -1.063896E+10  2.309074E+11  4.197196E+11 -9.806439E+09  5.810797E+09  1.325865E+08
       140   2 -7.052640E+10  1.756555E+11  3.747899E+11 -9.430846E+09  6.008763E+09  1.276001E+08
       140   3  9.238517E+10  2.144452E+11  4.225582E+11  1.332921E+10  4.459881E+09 -1.800152E+08
       140   4  7.159659E+10  1.685883E+11  4.167586E+11  4.137854E+08  4.653574E+09 -5.522263E+06
       140   5 -1.443903E+09  1.180108E+11  3.704862E+11 -1.083166E+10  5.016504E+09  1.465810E+08
       140   6 -3.443125E+10  8.369609E+10  3.397099E+11 -2.031820E+10  5.054755E+09  2.749020E+08
       140   7 -7.058414E+10 -4.719207E+09  3.105051E+11 -2.412950E+10  5.147688E+09  3.263646E+08
       140   8  3.422751E+10  4.672705E+10  3.504822E+11 -1.384769E+10  4.271734E+09  1.873872E+08
       140   9  8.722490E+08  4.830375E+10  3.336058E+11 -1.450740E+10  4.497663E+09  1.963162E+08
       140  10 -1.070770E+10  2.309117E+11  4.198025E+11 -9.814366E+09  2.842171E-04  6.661338E-06
       140  11 -7.055688E+10  1.756774E+11  3.748932E+11 -9.430667E+09  4.973799E-04 -2.220446E-06
       140  12  9.240998E+10  2.144818E+11  4.226551E+11  1.333955E+10 -3.552714E-05  1.998401E-05
       140  13  7.149404E+10  1.685714E+11  4.168048E+11  4.119593E+08  3.552714E-05 -6.217249E-05
       140  14 -1.508877E+09  1.180121E+11  3.705555E+11 -1.082856E+10 -5.684342E-04 -5.329071E-05
       140  15 -3.444043E+10  8.372147E+10  3.398037E+11 -2.031027E+10 -2.131628E-04 -3.996803E-05
       140  16 -7.073795E+10 -4.755269E+09  3.105387E+11 -2.412800E+10  6.039613E-04 -8.881784E-06
       140  17  3.410963E+10  4.670131E+10  3.505143E+11 -1.384314E+10 -4.973799E-04 -2.664535E-05
       140  18  8.096883E+08  4.830300E+10  3.336659E+11 -1.450258E+10 -6.550316E-04 -3.108624E-05
       140  19 -1.063896E+10  2.309074E+11  4.197196E+11 -9.806439E+09 -5.810797E+09 -1.325865E+08
       140  20 -7.052640E+10  1.756555E+11  3.747899E+11 -9.430846E+09 -6.008763E+09 -1.276001E+08
       140  21  9.238517E+10  2.144452E+11  4.225582E+11  1.332921E+10 -4.459881E+09  1.800152E+08
       140  22  7.159659E+10  1.685883E+11  4.167586E+11  4.137854E+08 -4.653574E+09  5.522263E+06
       140  23 -1.443903E+09  1.180108E+11  3.704862E+11 -1.083166E+10 -5.016504E+09 -1.465810E+08
       140  24 -3.443125E+10  8.369609E+10  3.397099E+11 -2.031820E+10 -5.054755E+09 -2.749020E+08
       140  25 -7.058414E+10 -4.719207E+09  3.105051E+11 -2.412950E+10 -5.147688E+09 -3.263646E+08
       140  26  3.422751E+10  4.672705E+10  3.504822E+11 -1.384769E+10 -4.271734E+09 -1.873872E+08
       140  27  8.722490E+08  4.830375E+10  3.336058E+11 -1.450740E+10 -4.497663E+09 -1.963162E+08
       141   1  6.260811E+09  1.381124E+11  3.649774E+11 -7.519701E+09  4.847626E+09  1.017400E+08
       141   2 -1.013693E+10  1.006859E+11  3.317896E+11  4.676564E+08  4.616788E+09 -6.189013E+06
       141   3  7.532650E+09  7.702834E+10  3.114310E+11 -3.283587E+09  4.106666E+09  4.458283E+07
       141   4  1.731204E+09  9.134533E+10  3.453885E+11 -9.216857E+09  4.644096E+09  1.246910E+08
       141   5 -1.888436E+09  6.550580E+10  3.215917E+11 -3.940924E+09  4.368512E+09  5.341600E+07
       141   6  4.420065E+09  4.185600E+10  3.002276E+11 -1.019599E+10  3.997743E+09  1.380336E+08
       141   7 -1.699793E+10  4.130965E+10  3.203680E+11 -1.187601E+10  4.560017E+09  1.606419E+08
       141   8  7.907509E+09  3.331403E+10  3.126410E+11 -7.554751E+09  4.116718E+09  1.022708E+08
       141   9  3.109962E+09  8.971913E+09  2.902185E+11 -1.515812E+10  3.880776E+09  2.051123E+08
       141  10  6.169652E+09  1.381014E+11  3.650320E+11 -7.525417E+09 -2.131628E-04  4.440892E-06
       141  11 -1.020840E+10  1.006820E+11  3.318483E+11  4.677398E+08 -3.907985E-04  2.220446E-06
       141  12  7.476429E+09  7.702806E+10  3.114863E+11 -3.278797E+09  5.329071E-05  8.881784E-06
       141  13  1.633175E+09  9.133024E+10  3.454363E+11 -9.222513E+09  5.861978E-04  2.664535E-05
       141  14 -1.962214E+09  6.549953E+10  3.216446E+11 -3.941286E+09  2.797762E-04 -5.329071E-05
       141  15  4.363493E+09  4.185493E+10  3.002807E+11 -1.019223E+10 -5.595524E-04 -3.108624E-05
       141  16 -1.710793E+10  4.128894E+10  3.204090E+11 -1.188228E+10 -2.842171E-04 -4.440892E-05
       141  17  7.829997E+09  3.330468E+10  3.126874E+11 -7.556002E+09 -2.486900E-04 -8.881784E-06
       141  18  3.052862E+09  8.969932E+09  2.902690E+11 -1.515571E+10 -4.352074E-04 -2.886580E-05
       141  19  6.260811E+09  1.381124E+11  3.649774E+11 -7.519701E+09 -4.847626E+09 -1.017400E+08
       141  20 -1.013693E+10  1.006859E+11  3.317896E+11  4.676564E+08 -4.616788E+09  6.189013E+06
       141  21  7.532650E+09  7.702834E+10  3.114310E+11 -3.283587E+09 -4.106666E+09 -4.458283E+07
       141  22  1.731204E+09  9.134533E+10  3.453885E+11 -9.216857E+09 -4.644096E+09 -1.246910E+08
       141  23 -1.888436E+09  6.550580E+10  3.215917E+11 -3.940924E+09 -4.368512E+09 -5.341600E+07
       141  24  4.420065E+09  4.185600E+10  3.002276E+11 -1.019599E+10 -3.997743E+09 -1.380336E+08
       141  25 -1.699793E+10  4.130965E+10  3.203680E+11 -1.187601E+10 -4.560017E+09 -1.606419E+08
       141  26  7.907509E+09  3.331403E+10  3.126410E+11 -7.554751E+09 -4.116718E+09 -1.022708E+08
       141  27  3.109962E+09  8.971913E+09  2.902185E+11 -1.515812E+10 -3.880776E+09 -2.051123E+08
       142   1 -2.174459E+10 -3.323854E+10  3.083293E+11 -2.390619E+10  4.460329E+09  3.232962E+08
       142   2 -9.551987E+09  6.541899E+09  3.182985E+11 -1.652301E+10  4.430599E+09  2.234892E+08
       142   3  1.844659E+10  4.513005E+10  3.325334E+11 -3.072221E+09  4.245521E+09  4.164784E+07
       142   4  1.095683E+10 -3.685283E+10  3.008021E+11 -5.399835E+09  3.912121E+09  7.314555E+07
       142   5  2.022973E+09 -1.098045E+10  3.020110E+11 -8.738902E+09  4.050748E+09  1.182934E+08
       142   6 -9.449181E+09  9.448051E+09  3.007587E+11 -1.049692E+10  4.190837E+09  1.420623E+08
       142   7 -5.518877E+09 -7.430226E+10  2.666367E+11 -7.516108E+09  3.677241E+09  1.018100E+08
       142   8 -2.874531E+09 -4.249032E+10  2.752733E+11 -1.302848E+10  3.758874E+09  1.763321E+08
       142   9 -1.425935E+09 -1.112344E+10  2.833986E+11 -1.639391E+10  3.849905E+09  2.218234E+08
       142  10 -2.177351E+10 -3.322507E+10  3.084031E+11 -2.391153E+10  2.486900E-04  7.105427E-05
       142  11 -9.573703E+09  6.558281E+09  3.183748E+11 -1.652692E+10  5.329071E-04  2.220446E-05
       142  12  1.843643E+10  4.515030E+10  3.326110E+11 -3.074376E+09 -3.907985E-04  3.469447E-05
       142  13  1.091673E+10 -3.684730E+10  3.008607E+11 -5.399411E+09  3.907985E-04  8.881784E-06
       142  14  1.985518E+09 -1.097300E+10  3.020733E+11 -8.738559E+09 -2.842171E-04  3.552714E-05
       142  15 -9.482821E+09  9.457938E+09  3.008253E+11 -1.049686E+10 -1.421085E-04  4.440892E-05
       142  16 -5.566868E+09 -7.430150E+10  2.666872E+11 -7.511270E+09 -2.930989E-04  3.552714E-05
       142  17 -2.922079E+09 -4.248891E+10  2.753256E+11 -1.302459E+10  0.000000E+00  1.776357E-05
       142  18 -1.472903E+09 -1.112126E+10  2.834529E+11 -1.639123E+10 -2.664535E-04 -1.776357E-05
       142  19 -2.174459E+10 -3.323854E+10  3.083293E+11 -2.390619E+10 -4.460329E+09 -3.232962E+08
       142  20 -9.551987E+09  6.541899E+09  3.182985E+11 -1.652301E+10 -4.430599E+09 -2.234892E+08
       142  21  1.844659E+10  4.513005E+10  3.325334E+11 -3.072221E+09 -4.245521E+09 -4.164784E+07
       142  22  1.095683E+10 -3.685283E+10  3.008021E+11 -5.399835E+09 -3.912121E+09 -7.314555E+07
       142  23  2.022973E+09 -1.098045E+10  3.020110E+11 -8.738902E+09 -4.050748E+09 -1.182934E+08
       142  24 -9.449181E+09  9.448051E+09  3.007587E+11 -1.049692E+10 -4.190837E+09 -1.420623E+08
       142  25 -5.518877E+09 -7.430226E+10  2.666367E+11 -7.516108E+09 -3.677241E+09 -1.018100E+08
       142  26 -2.874531E+09 -4.249032E+10  2.752733E+11 -1.302848E+10 -3.758874E+09 -1.763321E+08
       142  27 -1.425935E+09 -1.112344E+10  2.833986E+11 -1.639391E+10 -3.849905E+09 -2.218234E+08
       143   1 -3.341959E+09  3.943022E+10  2.793797E+11 -1.909492E+09  3.821879E+09  2.595702E+07
       143   2 -1.462096E+10  2.291666E+10  2.515157E+11 -1.175441E+09  3.597083E+09  1.604456E+07
       143   3  2.591843E+10  2.844403E+10  2.455068E+11  4.104423E+09  2.968738E+09 -5.532529E+07
       143   4  1.378856E+10  3.083117E+10  2.628813E+11 -1.101968E+08  3.366442E+09  1.640012E+06
       143   5 -4.654015E+08  1.634042E+10  2.399022E+11 -2.230640E+09  3.248671E+09  3.031520E+07
       143   6 -1.718294E+10  7.796605E+08  2.156939E+11 -4.801740E+09  3.148516E+09  6.508356E+07
       143   7 -1.881919E+10  1.554297E+08  2.244324E+11 -1.823630E+09  3.288568E+09  2.481457E+07
       143   8  1.923357E+10  1.344593E+10  2.308252E+11  3.250036E+07  2.860624E+09 -2.779747E+05
       143   9  1.038178E+09  4.106917E+09  2.135153E+11 -2.400152E+09  2.872995E+09  3.261094E+07
       143  10 -3.390050E+09  3.943176E+10  2.794329E+11 -1.910579E+09  0.000000E+00  7.771561E-06
       143  11 -1.465700E+10  2.292206E+10  2.515697E+11 -1.175396E+09 -7.105427E-05  8.881784E-06
       143  12  2.589868E+10  2.845277E+10  2.455557E+11  4.106014E+09 -1.421085E-04 -9.992007E-06
       143  13  1.373437E+10  3.082746E+10  2.629232E+11 -1.103887E+08  2.131628E-04 -8.881784E-06
       143  14 -5.083908E+08  1.634082E+10  2.399466E+11 -2.230269E+09 -7.105427E-05 -5.329071E-05
       143  15 -1.721031E+10  7.861757E+08  2.157430E+11 -4.800894E+09  1.421085E-04 -8.881784E-06
       143  16 -1.888375E+10  1.468162E+08  2.244682E+11 -1.823213E+09 -1.421085E-04 -4.440892E-05
       143  17  1.917921E+10  1.343922E+10  2.308571E+11  3.328455E+07  2.486900E-04 -4.440892E-05
       143  18  9.986108E+08  4.106612E+09  2.135538E+11 -2.399673E+09 -2.309264E-04  1.998401E-05
       143  19 -3.341959E+09  3.943022E+10  2.793797E+11 -1.909492E+09 -3.821879E+09 -2.595702E+07
       143  20 -1.462096E+10  2.291666E+10  2.515157E+11 -1.175441E+09 -3.597083E+09 -1.604456E+07
       143  21  2.591843E+10  2.844403E+10  2.455068E+11  4.104423E+09 -2.968738E+09  5.532529E+07
       143  22  1.378856E+10  3.083117E+10  2.628813E+11 -1.101968E+08 -3.366442E+09 -1.640012E+06
       143  23 -4.654015E+08  1.634042E+10  2.399022E+11 -2.230640E+09 -3.248671E+09 -3.031520E+07
       143  24 -1.718294E+10  7.796605E+08  2.156939E+11 -4.801740E+09 -3.148516E+09 -6.508356E+07
       143  25 -1.881919E+10  1.554297E+08  2.244324E+11 -1.823630E+09 -3.288568E+09 -2.481457E+07
       143  26  1.923357E+10  1.344593E+10  2.308252E+11  3.250036E+07 -2.860624E+09  2.779747E+05
       143  27  1.038178E+09  4.106917E+09  2.135153E+11 -2.400152E+09 -2.872995E+09 -3.261094E+07
       144   1 -7.684077E+08  7.995763E+09  2.194310E+11 -1.789432E+09  2.977533E+09  2.434738E+07
       144   2  6.298612E+06  3.907774E+09  1.974539E+11 -6.498499E+07  2.669837E+09  1.034350E+06
       144   3  3.059171E+08 -4.104775E+08  1.752445E+11  2.373576E+08  2.365518E+09 -3.052195E+06
       144   4  1.290938E+07  6.344390E+09  2.129896E+11 -1.181891E+09  2.879849E+09  1.613276E+07
       144   5 -4.959618E+06  2.865814E+09  1.937903E+11 -1.454495E+08  2.620448E+09  2.121332E+06
       144   6 -1.722746E+08 -7.738921E+08  1.744733E+11 -3.554212E+08  2.361559E+09  4.961767E+06
       144   7  1.766807E+09  5.579329E+09  2.070868E+11  4.770018E+07  2.776333E+09 -4.904637E+05
       144   8  3.550843E+08  2.309134E+09  1.903723E+11 -4.682938E+06  2.569379E+09  2.180529E+05
       144   9 -5.165430E+08 -8.666573E+08  1.738218E+11 -9.041815E+08  2.357410E+09  1.238069E+07
       144  10 -8.085525E+08  7.995811E+09  2.194713E+11 -1.789646E+09  0.000000E+00 -8.881784E-06
       144  11 -2.959712E+07  3.907861E+09  1.974901E+11 -6.498449E+07 -7.105427E-05 -2.664535E-05
       144  12  2.739561E+08 -4.104678E+08  1.752765E+11  2.374399E+08 -1.509903E-04 -2.220446E-06
       144  13 -2.678339E+07  6.344065E+09  2.130282E+11 -1.182060E+09  3.019807E-04 -1.332268E-05
       144  14 -4.053936E+07  2.865751E+09  1.938257E+11 -1.454553E+08 -2.930989E-04  3.996803E-05
       144  15 -2.041932E+08 -7.738850E+08  1.745052E+11 -3.553863E+08  2.120526E-04  4.440892E-06
       144  16  1.727266E+09  5.578464E+09  2.071235E+11  4.759517E+07  0.000000E+00  1.332268E-05
       144  17  3.197328E+08  2.308872E+09  1.904068E+11 -4.695516E+06  2.842171E-04 -5.884182E-05
       144  18 -5.484312E+08 -8.666598E+08  1.738536E+11 -9.042030E+08 -4.440892E-05 -8.881784E-06
       144  19 -7.684077E+08  7.995763E+09  2.194310E+11 -1.789432E+09 -2.977533E+09 -2.434738E+07
       144  20  6.298612E+06  3.907774E+09  1.974539E+11 -6.498499E+07 -2.669837E+09 -1.034350E+06
       144  21  3.059171E+08 -4.104775E+08  1.752445E+11  2.373576E+08 -2.365518E+09  3.052195E+06
       144  22  1.290938E+07  6.344390E+09  2.129896E+11 -1.181891E+09 -2.879849E+09 -1.613276E+07
       144  23 -4.959618E+06  2.865814E+09  1.937903E+11 -1.454495E+08 -2.620448E+09 -2.121332E+06
       144  24 -1.722746E+08 -7.738921E+08  1.744733E+11 -3.554212E+08 -2.361559E+09 -4.961767E+06
       144  25  1.766807E+09  5.579329E+09  2.070868E+11  4.770018E+07 -2.776333E+09  4.904637E+05
       144  26  3.550843E+08  2.309134E+09  1.903723E+11 -4.682938E+06 -2.569379E+09 -2.180529E+05
       144  27 -5.165430E+08 -8.666573E+08  1.738218E+11 -9.041815E+08 -2.357410E+09 -1.238069E+07
       145   1 -1.556852E+09  2.666211E+09  2.186038E+11 -4.839060E+09  2.976991E+09  6.557734E+07
       145   2 -1.272172E+09  3.613215E+09  2.123349E+11 -2.750040E+09  2.888394E+09  3.733365E+07
       145   3 -2.288331E+08  4.521489E+09  2.062906E+11  3.471008E+07  2.792569E+09 -3.144188E+05
       145   4  1.692703E+08  1.954962E+09  1.981437E+11 -1.843309E+09  2.676879E+09  2.507717E+07
       145   5 -3.055906E+08  2.222526E+09  1.941856E+11 -1.073081E+09  2.629831E+09  1.466288E+07
       145   6 -1.235550E+09  1.774802E+09  1.898846E+11  8.963494E+07  2.584295E+09 -1.056825E+06
       145   7 -5.942193E+08 -2.313790E+08  1.764007E+11 -2.354729E+07  2.393292E+09  4.761929E+05
       145   8  1.810130E+08  2.436455E+08  1.756542E+11 -6.709408E+08  2.372738E+09  9.228055E+06
       145   9  5.252261E+08 -7.760081E+07  1.745438E+11 -1.150369E+09  2.353084E+09  1.570919E+07
       145  10 -1.594938E+09  2.667133E+09  2.186450E+11 -4.839577E+09  1.421085E-04  3.996803E-05
       145  11 -1.309335E+09  3.614023E+09  2.123748E+11 -2.750350E+09 -7.105427E-05  2.886580E-05
       145  12 -2.650813E+08  4.522135E+09  2.063290E+11  3.468039E+07  4.618528E-04 -2.456368E-05
       145  13  1.342415E+08  1.955458E+09  1.981804E+11 -1.843453E+09 -2.131628E-04 -1.332268E-05
       145  14 -3.400786E+08  2.222983E+09  1.942216E+11 -1.073158E+09  3.552714E-05  1.776357E-05
       145  15 -1.269506E+09  1.775224E+09  1.899200E+11  8.965919E+07  0.000000E+00  8.881784E-06
       145  16 -6.262261E+08 -2.312287E+08  1.764333E+11 -2.341548E+07  1.953993E-04  0.000000E+00
       145  17  1.491765E+08  2.437521E+08  1.756864E+11 -6.708956E+08  0.000000E+00 -7.105427E-05
       145  18  4.935573E+08 -7.753458E+07  1.745757E+11 -1.150404E+09 -2.309264E-04  3.552714E-05
       145  19 -1.556852E+09  2.666211E+09  2.186038E+11 -4.839060E+09 -2.976991E+09 -6.557734E+07
       145  20 -1.272172E+09  3.613215E+09  2.123349E+11 -2.750040E+09 -2.888394E+09 -3.733365E+07
       145  21 -2.288331E+08  4.521489E+09  2.062906E+11  3.471008E+07 -2.792569E+09  3.144188E+05
       145  22  1.692703E+08  1.954962E+09  1.981437E+11 -1.843309E+09 -2.676879E+09 -2.507717E+07
       145  23 -3.055906E+08  2.222526E+09  1.941856E+11 -1.073081E+09 -2.629831E+09 -1.466288E+07
       145  24 -1.235550E+09  1.774802E+09  1.898846E+11  8.963494E+07 -2.584295E+09  1.056825E+06
       145  25 -5.942193E+08 -2.313790E+08  1.764007E+11 -2.354729E+07 -2.393292E+09 -4.761929E+05
       145  26  1.810130E+08  2.436455E+08  1.756542E+11 -6.709408E+08 -2.372738E+09 -9.228055E+06
       145  27  5.252261E+08 -7.760081E+07  1.745438E+11 -1.150369E+09 -2.353084E+09 -1.570919E+07
       146   1 -4.761005E+09  3.205544E+10  3.171370E+11  1.057153E+10  4.352870E+09 -1.430103E+08
       146   2  5.269012E+08  2.705863E+10  3.156375E+11  1.938791E+10  4.261066E+09 -2.622056E+08
       146   3  2.813460E+09  1.431103E+10  3.109384E+11  2.855000E+10  4.166491E+09 -3.860757E+08
       146   4 -1.180548E+09 -3.094760E+09  3.198176E+11  5.254468E+09  4.340803E+09 -7.112712E+07
       146   5  7.759028E+09  2.313715E+09  3.210612E+11  8.400549E+09  4.236604E+09 -1.136607E+08
       146   6  1.515412E+10  2.551685E+09  3.203176E+11  1.057179E+10  4.126351E+09 -1.430156E+08
       146   7 -8.821065E+09 -4.290257E+10  3.177790E+11  4.802527E+09  4.416432E+09 -6.501857E+07
       146   8 -2.956254E+09 -2.887967E+10  3.191789E+11  5.812462E+09  4.356014E+09 -7.867090E+07
       146   9 -4.970925E+08 -1.693768E+10  3.189590E+11  5.925451E+09  4.319699E+09 -8.019699E+07
       146  10 -4.819557E+09  3.205557E+10  3.171960E+11  1.057264E+10 -2.664535E-05  0.000000E+00
       146  11  4.687138E+08  2.705838E+10  3.156948E+11  1.938968E+10  4.263256E-04 -9.436896E-06
       146  12  2.755647E+09  1.431040E+10  3.109941E+11  2.855241E+10 -8.881784E-06  1.401657E-05
       146  13 -1.240237E+09 -3.095191E+09  3.198759E+11  5.254947E+09  3.552714E-05 -8.326673E-07
       146  14  7.699974E+09  2.312954E+09  3.211177E+11  8.401282E+09  2.486900E-04  1.221245E-05
       146  15  1.509575E+10  2.550578E+09  3.203723E+11  1.057267E+10  2.131628E-04 -1.249001E-05
       146  16 -8.881906E+09 -4.290305E+10  3.178382E+11  4.802823E+09 -2.131628E-04  1.110223E-06
       146  17 -3.016230E+09 -2.888013E+10  3.192374E+11  5.812947E+09 -2.842171E-04 -5.551115E-07
       146  18 -5.561160E+08 -1.693795E+10  3.190171E+11  5.926110E+09  4.263256E-04  3.788636E-05
       146  19 -4.761005E+09  3.205544E+10  3.171370E+11  1.057153E+10 -4.352870E+09  1.430103E+08
       146  20  5.269012E+08  2.705863E+10  3.156375E+11  1.938791E+10 -4.261066E+09  2.622056E+08
       146  21  2.813460E+09  1.431103E+10  3.109384E+11  2.855000E+10 -4.166491E+09  3.860757E+08
       146  22 -1.180548E+09 -3.094760E+09  3.198176E+11  5.254468E+09 -4.340803E+09  7.112712E+07
       146  23  7.759028E+09  2.313715E+09  3.210612E+11  8.400549E+09 -4.236604E+09  1.136607E+08
       146  24  1.515412E+10  2.551685E+09  3.203176E+11  1.057179E+10 -4.126351E+09  1.430156E+08
       146  25 -8.821065E+09 -4.290257E+10  3.177790E+11  4.802527E+09 -4.416432E+09  6.501857E+07
       146  26 -2.956254E+09 -2.887967E+10  3.191789E+11  5.812462E+09 -4.356014E+09  7.867090E+07
       146  27 -4.970925E+08 -1.693768E+10  3.189590E+11  5.925451E+09 -4.319699E+09  8.019699E+07
       147   1 -1.869150E+09 -5.978145E+08  3.044501E+11  3.039746E+10  4.142039E+09 -4.110536E+08
       147   2 -1.637461E+09 -1.733426E+10  2.989597E+11  2.462777E+10  4.064624E+09 -3.330519E+08
       147   3  3.515981E+09 -2.311640E+10  2.982541E+11  1.788190E+10  3.985258E+09 -2.418521E+08
       147   4  7.404567E+09 -7.157503E+09  3.145951E+11  1.043379E+10  4.153642E+09 -1.411500E+08
       147   5  1.204489E+10 -8.042815E+09  3.170767E+11  1.515624E+10  4.124249E+09 -2.049964E+08
       147   6  2.154713E+10  1.437198E+09  3.241282E+11  1.683343E+10  4.090874E+09 -2.276720E+08
       147   7  1.408596E+09 -1.644240E+10  3.193025E+11 -1.001226E+09  4.298499E+09  1.344899E+07
       147   8  1.982644E+10  4.747666E+09  3.344052E+11  1.575524E+10  4.253568E+09 -2.130905E+08
       147   9  3.939563E+10  3.307593E+10  3.519812E+11  2.599621E+10  4.226544E+09 -3.515440E+08
       147  10 -1.924871E+09 -5.976925E+08  3.045063E+11  3.039998E+10 -2.664535E-04 -3.996803E-05
       147  11 -1.692939E+09 -1.733448E+10  2.990144E+11  2.462954E+10  2.753353E-04  2.997602E-05
       147  12  3.460738E+09 -2.311698E+10  2.983074E+11  1.788291E+10 -2.220446E-04  2.803313E-05
       147  13  7.346436E+09 -7.158348E+09  3.146505E+11  1.043464E+10 -3.552714E-05 -2.664535E-05
       147  14  1.198694E+10 -8.043751E+09  3.171315E+11  1.515746E+10  1.421085E-03 -1.776357E-05
       147  15  2.148927E+10  1.436109E+09  3.241824E+11  1.683478E+10 -4.973799E-04  2.664535E-05
       147  16  1.347042E+09 -1.644387E+10  3.193592E+11 -1.001212E+09  1.421085E-04 -2.220446E-06
       147  17  1.976542E+10  4.746157E+09  3.344612E+11  1.575685E+10  1.376677E-04  8.881784E-06
       147  18  3.933477E+10  3.307433E+10  3.520368E+11  2.599884E+10 -3.375078E-04  2.636780E-05
       147  19 -1.869150E+09 -5.978145E+08  3.044501E+11  3.039746E+10 -4.142039E+09  4.110536E+08
       147  20 -1.637461E+09 -1.733426E+10  2.989597E+11  2.462777E+10 -4.064624E+09  3.330519E+08
       147  21  3.515981E+09 -2.311640E+10  2.982541E+11  1.788190E+10 -3.985258E+09  2.418521E+08
       147  22  7.404567E+09 -7.157503E+09  3.145951E+11  1.043379E+10 -4.153642E+09  1.411500E+08
       147  23  1.204489E+10 -8.042815E+09  3.170767E+11  1.515624E+10 -4.124249E+09  2.049964E+08
       147  24  2.154713E+10  1.437198E+09  3.241282E+11  1.683343E+10 -4.090874E+09  2.276720E+08
       147  25  1.408596E+09 -1.644240E+10  3.193025E+11 -1.001226E+09 -4.298499E+09 -1.344899E+07
       147  26  1.982644E+10  4.747666E+09  3.344052E+11  1.575524E+10 -4.253568E+09  2.130905E+08
       147  27  3.939563E+10  3.307593E+10  3.519812E+11  2.599621E+10 -4.226544E+09  3.515440E+08
       148   1 -8.388555E+10 -1.273859E+11  2.766376E+11 -1.773025E+10  4.871586E+09  2.395658E+08
       148   2  6.000676E+10 -6.886109E+08  3.520680E+11  2.935567E+10  3.946517E+09 -3.970284E+08
       148   3 -7.224403E+09 -6.763117E+09  3.240901E+11  1.891252E+10  4.479297E+09 -2.558144E+08
       148   4  4.468660E+10 -1.179364E+11  3.278759E+11  9.451812E+09  3.820065E+09 -1.278610E+08
       148   5  2.560621E+09 -5.829519E+10  3.252460E+11  1.804834E+10  4.354602E+09 -2.441136E+08
       148   6 -8.807674E+10 -3.184986E+10  2.970605E+11  9.426623E+09  5.205177E+09 -1.275698E+08
       148   7  3.048760E+10 -1.694927E+11  3.162731E+11  1.135632E+10  3.858156E+09 -1.535456E+08
       148   8 -4.426075E+10 -1.113205E+11  3.020280E+11  4.613605E+09  4.672679E+09 -6.243544E+07
       148   9 -8.842789E+09 -2.860378E+08  3.348452E+11  1.431281E+10  4.643854E+09 -1.936160E+08
       148  10 -8.400380E+10 -1.274083E+11  2.766810E+11 -1.773837E+10  3.552714E-05  1.776357E-05
       148  11  5.991156E+10 -7.065283E+08  3.521035E+11  2.935133E+10 -2.486900E-04  2.886580E-05
       148  12 -7.285878E+09 -6.763501E+09  3.241503E+11  1.891044E+10  3.885781E-04 -1.193490E-05
       148  13  4.460102E+10 -1.179509E+11  3.279132E+11  9.451829E+09  5.329071E-04 -3.608225E-06
       148  14  2.498037E+09 -5.829673E+10  3.253035E+11  1.804677E+10  0.000000E+00 -2.220446E-06
       148  15 -8.810596E+10 -3.183221E+10  2.971486E+11  9.423212E+09 -5.329071E-05 -1.443290E-05
       148  16  3.042378E+10 -1.694976E+11  3.163203E+11  1.136216E+10 -4.973799E-04 -2.220446E-05
       148  17 -4.430171E+10 -1.113109E+11  3.021008E+11  4.614828E+09 -7.815970E-04  7.771561E-06
       148  18 -8.850779E+09 -2.625347E+08  3.349315E+11  1.431085E+10 -3.552714E-04 -2.137179E-05
       148  19 -8.388555E+10 -1.273859E+11  2.766376E+11 -1.773025E+10 -4.871586E+09 -2.395658E+08
       148  20  6.000676E+10 -6.886109E+08  3.520680E+11  2.935567E+10 -3.946517E+09  3.970284E+08
       148  21 -7.224403E+09 -6.763117E+09  3.240901E+11  1.891252E+10 -4.479297E+09  2.558144E+08
       148  22  4.468660E+10 -1.179364E+11  3.278759E+11  9.451812E+09 -3.820065E+09  1.278610E+08
       148  23  2.560621E+09 -5.829519E+10  3.252460E+11  1.804834E+10 -4.354602E+09  2.441136E+08
       148  24 -8.807674E+10 -3.184986E+10  2.970605E+11  9.426623E+09 -5.205177E+09  1.275698E+08
       148  25  3.048760E+10 -1.694927E+11  3.162731E+11  1.135632E+10 -3.858156E+09  1.535456E+08
       148  26 -4.426075E+10 -1.113205E+11  3.020280E+11  4.613605E+09 -4.672679E+09  6.243544E+07
       148  27 -8.842789E+09 -2.860378E+08  3.348452E+11  1.431281E+10 -4.643854E+09  1.936160E+08
       149   1  7.942817E+11  1.353138E+11  5.597646E+11 -2.739937E+11 -3.174319E+09  3.704434E+09
       149   2  7.555133E+11  1.646080E+11  5.547308E+11 -3.088737E+11 -2.718194E+09  4.176074E+09
       149   3  6.980814E+11  2.156878E+11  5.504975E+11 -3.389208E+11 -1.998092E+09  4.582237E+09
       149   4  7.018275E+11  1.408885E+11  5.382584E+11 -1.728974E+11 -2.219504E+09  2.337547E+09
       149   5  6.805333E+11  1.534202E+11  5.336848E+11 -2.030497E+11 -1.993237E+09  2.745213E+09
       149   6  6.408185E+11  1.802103E+11  5.276056E+11 -2.284134E+11 -1.536929E+09  3.088091E+09
       149   7  6.805703E+11  1.659196E+11  5.422715E+11 -8.985610E+10 -1.873703E+09  1.214768E+09
       149   8  6.733027E+11  1.456402E+11  5.325030E+11 -1.296732E+11 -1.908201E+09  1.753072E+09
       149   9  6.422458E+11  1.140283E+11  5.118228E+11 -1.740549E+11 -1.766707E+09  2.353053E+09
       149  10  7.943416E+11  1.353211E+11  5.597290E+11 -2.740117E+11  2.442491E-04  1.776357E-05
       149  11  7.555649E+11  1.646146E+11  5.547006E+11 -3.088943E+11  3.533285E-04 -5.329071E-05
       149  12  6.981199E+11  2.156931E+11  5.504755E+11 -3.389441E+11  9.769963E-05 -2.220446E-05
       149  13  7.018623E+11  1.408906E+11  5.382306E+11 -1.729129E+11 -7.105427E-04 -3.996803E-05
       149  14  6.805537E+11  1.534175E+11  5.336552E+11 -2.030683E+11  5.684342E-04  3.552714E-05
       149  15  6.408151E+11  1.802000E+11  5.275747E+11 -2.284361E+11  2.842171E-04  1.776357E-05
       149  16  6.805691E+11  1.659082E+11  5.422348E+11 -8.987176E+10 -1.421085E-04 -1.776357E-05
       149  17  6.732746E+11  1.456172E+11  5.324542E+11 -1.296945E+11 -3.552714E-04 -8.881784E-06
       149  18  6.421711E+11  1.139861E+11  5.117567E+11 -1.740853E+11  3.907985E-04  1.598721E-04
       149  19  7.942817E+11  1.353138E+11  5.597646E+11 -2.739937E+11  3.174319E+09 -3.704434E+09
       149  20  7.555133E+11  1.646080E+11  5.547308E+11 -3.088737E+11  2.718194E+09 -4.176074E+09
       149  21  6.980814E+11  2.156878E+11  5.504975E+11 -3.389208E+11  1.998092E+09 -4.582237E+09
       149  22  7.018275E+11  1.408885E+11  5.382584E+11 -1.728974E+11  2.219504E+09 -2.337547E+09
       149  23  6.805333E+11  1.534202E+11  5.336848E+11 -2.030497E+11  1.993237E+09 -2.745213E+09
       149  24  6.408185E+11  1.802103E+11  5.276056E+11 -2.284134E+11  1.536929E+09 -3.088091E+09
       149  25  6.805703E+11  1.659196E+11  5.422715E+11 -8.985610E+10  1.873703E+09 -1.214768E+09
       149  26  6.733027E+11  1.456402E+11  5.325030E+11 -1.296732E+11  1.908201E+09 -1.753072E+09
       149  27  6.422458E+11  1.140283E+11  5.118228E+11 -1.740549E+11  1.766707E+09 -2.353053E+09
       150   1  6.031813E+11  2.307576E+11  5.253481E+11 -3.230569E+11 -1.054799E+09  4.367764E+09
       150   2  5.112815E+11  1.998298E+11  4.868133E+11 -3.106735E+11 -3.339642E+08  4.200348E+09
       150   3  4.053019E+11  1.715455E+11  4.448358E+11 -2.922524E+11  5.307361E+08  3.951289E+09
       150   4  6.733244E+11  1.811902E+11  5.368836E+11 -2.615348E+11 -1.850853E+09  3.535935E+09
       150   5  6.597823E+11  1.898165E+11  5.350930E+11 -2.419842E+11 -1.694034E+09  3.271633E+09
       150   6  6.455053E+11  1.985819E+11  5.331025E+11 -2.201546E+11 -1.529801E+09  2.976479E+09
       150   7  6.441993E+11  1.357751E+11  5.184878E+11 -1.641946E+11 -1.702201E+09  2.219859E+09
       150   8  6.380090E+11  1.482572E+11  5.209423E+11 -1.557973E+11 -1.586214E+09  2.106330E+09
       150   9  6.386401E+11  1.582205E+11  5.246513E+11 -1.439466E+11 -1.545287E+09  1.946106E+09
       150  10  6.032210E+11  2.307683E+11  5.253447E+11 -3.230778E+11  1.687539E-04  1.776357E-05
       150  11  5.113182E+11  1.998437E+11  4.868227E+11 -3.106915E+11 -5.995204E-05 -1.776357E-05
       150  12  4.053364E+11  1.715631E+11  4.448608E+11 -2.922676E+11 -8.881784E-06 -6.883383E-05
       150  13  6.733757E+11  1.812013E+11  5.368699E+11 -2.615563E+11  3.552714E-05 -7.105427E-05
       150  14  6.598312E+11  1.898277E+11  5.350814E+11 -2.420035E+11  0.000000E+00  7.105427E-05
       150  15  6.455518E+11  1.985931E+11  5.330931E+11 -2.201718E+11  0.000000E+00  8.881784E-06
       150  16  6.442654E+11  1.357936E+11  5.184833E+11 -1.642117E+11 -1.154632E-04 -1.776357E-05
       150  17  6.380705E+11  1.482744E+11  5.209382E+11 -1.558139E+11  0.000000E+00 -1.243450E-04
       150  18  6.386985E+11  1.582367E+11  5.246466E+11 -1.439625E+11  4.707346E-04 -1.110223E-05
       150  19  6.031813E+11  2.307576E+11  5.253481E+11 -3.230569E+11  1.054799E+09 -4.367764E+09
       150  20  5.112815E+11  1.998298E+11  4.868133E+11 -3.106735E+11  3.339642E+08 -4.200348E+09
       150  21  4.053019E+11  1.715455E+11  4.448358E+11 -2.922524E+11 -5.307361E+08 -3.951289E+09
       150  22  6.733244E+11  1.811902E+11  5.368836E+11 -2.615348E+11  1.850853E+09 -3.535935E+09
       150  23  6.597823E+11  1.898165E+11  5.350930E+11 -2.419842E+11  1.694034E+09 -3.271633E+09
       150  24  6.455053E+11  1.985819E+11  5.331025E+11 -2.201546E+11  1.529801E+09 -2.976479E+09
       150  25  6.441993E+11  1.357751E+11  5.184878E+11 -1.641946E+11  1.702201E+09 -2.219859E+09
       150  26  6.380090E+11  1.482572E+11  5.209423E+11 -1.557973E+11  1.586214E+09 -2.106330E+09
       150  27  6.386401E+11  1.582205E+11  5.246513E+11 -1.439466E+11  1.545287E+09 -1.946106E+09
       151   1  5.693432E+11  1.210272E+11  4.964230E+11 -8.315619E+10 -9.875785E+08  1.124287E+09
       151   2  6.623871E+11  1.665169E+11  5.365848E+11 -9.690954E+10 -1.703593E+09  1.310224E+09
       151   3  6.528766E+11  1.616627E+11  5.303911E+11 -1.299943E+11 -1.657270E+09  1.757515E+09
       151   4  5.314460E+11  1.062031E+11  4.819288E+11 -5.771914E+10 -6.728045E+08  7.803617E+08
       151   5  6.220918E+11  1.497804E+11  5.206861E+11 -7.679146E+10 -1.375466E+09  1.038214E+09
       151   6  5.779944E+11  1.320865E+11  4.999217E+11 -1.155640E+11 -1.057388E+09  1.562413E+09
       151   7  5.552823E+11  1.171633E+11  4.932084E+11 -3.108733E+10 -8.417507E+08  4.202828E+08
       151   8  6.229092E+11  1.505686E+11  5.220884E+11 -5.579825E+10 -1.367784E+09  7.543723E+08
       151   9  5.269424E+11  1.123045E+11  4.794427E+11 -1.005755E+11 -6.441134E+08  1.359763E+09
       151  10  5.693984E+11  1.210451E+11  4.964276E+11 -8.315989E+10  1.065814E-04  5.329071E-05
       151  11  6.624280E+11  1.665245E+11  5.365695E+11 -9.691524E+10 -8.348877E-04  1.776357E-05
       151  12  6.528908E+11  1.616592E+11  5.303653E+11 -1.300041E+11 -3.019807E-04  1.554312E-05
       151  13  5.314834E+11  1.062152E+11  4.819319E+11 -5.772300E+10 -1.776357E-05 -6.217249E-05
       151  14  6.221141E+11  1.497820E+11  5.206691E+11 -7.679733E+10 -3.552714E-05 -8.104628E-05
       151  15  5.779912E+11  1.320790E+11  4.999000E+11 -1.155733E+11 -2.486900E-04 -5.440093E-05
       151  16  5.553071E+11  1.171691E+11  4.932028E+11 -3.109128E+10  1.421085E-04 -1.776357E-05
       151  17  6.229191E+11  1.505650E+11  5.220663E+11 -5.580417E+10 -5.684342E-04 -5.329071E-05
       151  18  5.269283E+11  1.122947E+11  4.794242E+11 -1.005843E+11  3.552714E-04 -4.662937E-05
       151  19  5.693432E+11  1.210272E+11  4.964230E+11 -8.315619E+10  9.875785E+08 -1.124287E+09
       151  20  6.623871E+11  1.665169E+11  5.365848E+11 -9.690954E+10  1.703593E+09 -1.310224E+09
       151  21  6.528766E+11  1.616627E+11  5.303911E+11 -1.299943E+11  1.657270E+09 -1.757515E+09
       151  22  5.314460E+11  1.062031E+11  4.819288E+11 -5.771914E+10  6.728045E+08 -7.803617E+08
       151  23  6.220918E+11  1.497804E+11  5.206861E+11 -7.679146E+10  1.375466E+09 -1.038214E+09
       151  24  5.779944E+11  1.320865E+11  4.999217E+11 -1.155640E+11  1.057388E+09 -1.562413E+09
       151  25  5.552823E+11  1.171633E+11  4.932084E+11 -3.108733E+10  8.417507E+08 -4.202828E+08
       151  26  6.229092E+11  1.505686E+11  5.220884E+11 -5.579825E+10  1.367784E+09 -7.543723E+08
       151  27  5.269424E+11  1.123045E+11  4.794427E+11 -1.005755E+11  6.441134E+08 -1.359763E+09
       152   1  5.619626E+11  1.169196E+11  4.953390E+11 -2.792901E+10 -9.020743E+08  3.775809E+08
       152   2  5.973077E+11  1.187920E+11  5.062107E+11 -5.280951E+10 -1.233207E+09  7.139662E+08
       152   3  6.554248E+11  1.273194E+11  5.257078E+11 -7.606657E+10 -1.754553E+09  1.028404E+09
       152   4  5.944181E+11  1.290638E+11  5.079116E+11 -5.393062E+10 -1.172034E+09  7.291304E+08
       152   5  6.137969E+11  1.241171E+11  5.118756E+11 -7.450446E+10 -1.379883E+09  1.007287E+09
       152   6  6.362032E+11  1.169471E+11  5.159808E+11 -9.250074E+10 -1.626227E+09  1.250595E+09
       152   7  6.068276E+11  1.318693E+11  5.111775E+11 -8.208346E+10 -1.294250E+09  1.109764E+09
       152   8  6.309389E+11  1.289043E+11  5.172838E+11 -9.712658E+10 -1.537364E+09  1.313141E+09
       152   9  6.386557E+11  1.145933E+11  5.150703E+11 -1.072254E+11 -1.671301E+09  1.449667E+09
       152  10  5.619836E+11  1.169235E+11  4.953307E+11 -2.793291E+10  5.684342E-04  8.881784E-06
       152  11  5.973333E+11  1.187958E+11  5.061979E+11 -5.281478E+10  4.618528E-04 -1.332268E-05
       152  12  6.554567E+11  1.273229E+11  5.256876E+11 -7.607301E+10  4.796163E-04  3.386180E-05
       152  13  5.944355E+11  1.290644E+11  5.078965E+11 -5.393534E+10  0.000000E+00 -3.774758E-05
       152  14  6.138185E+11  1.241184E+11  5.118582E+11 -7.451059E+10 -3.552714E-05 -5.329071E-05
       152  15  6.362309E+11  1.169496E+11  5.159612E+11 -9.250820E+10  1.243450E-04  2.220446E-05
       152  16  6.068394E+11  1.318668E+11  5.111576E+11 -8.208919E+10 -5.861978E-04  1.776357E-05
       152  17  6.309544E+11  1.289020E+11  5.172607E+11 -9.713381E+10 -1.598721E-04 -2.664535E-05
       152  18  6.386769E+11  1.145927E+11  5.150471E+11 -1.072343E+11 -2.220446E-05 -2.220446E-06
       152  19  5.619626E+11  1.169196E+11  4.953390E+11 -2.792901E+10  9.020743E+08 -3.775809E+08
       152  20  5.973077E+11  1.187920E+11  5.062107E+11 -5.280951E+10  1.233207E+09 -7.139662E+08
       152  21  6.554248E+11  1.273194E+11  5.257078E+11 -7.606657E+10  1.754553E+09 -1.028404E+09
       152  22  5.944181E+11  1.290638E+11  5.079116E+11 -5.393062E+10  1.172034E+09 -7.291304E+08
       152  23  6.137969E+11  1.241171E+11  5.118756E+11 -7.450446E+10  1.379883E+09 -1.007287E+09
       152  24  6.362032E+11  1.169471E+11  5.159808E+11 -9.250074E+10  1.626227E+09 -1.250595E+09
       152  25  6.068276E+11  1.318693E+11  5.111775E+11 -8.208346E+10  1.294250E+09 -1.109764E+09
       152  26  6.309389E+11  1.289043E+11  5.172838E+11 -9.712658E+10  1.537364E+09 -1.313141E+09
       152  27  6.386557E+11  1.145933E+11  5.150703E+11 -1.072254E+11  1.671301E+09 -1.449667E+09
       153   1  6.080001E+11  8.659185E+10  4.987485E+11 -1.065560E+11 -1.476039E+09  1.440623E+09
       153   2  7.221010E+11  8.211626E+10  5.310448E+11 -1.059991E+11 -2.580395E+09  1.433064E+09
       153   3  8.534973E+11  6.570738E+10  5.657241E+11 -8.049664E+10 -3.890422E+09  1.088256E+09
       153   4  6.406091E+11  1.147842E+11  5.162074E+11 -1.045364E+11 -1.681813E+09  1.413312E+09
       153   5  7.525612E+11  9.042102E+10  5.417315E+11 -1.252696E+11 -2.850032E+09  1.693609E+09
       153   6  9.152441E+11  7.075872E+10  5.842467E+11 -1.161118E+11 -4.476354E+09  1.569796E+09
       153   7  6.567221E+11  1.418696E+11  5.283169E+11 -1.027609E+11 -1.736541E+09  1.389296E+09
       153   8  7.538385E+11  8.181878E+10  5.384212E+11 -1.542395E+11 -2.913472E+09  2.085275E+09
       153   9  9.461770E+11  5.272718E+10  5.863268E+11 -1.650577E+11 -4.866557E+09  2.231545E+09
       153  10  6.080406E+11  8.660065E+10  4.987373E+11 -1.065642E+11 -2.842171E-04  5.329071E-05
       153  11  7.221547E+11  8.212432E+10  5.310179E+11 -1.060104E+11 -3.197442E-04 -4.440892E-05
       153  12  8.535616E+11  6.571244E+10  5.656765E+11 -8.050825E+10 -5.773160E-05 -1.443290E-05
       153  13  6.406439E+11  1.147894E+11  5.161899E+11 -1.045453E+11  8.881784E-06  1.776357E-05
       153  14  7.526124E+11  9.042645E+10  5.416983E+11 -1.252822E+11 -2.886580E-04  3.552714E-05
       153  15  9.153077E+11  7.076009E+10  5.841876E+11 -1.161247E+11 -4.440892E-06  3.108624E-05
       153  16  6.567470E+11  1.418702E+11  5.282941E+11 -1.027709E+11  0.000000E+00 -4.440892E-05
       153  17  7.538850E+11  8.182186E+10  5.383849E+11 -1.542539E+11  0.000000E+00 -7.105427E-05
       153  18  9.462387E+11  5.272542E+10  5.862592E+11 -1.650725E+11 -2.042810E-04  2.220446E-05
       153  19  6.080001E+11  8.659185E+10  4.987485E+11 -1.065560E+11  1.476039E+09 -1.440623E+09
       153  20  7.221010E+11  8.211626E+10  5.310448E+11 -1.059991E+11  2.580395E+09 -1.433064E+09
       153  21  8.534973E+11  6.570738E+10  5.657241E+11 -8.049664E+10  3.890422E+09 -1.088256E+09
       153  22  6.406091E+11  1.147842E+11  5.162074E+11 -1.045364E+11  1.681813E+09 -1.413312E+09
       153  23  7.525612E+11  9.042102E+10  5.417315E+11 -1.252696E+11  2.850032E+09 -1.693609E+09
       153  24  9.152441E+11  7.075872E+10  5.842467E+11 -1.161118E+11  4.476354E+09 -1.569796E+09
       153  25  6.567221E+11  1.418696E+11  5.283169E+11 -1.027609E+11  1.736541E+09 -1.389296E+09
       153  26  7.538385E+11  8.181878E+10  5.384212E+11 -1.542395E+11  2.913472E+09 -2.085275E+09
       153  27  9.461770E+11  5.272718E+10  5.863268E+11 -1.650577E+11  4.866557E+09 -2.231545E+09
       154   1  5.943892E+11  1.277672E+11  5.052899E+11 -9.567120E+10 -1.207366E+09  1.293409E+09
       154   2  6.245657E+11  1.356671E+11  5.166138E+11 -1.091557E+11 -1.461165E+09  1.475727E+09
       154   3  6.570571E+11  1.506698E+11  5.308063E+11 -1.243581E+11 -1.707704E+09  1.681271E+09
       154   4  7.206097E+11  1.377127E+11  5.435947E+11 -1.625710E+11 -2.400210E+09  2.197938E+09
       154   5  7.450299E+11  1.191560E+11  5.458640E+11 -1.559937E+11 -2.696990E+09  2.109023E+09
       154   6  7.523621E+11  8.588512E+10  5.386615E+11 -1.401789E+11 -2.891121E+09  1.895192E+09
       154   7  8.279234E+11  1.286733E+11  5.689640E+11 -2.560036E+11 -3.504219E+09  3.461191E+09
       154   8  8.989923E+11  1.089438E+11  5.860967E+11 -2.347739E+11 -4.232350E+09  3.174194E+09
       154   9  9.492312E+11  6.549113E+10  5.899540E+11 -1.995781E+11 -4.858712E+09  2.698289E+09
       154  10  5.944346E+11  1.277797E+11  5.052861E+11 -9.568469E+10  3.552714E-05  1.776357E-05
       154  11  6.246090E+11  1.356772E+11  5.166041E+11 -1.091694E+11 -1.776357E-04 -8.881784E-06
       154  12  6.570956E+11  1.506764E+11  5.307898E+11 -1.243715E+11  1.953993E-04  1.998401E-05
       154  13  7.206655E+11  1.377227E+11  5.435724E+11 -1.625849E+11  3.552714E-05  0.000000E+00
       154  14  7.450868E+11  1.191648E+11  5.458363E+11 -1.560074E+11  0.000000E+00 -3.552714E-05
       154  15  7.524192E+11  8.589284E+10  5.386301E+11 -1.401917E+11 -1.065814E-04  4.260481E-05
       154  16  8.279871E+11  1.286804E+11  5.689236E+11 -2.560203E+11 -1.509903E-04  0.000000E+00
       154  17  8.990597E+11  1.089483E+11  5.860439E+11 -2.347907E+11  7.016610E-04  0.000000E+00
       154  18  9.493022E+11  6.549344E+10  5.898906E+11 -1.995945E+11  4.085621E-04  2.220446E-06
       154  19  5.943892E+11  1.277672E+11  5.052899E+11 -9.567120E+10  1.207366E+09 -1.293409E+09
       154  20  6.245657E+11  1.356671E+11  5.166138E+11 -1.091557E+11  1.461165E+09 -1.475727E+09
       154  21  6.570571E+11  1.506698E+11  5.308063E+11 -1.243581E+11  1.707704E+09 -1.681271E+09
       154  22  7.206097E+11  1.377127E+11  5.435947E+11 -1.625710E+11  2.400210E+09 -2.197938E+09
       154  23  7.450299E+11  1.191560E+11  5.458640E+11 -1.559937E+11  2.696990E+09 -2.109023E+09
       154  24  7.523621E+11  8.588512E+10  5.386615E+11 -1.401789E+11  2.891121E+09 -1.895192E+09
       154  25  8.279234E+11  1.286733E+11  5.689640E+11 -2.560036E+11  3.504219E+09 -3.461191E+09
       154  26  8.989923E+11  1.089438E+11  5.860967E+11 -2.347739E+11  4.232350E+09 -3.174194E+09
       154  27  9.492312E+11  6.549113E+10  5.899540E+11 -1.995781E+11  4.858712E+09 -2.698289E+09
       155   1  1.865769E+11  2.547489E+11  4.890298E+11 -5.362510E+10  4.084950E+09  7.249689E+08
       155   2 -8.305578E+09  9.350962E+10  3.735086E+11 -4.061479E+10  5.150663E+09  5.491723E+08
       155   3 -3.532313E+10  9.789561E+09  3.288033E+11 -6.733741E+09  4.918405E+09  9.119379E+07
       155   4  1.544090E+11  1.528188E+11  4.501121E+11 -3.612016E+10  3.994268E+09  4.883033E+08
       155   5 -1.379405E+10  3.467582E+10  3.570291E+11 -2.227551E+10  5.003436E+09  3.012218E+08
       155   6 -2.509568E+10 -2.279292E+10  3.268575E+11 -9.333810E+09  4.753813E+09  1.263312E+08
       155   7  1.107811E+11  2.599585E+10  4.002469E+11 -1.580231E+10  3.910768E+09  2.136126E+08
       155   8 -3.128631E+10 -3.559802E+10  3.333737E+11  7.200798E+08  4.922284E+09 -9.674767E+06
       155   9 -3.481152E+10 -5.563531E+10  3.186023E+11 -1.803957E+10  4.774893E+09  2.440227E+08
       155  10  1.865227E+11  2.547493E+11  4.890855E+11 -5.363917E+10 -2.842171E-04  0.000000E+00
       155  11 -8.385224E+09  9.350540E+10  3.735742E+11 -4.061933E+10  3.552714E-05 -2.664535E-05
       155  12 -3.543593E+10  9.769750E+09  3.288500E+11 -6.728554E+09  3.819167E-04 -3.552714E-05
       155  13  1.543537E+11  1.528182E+11  4.501656E+11 -3.613279E+10 -1.443290E-05 -8.881784E-06
       155  14 -1.387987E+10  3.466809E+10  3.570892E+11 -2.227893E+10  1.119105E-03 -2.664535E-05
       155  15 -2.522456E+10 -2.282058E+10  3.268942E+11 -9.329782E+09  5.329071E-05 -4.440892E-06
       155  16  1.107244E+11  2.599423E+10  4.002982E+11 -1.581272E+10  2.842171E-04 -1.776357E-05
       155  17 -3.138130E+10 -3.561016E+10  3.334282E+11  7.187972E+08  2.842171E-04  1.332268E-05
       155  18 -3.496680E+10 -5.567417E+10  3.186281E+11 -1.803650E+10  3.552714E-05 -6.383782E-06
       155  19  1.865769E+11  2.547489E+11  4.890298E+11 -5.362510E+10 -4.084950E+09 -7.249689E+08
       155  20 -8.305578E+09  9.350962E+10  3.735086E+11 -4.061479E+10 -5.150663E+09 -5.491723E+08
       155  21 -3.532313E+10  9.789561E+09  3.288033E+11 -6.733741E+09 -4.918405E+09 -9.119379E+07
       155  22  1.544090E+11  1.528188E+11  4.501121E+11 -3.612016E+10 -3.994268E+09 -4.883033E+08
       155  23 -1.379405E+10  3.467582E+10  3.570291E+11 -2.227551E+10 -5.003436E+09 -3.012218E+08
       155  24 -2.509568E+10 -2.279292E+10  3.268575E+11 -9.333810E+09 -4.753813E+09 -1.263312E+08
       155  25  1.107811E+11  2.599585E+10  4.002469E+11 -1.580231E+10 -3.910768E+09 -2.136126E+08
       155  26 -3.128631E+10 -3.559802E+10  3.333737E+11  7.200798E+08 -4.922284E+09  9.674767E+06
       155  27 -3.481152E+10 -5.563531E+10  3.186023E+11 -1.803957E+10 -4.774893E+09 -2.440227E+08
       156   1  7.567327E+10  7.629567E+09  3.535086E+11  2.587751E+09  3.753563E+09 -3.487994E+07
       156   2 -6.890774E+10 -8.985391E+10  2.657435E+11 -1.473643E+10  4.516604E+09  1.993803E+08
       156   3 -7.348623E+09 -8.299643E+10  2.694695E+11  4.940007E+09  3.737610E+09 -6.660103E+07
       156   4  4.281385E+10 -3.454644E+10  3.378133E+11 -1.425284E+10  3.985361E+09  1.927689E+08
       156   5 -6.447268E+08 -9.340918E+10  2.972119E+11 -2.067504E+10  4.018645E+09  2.796183E+08
       156   6  7.791066E+10 -8.052548E+10  3.136576E+11  5.116165E+09  3.178882E+09 -6.904367E+07
       156   7 -6.812851E+08 -8.010353E+10  3.174679E+11 -3.310310E+10  4.300422E+09  4.475956E+08
       156   8 -2.683613E+10 -1.381574E+11  2.869487E+11 -2.289072E+10  4.238989E+09  3.095248E+08
       156   9 -1.551162E+10 -1.553148E+11  2.794235E+11  1.067079E+10  3.984317E+09 -1.442011E+08
       156  10  7.568748E+10  7.657429E+09  3.535873E+11  2.586733E+09  4.263256E-04  3.552714E-05
       156  11 -6.893179E+10 -8.983800E+10  2.658206E+11 -1.473571E+10  2.131628E-04 -8.881784E-06
       156  12 -7.397591E+09 -8.299572E+10  2.695209E+11  4.945314E+09  3.774758E-05 -2.442491E-05
       156  13  4.280129E+10 -3.452871E+10  3.378850E+11 -1.425768E+10 -5.861978E-04 -1.332268E-05
       156  14 -6.975618E+08 -9.340848E+10  2.972670E+11 -2.067911E+10  2.842171E-04  3.774758E-05
       156  15  7.783242E+10 -8.054054E+10  3.136856E+11  5.116108E+09 -2.842171E-04 -4.385381E-05
       156  16 -7.369373E+08 -8.010245E+10  3.175271E+11 -3.311116E+10  6.394885E-04  1.776357E-05
       156  17 -2.693260E+10 -1.381742E+11  2.869893E+11 -2.289914E+10  4.618528E-04  8.881784E-06
       156  18 -1.563252E+10 -1.553435E+11  2.794488E+11  1.066585E+10  8.526513E-04 -1.332268E-05
       156  19  7.567327E+10  7.629567E+09  3.535086E+11  2.587751E+09 -3.753563E+09  3.487994E+07
       156  20 -6.890774E+10 -8.985391E+10  2.657435E+11 -1.473643E+10 -4.516604E+09 -1.993803E+08
       156  21 -7.348623E+09 -8.299643E+10  2.694695E+11  4.940007E+09 -3.737610E+09  6.660103E+07
       156  22  4.281385E+10 -3.454644E+10  3.378133E+11 -1.425284E+10 -3.985361E+09 -1.927689E+08
       156  23 -6.447268E+08 -9.340918E+10  2.972119E+11 -2.067504E+10 -4.018645E+09 -2.796183E+08
       156  24  7.791066E+10 -8.052548E+10  3.136576E+11  5.116165E+09 -3.178882E+09  6.904367E+07
       156  25 -6.812851E+08 -8.010353E+10  3.174679E+11 -3.310310E+10 -4.300422E+09 -4.475956E+08
       156  26 -2.683613E+10 -1.381574E+11  2.869487E+11 -2.289072E+10 -4.238989E+09 -3.095248E+08
       156  27 -1.551162E+10 -1.553148E+11  2.794235E+11  1.067079E+10 -3.984317E+09  1.442011E+08
       157   1  5.619497E+10 -6.649740E+10  3.567102E+11 -1.012313E+10  4.060005E+09  1.368303E+08
       157   2  1.308278E+10 -6.406864E+10  3.387041E+11 -3.945410E+09  4.394052E+09  5.342340E+07
       157   3 -1.723295E+10 -6.082606E+10  3.227250E+11 -1.054863E+10  4.593171E+09  1.428156E+08
       157   4  2.885348E+10 -1.813229E+11  3.148157E+11 -1.885556E+10  3.861648E+09  2.548713E+08
       157   5  2.199753E+10 -1.397241E+11  3.178849E+11 -1.484648E+10  3.987947E+09  2.007951E+08
       157   6 -5.570581E+10 -1.283807E+11  2.877431E+11 -4.378864E+09  4.638111E+09  5.940488E+07
       157   7  4.155929E+09 -2.853631E+11  2.768981E+11 -3.145710E+10  3.681598E+09  4.252314E+08
       157   8  2.998795E+10 -2.154580E+11  2.965806E+11 -2.600576E+10  3.588708E+09  3.516669E+08
       157   9 -6.782984E+10 -1.992100E+11  2.593702E+11 -9.025412E+08  4.417721E+09  1.241732E+07
       157  10  5.615014E+10 -6.649307E+10  3.567695E+11 -1.013309E+10 -2.842171E-04  8.881784E-06
       157  11  1.307240E+10 -6.404758E+10  3.387847E+11 -3.944497E+09  5.684342E-04 -4.440892E-05
       157  12 -1.718735E+10 -6.077988E+10  3.228334E+11 -1.053740E+10 -5.861978E-04 -1.332268E-05
       157  13  2.880774E+10 -1.813201E+11  3.148707E+11 -1.886837E+10  1.443290E-05  2.664535E-05
       157  14  2.198006E+10 -1.397084E+11  3.179547E+11 -1.484772E+10 -5.329071E-04  2.664535E-05
       157  15 -5.568314E+10 -1.283441E+11  2.878425E+11 -4.367655E+09  6.572520E-04  4.884981E-05
       157  16  4.109576E+09 -2.853616E+11  2.769495E+11 -3.147209E+10 -2.842171E-04  4.218847E-05
       157  17  2.996596E+10 -2.154466E+11  2.966408E+11 -2.600820E+10 -1.030287E-03  8.881784E-06
       157  18 -6.782064E+10 -1.991804E+11  2.594597E+11 -8.905892E+08  4.174439E-04 -1.110223E-05
       157  19  5.619497E+10 -6.649740E+10  3.567102E+11 -1.012313E+10 -4.060005E+09 -1.368303E+08
       157  20  1.308278E+10 -6.406864E+10  3.387041E+11 -3.945410E+09 -4.394052E+09 -5.342340E+07
       157  21 -1.723295E+10 -6.082606E+10  3.227250E+11 -1.054863E+10 -4.593171E+09 -1.428156E+08
       157  22  2.885348E+10 -1.813229E+11  3.148157E+11 -1.885556E+10 -3.861648E+09 -2.548713E+08
       157  23  2.199753E+10 -1.397241E+11  3.178849E+11 -1.484648E+10 -3.987947E+09 -2.007951E+08
       157  24 -5.570581E+10 -1.283807E+11  2.877431E+11 -4.378864E+09 -4.638111E+09 -5.940488E+07
       157  25  4.155929E+09 -2.853631E+11  2.768981E+11 -3.145710E+10 -3.681598E+09 -4.252314E+08
       157  26  2.998795E+10 -2.154580E+11  2.965806E+11 -2.600576E+10 -3.588708E+09 -3.516669E+08
       157  27 -6.782984E+10 -1.992100E+11  2.593702E+11 -9.025412E+08 -4.417721E+09 -1.241732E+07
       158   1 -1.492416E+10 -2.957968E+11  2.704416E+11  4.765807E+10  3.857556E+09 -6.438052E+08
       158   2 -4.749888E+09 -2.016948E+11  3.030094E+11  4.350847E+10  4.158535E+09 -5.875098E+08
       158   3 -2.750369E+10 -3.263621E+10  3.477156E+11  2.897475E+10  5.072487E+09 -3.917470E+08
       158   4  2.778108E+10 -1.749918E+11  3.184564E+11  5.763355E+10  3.929607E+09 -7.788562E+08
       158   5  2.482495E+10 -1.135359E+11  3.373525E+11  5.317840E+10  4.223744E+09 -7.185004E+08
       158   6 -1.130267E+10 -2.199888E+10  3.549374E+11  5.496865E+10  4.951374E+09 -7.431397E+08
       158   7  7.854942E+10 -3.410316E+10  3.749007E+11  6.966944E+10  4.006720E+09 -9.417849E+08
       158   8  5.617147E+10 -2.285226E+10  3.729653E+11  6.199595E+10  4.282301E+09 -8.380472E+08
       158   9  1.859967E+08 -7.632509E+10  3.412367E+11  8.840302E+10  4.611204E+09 -1.195215E+09
       158  10 -1.497915E+10 -2.958041E+11  2.704907E+11  4.766770E+10  7.105427E-05  2.553513E-05
       158  11 -4.797169E+09 -2.016903E+11  3.030697E+11  4.351077E+10  4.263256E-04 -2.664535E-05
       158  12 -2.754117E+10 -3.262203E+10  3.477978E+11  2.896717E+10  9.769963E-05  4.218847E-05
       158  13  2.772740E+10 -1.749961E+11  3.185081E+11  5.764326E+10  5.528911E-04  3.552714E-05
       158  14  2.477954E+10 -1.135294E+11  3.374151E+11  5.318073E+10  3.197442E-04 -7.105427E-05
       158  15 -1.133522E+10 -2.198146E+10  3.550199E+11  5.496256E+10 -3.907985E-04 -3.108624E-05
       158  16  7.849796E+10 -3.410233E+10  3.749559E+11  6.967875E+10 -2.131628E-04  5.329071E-05
       158  17  5.612930E+10 -2.284258E+10  3.730308E+11  6.199747E+10  1.421085E-04  6.217249E-05
       158  18  1.618153E+08 -7.630544E+10  3.413164E+11  8.839893E+10 -9.237056E-04 -6.661338E-05
       158  19 -1.492416E+10 -2.957968E+11  2.704416E+11  4.765807E+10 -3.857556E+09  6.438052E+08
       158  20 -4.749888E+09 -2.016948E+11  3.030094E+11  4.350847E+10 -4.158535E+09  5.875098E+08
       158  21 -2.750369E+10 -3.263621E+10  3.477156E+11  2.897475E+10 -5.072487E+09  3.917470E+08
       158  22  2.778108E+10 -1.749918E+11  3.184564E+11  5.763355E+10 -3.929607E+09  7.788562E+08
       158  23  2.482495E+10 -1.135359E+11  3.373525E+11  5.317840E+10 -4.223744E+09  7.185004E+08
       158  24 -1.130267E+10 -2.199888E+10  3.549374E+11  5.496865E+10 -4.951374E+09  7.431397E+08
       158  25  7.854942E+10 -3.410316E+10  3.749007E+11  6.966944E+10 -4.006720E+09  9.417849E+08
       158  26  5.617147E+10 -2.285226E+10  3.729653E+11  6.199595E+10 -4.282301E+09  8.380472E+08
       158  27  1.859967E+08 -7.632509E+10  3.412367E+11  8.840302E+10 -4.611204E+09  1.195215E+09
       159   1 -1.007254E+10  8.351116E+10  3.880187E+11  3.767877E+10  5.382138E+09 -5.094251E+08
       159   2  1.244424E+11  1.727051E+11  4.553272E+11  7.498567E+10  4.472019E+09 -1.013816E+09
       159   3  1.224229E+11  2.585423E+11  4.805010E+11  1.264173E+11  4.840119E+09 -1.709064E+09
       159   4  2.372289E+10 -8.255458E+09  3.698658E+11  6.350495E+10  4.679756E+09 -8.584551E+08
       159   5  5.575173E+10  1.475312E+10  3.865971E+11  9.559147E+10  4.471296E+09 -1.292171E+09
       159   6  5.054926E+10  3.509699E+10  3.912634E+11  1.314313E+11  4.604215E+09 -1.776831E+09
       159   7  2.562200E+10 -2.173457E+10  3.655230E+11  8.233091E+10  4.595916E+09 -1.113031E+09
       159   8  2.846980E+10  4.561301E+08  3.730409E+11  7.953769E+10  4.658501E+09 -1.075253E+09
       159   9  6.260516E+10  4.121714E+10  3.954841E+11  7.947869E+10  4.500153E+09 -1.074503E+09
       159  10 -1.017604E+10  8.349928E+10  3.880787E+11  3.769041E+10 -4.263256E-04  1.421085E-04
       159  11  1.243485E+11  1.726903E+11  4.553732E+11  7.499963E+10  2.131628E-04  2.220446E-04
       159  12  1.223270E+11  2.585220E+11  4.805512E+11  1.264345E+11 -1.953993E-04  7.327472E-05
       159  13  2.363647E+10 -8.267066E+09  3.699186E+11  6.351873E+10 -4.263256E-04  1.421085E-04
       159  14  5.568260E+10  1.475003E+10  3.866541E+11  9.560382E+10 -1.065814E-03 -1.776357E-05
       159  15  5.049307E+10  3.510291E+10  3.913293E+11  1.314414E+11  7.105427E-05 -2.398082E-04
       159  16  2.555770E+10 -2.173643E+10  3.655839E+11  8.234170E+10  0.000000E+00 -3.552714E-05
       159  17  2.842061E+10  4.620844E+08  3.731098E+11  7.954631E+10 -7.105427E-04 -3.552714E-05
       159  18  6.256398E+10  4.122625E+10  3.955536E+11  7.948570E+10 -5.329071E-04  1.043610E-04
       159  19 -1.007254E+10  8.351116E+10  3.880187E+11  3.767877E+10 -5.382138E+09  5.094251E+08
       159  20  1.244424E+11  1.727051E+11  4.553272E+11  7.498567E+10 -4.472019E+09  1.013816E+09
       159  21  1.224229E+11  2.585423E+11  4.805010E+11  1.264173E+11 -4.840119E+09  1.709064E+09
       159  22  2.372289E+10 -8.255458E+09  3.698658E+11  6.350495E+10 -4.679756E+09  8.584551E+08
       159  23  5.575173E+10  1.475312E+10  3.865971E+11  9.559147E+10 -4.471296E+09  1.292171E+09
       159  24  5.054926E+10  3.509699E+10  3.912634E+11  1.314313E+11 -4.604215E+09  1.776831E+09
       159  25  2.562200E+10 -2.173457E+10  3.655230E+11  8.233091E+10 -4.595916E+09  1.113031E+09
       159  26  2.846980E+10  4.561301E+08  3.730409E+11  7.953769E+10 -4.658501E+09  1.075253E+09
       159  27  6.260516E+10  4.121714E+10  3.954841E+11  7.947869E+10 -4.500153E+09  1.074503E+09
       160   1  1.412709E+11  4.128109E+10  4.157824E+11  7.704735E+10  3.711503E+09 -1.041596E+09
       160   2  3.335932E+10 -5.191272E+10  3.569533E+11  1.023173E+11  4.374511E+09 -1.383277E+09
       160   3 -1.974259E+09 -5.133966E+10  3.477731E+11  9.029793E+10  4.728824E+09 -1.220798E+09
       160   4  1.548950E+11  8.334886E+10  4.316334E+11  1.057141E+11  3.741614E+09 -1.429172E+09
       160   5  6.076608E+10 -2.223907E+09  3.795380E+11  1.240394E+11  4.309369E+09 -1.676957E+09
       160   6  3.563410E+10  7.271118E+09  3.764369E+11  1.088271E+11  4.607879E+09 -1.471307E+09
       160   7  1.634853E+11  1.156150E+11  4.430197E+11  1.291265E+11  3.779515E+09 -1.745710E+09
       160   8  7.945739E+10  3.745913E+10  3.964882E+11  1.411201E+11  4.285988E+09 -1.907887E+09
       160   9  6.043163E+10  5.505501E+10  3.979886E+11  1.221109E+11  4.564091E+09 -1.650902E+09
       160  10  1.412209E+11  4.128117E+10  4.158327E+11  7.705766E+10  0.000000E+00  0.000000E+00
       160  11  3.330033E+10 -5.191265E+10  3.570126E+11  1.023266E+11  4.973799E-04  9.769963E-05
       160  12 -2.048409E+09 -5.134404E+10  3.478327E+11  9.030513E+10 -4.618528E-04  5.773160E-05
       160  13  1.548453E+11  8.334924E+10  4.316844E+11  1.057260E+11 -7.771561E-06  1.598721E-04
       160  14  6.070907E+10 -2.223364E+09  3.795968E+11  1.240505E+11  3.197442E-04  5.329071E-05
       160  15  3.556625E+10  7.268740E+09  3.764969E+11  1.088360E+11 -8.704149E-04  1.332268E-05
       160  16  1.634359E+11  1.156157E+11  4.430715E+11  1.291398E+11  2.842171E-04  5.329071E-05
       160  17  7.940171E+10  3.746011E+10  3.965471E+11  1.411323E+11  2.131628E-04  5.329071E-05
       160  18  6.036748E+10  5.505397E+10  3.980493E+11  1.221208E+11  6.217249E-04  1.998401E-05
       160  19  1.412709E+11  4.128109E+10  4.157824E+11  7.704735E+10 -3.711503E+09  1.041596E+09
       160  20  3.335932E+10 -5.191272E+10  3.569533E+11  1.023173E+11 -4.374511E+09  1.383277E+09
       160  21 -1.974259E+09 -5.133966E+10  3.477731E+11  9.029793E+10 -4.728824E+09  1.220798E+09
       160  22  1.548950E+11  8.334886E+10  4.316334E+11  1.057141E+11 -3.741614E+09  1.429172E+09
       160  23  6.076608E+10 -2.223907E+09  3.795380E+11  1.240394E+11 -4.309369E+09  1.676957E+09
       160  24  3.563410E+10  7.271118E+09  3.764369E+11  1.088271E+11 -4.607879E+09  1.471307E+09
       160  25  1.634853E+11  1.156150E+11  4.430197E+11  1.291265E+11 -3.779515E+09  1.745710E+09
       160  26  7.945739E+10  3.745913E+10  3.964882E+11  1.411201E+11 -4.285988E+09  1.907887E+09
       160  27  6.043163E+10  5.505501E+10  3.979886E+11  1.221109E+11 -4.564091E+09  1.650902E+09
       161   1 -2.307309E+09 -1.546828E+11  3.126884E+11  4.467896E+10  4.255869E+09 -6.040313E+08
       161   2  4.410836E+10 -5.045071E+10  3.488350E+11  3.723756E+10  4.111612E+09 -5.034946E+08
       161   3 -3.837638E+09  1.814004E+09  3.390858E+11  7.956105E+09  4.633349E+09 -1.076801E+08
       161   4  1.982096E+10 -9.406529E+10  3.367181E+11  3.760881E+10  4.282279E+09 -5.084478E+08
       161   5  3.625847E+10 -2.295628E+10  3.555011E+11  2.508511E+10  4.309494E+09 -3.391936E+08
       161   6 -1.914873E+10  1.472743E+10  3.411077E+11  4.875257E+09  4.868035E+09 -6.601759E+07
       161   7  4.761045E+10 -1.785273E+10  3.671146E+11  3.198485E+10  4.318300E+09 -4.324215E+08
       161   8  2.849694E+10  8.712194E+09  3.633504E+11  1.205758E+10  4.522661E+09 -1.630654E+08
       161   9 -2.935044E+10  2.478434E+10  3.436297E+11  6.082115E+09  5.041291E+09 -8.232576E+07
       161  10 -2.362680E+09 -1.546818E+11  3.127470E+11  4.468993E+10  0.000000E+00  4.440892E-06
       161  11  4.406642E+10 -5.044481E+10  3.488966E+11  3.724196E+10  3.552714E-04  8.881784E-06
       161  12 -3.862928E+09  1.830032E+09  3.391646E+11  7.952817E+09  3.641532E-04  1.387779E-05
       161  13  1.976607E+10 -9.406398E+10  3.367773E+11  3.761877E+10 -5.551115E-06 -1.776357E-05
       161  14  3.621888E+10 -2.294824E+10  3.555675E+11  2.508871E+10 -5.595524E-04 -2.664535E-05
       161  15 -1.916729E+10  1.474770E+10  3.411938E+11  4.872535E+09 -4.618528E-04 -1.332268E-05
       161  16  4.755620E+10 -1.785094E+10  3.671748E+11  3.199343E+10  3.552714E-04  2.220446E-05
       161  17  2.846102E+10  8.723036E+09  3.634225E+11  1.205983E+10  3.552714E-04  1.110223E-05
       161  18 -2.935745E+10  2.481056E+10  3.437241E+11  6.079955E+09 -5.329071E-04 -6.938894E-06
       161  19 -2.307309E+09 -1.546828E+11  3.126884E+11  4.467896E+10 -4.255869E+09  6.040313E+08
       161  20  4.410836E+10 -5.045071E+10  3.488350E+11  3.723756E+10 -4.111612E+09  5.034946E+08
       161  21 -3.837638E+09  1.814004E+09  3.390858E+11  7.956105E+09 -4.633349E+09  1.076801E+08
       161  22  1.982096E+10 -9.406529E+10  3.367181E+11  3.760881E+10 -4.282279E+09  5.084478E+08
       161  23  3.625847E+10 -2.295628E+10  3.555011E+11  2.508511E+10 -4.309494E+09  3.391936E+08
       161  24 -1.914873E+10  1.472743E+10  3.411077E+11  4.875257E+09 -4.868035E+09  6.601759E+07
       161  25  4.761045E+10 -1.785273E+10  3.671146E+11  3.198485E+10 -4.318300E+09  4.324215E+08
       161  26  2.849694E+10  8.712194E+09  3.633504E+11  1.205758E+10 -4.522661E+09  1.630654E+08
       161  27 -2.935044E+10  2.478434E+10  3.436297E+11  6.082115E+09 -5.041291E+09  8.232576E+07
       162   1 -5.500391E+10 -7.470994E+09  3.137439E+11  6.222862E+09  4.985557E+09 -8.422314E+07
       162   2  2.318693E+10  8.032287E+09  3.293621E+11  1.187322E+10  4.138893E+09 -1.606196E+08
       162   3  1.992537E+10 -1.849103E+10  3.078177E+11  2.226460E+09  3.892047E+09 -3.020108E+07
       162   4 -6.929603E+10  8.690518E+09  3.187280E+11  1.464551E+10  5.245680E+09 -1.980813E+08
       162   5  2.995934E+09  3.331416E+10  3.388471E+11  1.898788E+10  4.539477E+09 -2.567952E+08
       162   6 -1.928543E+10  3.694135E+09  3.141667E+11  2.320548E+08  4.507295E+09 -3.225587E+06
       162   7 -1.988834E+09  5.732930E+10  3.577293E+11  2.347730E+10  4.863474E+09 -3.174680E+08
       162   8  5.312119E+10  8.954056E+10  3.784456E+11  1.984440E+10  4.397814E+09 -2.683624E+08
       162   9 -1.692626E+08  5.115479E+10  3.452782E+11 -1.512693E+10  4.670358E+09  2.044339E+08
       162  10 -5.508966E+10 -7.478853E+09  3.138034E+11  6.222733E+09  2.842171E-04 -4.440892E-06
       162  11  2.311616E+10  8.025942E+09  3.294117E+11  1.187327E+10 -3.552714E-05  4.440892E-06
       162  12  1.986518E+10 -1.849427E+10  3.078671E+11  2.225568E+09  1.554312E-04  6.661338E-06
       162  13 -6.937489E+10  8.687120E+09  3.187956E+11  1.464724E+10 -3.552714E-05 -8.881784E-06
       162  14  2.932174E+09  3.331314E+10  3.389075E+11  1.898962E+10  0.000000E+00  6.661338E-06
       162  15 -1.933939E+10  3.697136E+09  3.142306E+11  2.320513E+08 -1.421085E-04 -2.470246E-05
       162  16 -2.054818E+09  5.732921E+10  3.577950E+11  2.348106E+10 -2.842171E-04  8.881784E-06
       162  17  5.306947E+10  8.954388E+10  3.785084E+11  1.984731E+10  1.065814E-04 -2.664535E-05
       162  18 -2.129261E+08  5.116314E+10  3.453497E+11 -1.512726E+10  1.776357E-05 -4.440892E-06
       162  19 -5.500391E+10 -7.470994E+09  3.137439E+11  6.222862E+09 -4.985557E+09  8.422314E+07
       162  20  2.318693E+10  8.032287E+09  3.293621E+11  1.187322E+10 -4.138893E+09  1.606196E+08
       162  21  1.992537E+10 -1.849103E+10  3.078177E+11  2.226460E+09 -3.892047E+09  3.020108E+07
       162  22 -6.929603E+10  8.690518E+09  3.187280E+11  1.464551E+10 -5.245680E+09  1.980813E+08
       162  23  2.995934E+09  3.331416E+10  3.388471E+11  1.898788E+10 -4.539477E+09  2.567952E+08
       162  24 -1.928543E+10  3.694135E+09  3.141667E+11  2.320548E+08 -4.507295E+09  3.225587E+06
       162  25 -1.988834E+09  5.732930E+10  3.577293E+11  2.347730E+10 -4.863474E+09  3.174680E+08
       162  26  5.312119E+10  8.954056E+10  3.784456E+11  1.984440E+10 -4.397814E+09  2.683624E+08
       162  27 -1.692626E+08  5.115479E+10  3.452782E+11 -1.512693E+10 -4.670358E+09 -2.044339E+08
       163   1  1.071636E+11  5.172436E+10  4.052432E+11  3.055567E+10  4.028693E+09 -4.131058E+08
       163   2 -1.782262E+10  1.667978E+10  3.512769E+11  7.320480E+09  4.985964E+09 -9.903480E+07
       163   3 -1.011095E+10  4.534815E+10  3.551414E+11  1.195820E+10  4.936629E+09 -1.618021E+08
       163   4  1.395819E+11  1.350558E+11  4.386496E+11  3.865313E+10  4.041725E+09 -5.225843E+08
       163   5  7.052266E+07  7.642107E+10  3.719660E+11  1.554581E+10  5.022867E+09 -2.102379E+08
       163   6 -2.508634E+10  6.812266E+10  3.534394E+11  6.218521E+09  5.115446E+09 -8.419467E+07
       163   7  1.648108E+11  2.037940E+11  4.655016E+11  4.403856E+10  4.063483E+09 -5.953990E+08
       163   8  8.669246E+09  1.251162E+11  3.864641E+11  1.981863E+10  5.102257E+09 -2.680081E+08
       163   9 -4.519448E+10  8.992999E+10  3.497485E+11  2.599700E+08  5.337667E+09 -3.636301E+06
       163  10  1.071084E+11  5.172406E+10  4.052974E+11  3.056358E+10  2.842171E-04  8.881784E-06
       163  11 -1.790285E+10  1.667431E+10  3.513389E+11  7.320872E+09 -6.394885E-04  8.881784E-06
       163  12 -1.022999E+10  4.532574E+10  3.551858E+11  1.195280E+10  1.953993E-04  4.440892E-06
       163  13  1.395277E+11  1.350560E+11  4.387045E+11  3.866174E+10 -5.662137E-04  4.440892E-05
       163  14 -3.658692E+06  7.641842E+10  3.720314E+11  1.554738E+10 -2.753353E-04  8.881784E-06
       163  15 -2.518851E+10  6.810853E+10  3.534945E+11  6.214015E+09  5.329071E-04  1.110223E-05
       163  16  1.647574E+11  2.037946E+11  4.655573E+11  4.404737E+10 -3.552714E-04 -4.440892E-06
       163  17  8.599165E+09  1.251157E+11  3.865327E+11  1.982052E+10 -5.329071E-04  2.220446E-06
       163  18 -4.528631E+10  8.992158E+10  3.498123E+11  2.553265E+08  5.506706E-04  1.998401E-05
       163  19  1.071636E+11  5.172436E+10  4.052432E+11  3.055567E+10 -4.028693E+09  4.131058E+08
       163  20 -1.782262E+10  1.667978E+10  3.512769E+11  7.320480E+09 -4.985964E+09  9.903480E+07
       163  21 -1.011095E+10  4.534815E+10  3.551414E+11  1.195820E+10 -4.936629E+09  1.618021E+08
       163  22  1.395819E+11  1.350558E+11  4.386496E+11  3.865313E+10 -4.041725E+09  5.225843E+08
       163  23  7.052266E+07  7.642107E+10  3.719660E+11  1.554581E+10 -5.022867E+09  2.102379E+08
       163  24 -2.508634E+10  6.812266E+10  3.534394E+11  6.218521E+09 -5.115446E+09  8.419467E+07
       163  25  1.648108E+11  2.037940E+11  4.655016E+11  4.403856E+10 -4.063483E+09  5.953990E+08
       163  26  8.669246E+09  1.251162E+11  3.864641E+11  1.981863E+10 -5.102257E+09  2.680081E+08
       163  27 -4.519448E+10  8.992999E+10  3.497485E+11  2.599700E+08 -5.337667E+09  3.636301E+06
       164   1  1.480812E+11  9.790398E+10  4.316326E+11 -1.258608E+11  3.833849E+09  1.701556E+09
       164   2  7.234143E+10  3.763983E+10  3.930494E+11 -1.339079E+11  4.335711E+09  1.810379E+09
       164   3  6.274849E+10  6.650256E+10  4.008519E+11 -1.117233E+11  4.571483E+09  1.510463E+09
       164   4  1.381373E+11  7.440089E+10  4.224847E+11 -9.775313E+10  3.844543E+09  1.321541E+09
       164   5  5.368295E+10  7.489005E+09  3.789675E+11 -1.141372E+11  4.397438E+09  1.543083E+09
       164   6  3.920738E+10  2.348979E+10  3.810859E+11 -9.954113E+10  4.622433E+09  1.345763E+09
       164   7  1.220504E+11  3.857002E+10  4.077938E+11 -6.415957E+10  3.863382E+09  8.673571E+08
       164   8  2.700916E+10 -3.138819E+10  3.598541E+11 -8.999246E+10  4.499562E+09  1.216650E+09
       164   9  6.824660E+09 -2.576763E+10  3.567789E+11 -8.453983E+10  4.731608E+09  1.142952E+09
       164  10  1.480305E+11  9.790447E+10  4.316850E+11 -1.258740E+11  2.131628E-04  0.000000E+00
       164  11  7.228483E+10  3.764070E+10  3.931089E+11 -1.339195E+11 -3.552714E-04  1.332268E-05
       164  12  6.268391E+10  6.650138E+10  4.009126E+11 -1.117324E+11  3.907985E-04  2.498002E-04
       164  13  1.380863E+11  7.440131E+10  4.225372E+11 -9.776448E+10  0.000000E+00  1.243450E-04
       164  14  5.362503E+10  7.489665E+09  3.790277E+11 -1.141473E+11  5.595524E-04 -8.881784E-06
       164  15  3.913932E+10  2.348740E+10  3.811460E+11 -9.954914E+10 -7.105427E-05 -6.661338E-06
       164  16  1.219990E+11  3.857039E+10  4.078464E+11 -6.416874E+10  2.842171E-04 -1.776357E-05
       164  17  2.694929E+10 -3.138777E+10  3.599153E+11 -9.000050E+10  2.842171E-04  2.220446E-05
       164  18  6.750672E+09 -2.577193E+10  3.568386E+11 -8.454631E+10  5.684342E-04  5.995204E-05
       164  19  1.480812E+11  9.790398E+10  4.316326E+11 -1.258608E+11 -3.833849E+09 -1.701556E+09
       164  20  7.234143E+10  3.763983E+10  3.930494E+11 -1.339079E+11 -4.335711E+09 -1.810379E+09
       164  21  6.274849E+10  6.650256E+10  4.008519E+11 -1.117233E+11 -4.571483E+09 -1.510463E+09
       164  22  1.381373E+11  7.440089E+10  4.224847E+11 -9.775313E+10 -3.844543E+09 -1.321541E+09
       164  23  5.368295E+10  7.489005E+09  3.789675E+11 -1.141372E+11 -4.397438E+09 -1.543083E+09
       164  24  3.920738E+10  2.348979E+10  3.810859E+11 -9.954113E+10 -4.622433E+09 -1.345763E+09
       164  25  1.220504E+11  3.857002E+10  4.077938E+11 -6.415957E+10 -3.863382E+09 -8.673571E+08
       164  26  2.700916E+10 -3.138819E+10  3.598541E+11 -8.999246E+10 -4.499562E+09 -1.216650E+09
       164  27  6.824660E+09 -2.576763E+10  3.567789E+11 -8.453983E+10 -4.731608E+09 -1.142952E+09
       165   1  6.416001E+10  5.770986E+10  3.996904E+11 -7.754308E+10  4.535997E+09  1.048329E+09
       165   2  5.241871E+10  4.816302E+10  3.946425E+11 -1.308904E+11  4.624589E+09  1.769504E+09
       165   3  1.236056E+11  2.535944E+11  4.783694E+11 -1.298302E+11  4.795282E+09  1.755168E+09
       165   4  2.568529E+10  1.566304E+10  3.755220E+11 -7.830771E+10  4.729705E+09  1.058617E+09
       165   5  5.514739E+10  2.978993E+10  3.897646E+11 -9.564890E+10  4.522258E+09  1.292919E+09
       165   6  1.250349E+11  1.786059E+11  4.561902E+11 -7.828514E+10  4.475640E+09  1.058350E+09
       165   7  1.927187E+10 -7.616603E+09  3.665735E+11 -8.088796E+10  4.695986E+09  1.093520E+09
       165   8  2.269975E+10  8.927612E+09  3.734902E+11 -6.360414E+10  4.742573E+09  8.597837E+08
       165   9 -8.428386E+09  9.479947E+10  3.907261E+11 -4.151277E+10  5.396495E+09  5.612274E+08
       165  10  6.411843E+10  5.771910E+10  3.997605E+11 -7.754995E+10 -1.421085E-04 -8.881784E-06
       165  11  5.236275E+10  4.816987E+10  3.947091E+11 -1.309001E+11 -9.947598E-04 -2.664535E-04
       165  12  1.235114E+11  2.535779E+11  4.784205E+11 -1.298467E+11 -2.819966E-04  4.274359E-04
       165  13  2.563561E+10  1.566920E+10  3.755921E+11 -7.831618E+10  1.172396E-03  1.110223E-06
       165  14  5.507785E+10  2.978706E+10  3.898224E+11 -9.566116E+10  1.136868E-03  8.881784E-06
       165  15  1.249407E+11  1.785914E+11  4.562362E+11 -7.829929E+10 -1.421085E-04 -3.552714E-05
       165  16  1.920680E+10 -7.618281E+09  3.666360E+11 -8.089858E+10 -1.421085E-04  1.509903E-04
       165  17  2.261224E+10  8.915609E+09  3.735437E+11 -6.361806E+10  7.815970E-04 -7.993606E-05
       165  18 -8.533213E+09  9.478642E+10  3.907856E+11 -4.152511E+10  5.684342E-04  2.220446E-06
       165  19  6.416001E+10  5.770986E+10  3.996904E+11 -7.754308E+10 -4.535997E+09 -1.048329E+09
       165  20  5.241871E+10  4.816302E+10  3.946425E+11 -1.308904E+11 -4.624589E+09 -1.769504E+09
       165  21  1.236056E+11  2.535944E+11  4.783694E+11 -1.298302E+11 -4.795282E+09 -1.755168E+09
       165  22  2.568529E+10  1.566304E+10  3.755220E+11 -7.830771E+10 -4.729705E+09 -1.058617E+09
       165  23  5.514739E+10  2.978993E+10  3.897646E+11 -9.564890E+10 -4.522258E+09 -1.292919E+09
       165  24  1.250349E+11  1.786059E+11  4.561902E+11 -7.828514E+10 -4.475640E+09 -1.058350E+09
       165  25  1.927187E+10 -7.616603E+09  3.665735E+11 -8.088796E+10 -4.695986E+09 -1.093520E+09
       165  26  2.269975E+10  8.927612E+09  3.734902E+11 -6.360414E+10 -4.742573E+09 -8.597837E+08
       165  27 -8.428386E+09  9.479947E+10  3.907261E+11 -4.151277E+10 -5.396495E+09 -5.612274E+08
       166   1  5.746728E+10 -1.209262E+10  3.737970E+11 -5.324269E+10  4.276912E+09  7.197043E+08
       166   2  6.058115E+10  3.288105E+09  3.807891E+11 -5.236521E+10  4.328487E+09  7.078383E+08
       166   3 -9.099113E+09 -5.877597E+10  3.424136E+11 -8.952741E+10  4.752667E+09  1.210408E+09
       166   4  3.434686E+07 -1.402288E+11  3.192561E+11 -5.671341E+10  4.315815E+09  7.664384E+08
       166   5  2.074858E+10 -8.012016E+10  3.448351E+11 -5.295289E+10  4.380356E+09  7.154497E+08
       166   6  1.988550E+08  2.838200E+09  3.645721E+11 -5.289044E+10  4.926227E+09  7.150148E+08
       166   7 -5.011094E+10 -2.515647E+11  2.719518E+11 -5.943265E+10  4.354002E+09  8.030152E+08
       166   8 -1.857384E+10 -1.669966E+11  3.079865E+11 -5.233675E+10  4.413285E+09  7.068329E+08
       166   9 -1.293300E+10 -1.252524E+10  3.568854E+11 -3.043905E+10  4.999669E+09  4.114891E+08
       166  10  5.741003E+10 -1.209268E+10  3.738550E+11 -5.325095E+10  3.552714E-04  0.000000E+00
       166  11  6.053315E+10  3.295430E+09  3.808530E+11 -5.236687E+10 -3.552714E-04 -1.776357E-05
       166  12 -9.128311E+09 -5.875754E+10  3.424939E+11 -8.952404E+10  0.000000E+00 -4.607426E-05
       166  13 -2.519513E+07 -1.402330E+11  3.193128E+11 -5.672268E+10 -5.706546E-04  0.000000E+00
       166  14  2.069733E+10 -8.011525E+10  3.448982E+11 -5.295574E+10  2.930989E-04  0.000000E+00
       166  15  1.606802E+08  2.853464E+09  3.646518E+11 -5.288570E+10 -2.486900E-04 -1.376677E-04
       166  16 -5.017202E+10 -2.515716E+11  2.720080E+11 -5.944252E+10  7.105427E-05  5.689893E-05
       166  17 -1.862700E+10 -1.669930E+11  3.080492E+11 -5.234001E+10  4.973799E-04 -3.774758E-05
       166  18 -1.297632E+10 -1.251317E+10  3.569639E+11 -3.043334E+10  3.552714E-05 -1.054712E-05
       166  19  5.746728E+10 -1.209262E+10  3.737970E+11 -5.324269E+10 -4.276912E+09 -7.197043E+08
       166  20  6.058115E+10  3.288105E+09  3.807891E+11 -5.236521E+10 -4.328487E+09 -7.078383E+08
       166  21 -9.099113E+09 -5.877597E+10  3.424136E+11 -8.952741E+10 -4.752667E+09 -1.210408E+09
       166  22  3.434686E+07 -1.402288E+11  3.192561E+11 -5.671341E+10 -4.315815E+09 -7.664384E+08
       166  23  2.074858E+10 -8.012016E+10  3.448351E+11 -5.295289E+10 -4.380356E+09 -7.154497E+08
       166  24  1.988550E+08  2.838200E+09  3.645721E+11 -5.289044E+10 -4.926227E+09 -7.150148E+08
       166  25 -5.011094E+10 -2.515647E+11  2.719518E+11 -5.943265E+10 -4.354002E+09 -8.030152E+08
       166  26 -1.857384E+10 -1.669966E+11  3.079865E+11 -5.233675E+10 -4.413285E+09 -7.068329E+08
       166  27 -1.293300E+10 -1.252524E+10  3.568854E+11 -3.043905E+10 -4.999669E+09 -4.114891E+08
       167   1  2.312291E+11  1.071622E+11  4.657881E+11 -1.479050E+11  3.172649E+09  1.999693E+09
       167   2  1.447687E+11  8.192348E+10  4.318035E+11 -1.282373E+11  3.879844E+09  1.733765E+09
       167   3  8.153905E+10  5.329137E+10  4.031851E+11 -1.043895E+11  4.348567E+09  1.411313E+09
       167   4  3.602579E+11  1.229514E+11  5.066482E+11 -1.234946E+11  1.983760E+09  1.669639E+09
       167   5  2.833160E+11  1.148498E+11  4.811913E+11 -1.255965E+11  2.676984E+09  1.698045E+09
       167   6  2.327402E+11  1.055288E+11  4.629669E+11 -1.281080E+11  3.113131E+09  1.731983E+09
       167   7  4.423895E+11  1.174035E+11  5.281635E+11 -9.040819E+10  1.161647E+09  1.222278E+09
       167   8  3.544986E+11  1.183256E+11  5.021511E+11 -1.138300E+11  1.997441E+09  1.538941E+09
       167   9  2.852376E+11  1.165333E+11  4.808771E+11 -1.448692E+11  2.645595E+09  1.958585E+09
       167  10  2.311849E+11  1.071617E+11  4.658304E+11 -1.479123E+11  2.842171E-04  0.000000E+00
       167  11  1.447236E+11  8.192664E+10  4.318592E+11 -1.282455E+11  4.440892E-04  8.881784E-06
       167  12  8.149343E+10  5.329702E+10  4.032495E+11 -1.043990E+11 -2.664535E-04  1.443290E-05
       167  13  3.602161E+11  1.229450E+11  5.066685E+11 -1.235030E+11  0.000000E+00 -3.552714E-05
       167  14  2.832733E+11  1.148471E+11  4.812247E+11 -1.256060E+11  2.842171E-04 -8.881784E-06
       167  15  2.326972E+11  1.055284E+11  4.630086E+11 -1.281191E+11  6.217249E-04 -1.998401E-05
       167  16  4.423497E+11  1.173932E+11  5.281689E+11 -9.041752E+10 -3.197442E-04  1.776357E-05
       167  17  3.544578E+11  1.183197E+11  5.021721E+11 -1.138407E+11  7.105427E-05 -4.884981E-05
       167  18  2.851962E+11  1.165309E+11  4.809105E+11 -1.448821E+11  3.552714E-05  1.332268E-05
       167  19  2.312291E+11  1.071622E+11  4.657881E+11 -1.479050E+11 -3.172649E+09 -1.999693E+09
       167  20  1.447687E+11  8.192348E+10  4.318035E+11 -1.282373E+11 -3.879844E+09 -1.733765E+09
       167  21  8.153905E+10  5.329137E+10  4.031851E+11 -1.043895E+11 -4.348567E+09 -1.411313E+09
       167  22  3.602579E+11  1.229514E+11  5.066482E+11 -1.234946E+11 -1.983760E+09 -1.669639E+09
       167  23  2.833160E+11  1.148498E+11  4.811913E+11 -1.255965E+11 -2.676984E+09 -1.698045E+09
       167  24  2.327402E+11  1.055288E+11  4.629669E+11 -1.281080E+11 -3.113131E+09 -1.731983E+09
       167  25  4.423895E+11  1.174035E+11  5.281635E+11 -9.040819E+10 -1.161647E+09 -1.222278E+09
       167  26  3.544986E+11  1.183256E+11  5.021511E+11 -1.138300E+11 -1.997441E+09 -1.538941E+09
       167  27  2.852376E+11  1.165333E+11  4.808771E+11 -1.448692E+11 -2.645595E+09 -1.958585E+09
       168   1  5.209843E+10  6.993962E+10  3.984020E+11 -1.343048E+11  4.682289E+09  1.815751E+09
       168   2  6.627009E+10  9.667226E+10  4.087630E+11 -1.454021E+11  4.629936E+09  1.965770E+09
       168   3  6.438143E+10  1.149895E+11  4.116087E+11 -1.623823E+11  4.694110E+09  2.195325E+09
       168   4  1.636736E+11  9.770720E+10  4.394026E+11 -1.461982E+11  3.727878E+09  1.976552E+09
       168   5  1.611054E+11  1.204999E+11  4.441784E+11 -1.526811E+11  3.826041E+09  2.064192E+09
       168   6  1.519195E+11  1.403160E+11  4.459733E+11 -1.639762E+11  3.973970E+09  2.216891E+09
       168   7  2.823199E+11  1.231917E+11  4.817594E+11 -1.491788E+11  2.696637E+09  2.016853E+09
       168   8  2.726962E+11  1.487450E+11  4.856658E+11 -1.494458E+11  2.879160E+09  2.020465E+09
       168   9  2.657474E+11  1.762134E+11  4.909195E+11 -1.536610E+11  3.043917E+09  2.077453E+09
       168  10  5.202803E+10  6.993658E+10  3.984623E+11 -1.343170E+11  1.776357E-05  8.881784E-06
       168  11  6.620341E+10  9.667052E+10  4.088239E+11 -1.454162E+11 -2.930989E-04  0.000000E+00
       168  12  6.431730E+10  1.149893E+11  4.116719E+11 -1.623987E+11 -2.486900E-04  3.330669E-06
       168  13  1.636147E+11  9.770357E+10  4.394494E+11 -1.462110E+11  0.000000E+00  8.881784E-06
       168  14  1.610487E+11  1.204978E+11  4.442280E+11 -1.526946E+11  2.842171E-04  3.774758E-05
       168  15  1.518642E+11  1.403154E+11  4.460264E+11 -1.639911E+11  2.842171E-04  3.080869E-05
       168  16  2.822790E+11  1.231898E+11  4.817939E+11 -1.491916E+11 -6.483702E-04 -1.776357E-05
       168  17  2.726538E+11  1.487435E+11  4.857033E+11 -1.494579E+11 -5.684342E-04 -1.776357E-05
       168  18  2.657041E+11  1.762125E+11  4.909597E+11 -1.536734E+11  3.819167E-04 -2.886580E-05
       168  19  5.209843E+10  6.993962E+10  3.984020E+11 -1.343048E+11 -4.682289E+09 -1.815751E+09
       168  20  6.627009E+10  9.667226E+10  4.087630E+11 -1.454021E+11 -4.629936E+09 -1.965770E+09
       168  21  6.438143E+10  1.149895E+11  4.116087E+11 -1.623823E+11 -4.694110E+09 -2.195325E+09
       168  22  1.636736E+11  9.770720E+10  4.394026E+11 -1.461982E+11 -3.727878E+09 -1.976552E+09
       168  23  1.611054E+11  1.204999E+11  4.441784E+11 -1.526811E+11 -3.826041E+09 -2.064192E+09
       168  24  1.519195E+11  1.403160E+11  4.459733E+11 -1.639762E+11 -3.973970E+09 -2.216891E+09
       168  25  2.823199E+11  1.231917E+11  4.817594E+11 -1.491788E+11 -2.696637E+09 -2.016853E+09
       168  26  2.726962E+11  1.487450E+11  4.856658E+11 -1.494458E+11 -2.879160E+09 -2.020465E+09
       168  27  2.657474E+11  1.762134E+11  4.909195E+11 -1.536610E+11 -3.043917E+09 -2.077453E+09
       169   1  4.105766E+11  1.255026E+11  5.205856E+11 -5.891911E+10  1.487772E+09  7.965652E+08
       169   2  3.892102E+11  1.389406E+11  5.182135E+11 -9.796522E+10  1.744655E+09  1.324456E+09
       169   3  3.383004E+11  1.453759E+11  5.049157E+11 -1.304962E+11  2.253069E+09  1.764265E+09
       169   4  4.209313E+11  1.819368E+11  5.398493E+11 -4.679626E+10  1.608438E+09  6.326673E+08
       169   5  3.868752E+11  1.782861E+11  5.285335E+11 -8.669683E+10  1.915892E+09  1.172109E+09
       169   6  3.246901E+11  1.632434E+11  5.054053E+11 -1.248529E+11  2.443734E+09  1.687968E+09
       169   7  4.362761E+11  2.353227E+11  5.597774E+11 -3.330840E+10  1.670224E+09  4.503148E+08
       169   8  3.928645E+11  2.219417E+11  5.426867E+11 -7.772456E+10  2.026210E+09  1.050806E+09
       169   9  3.234918E+11  1.973387E+11  5.144902E+11 -1.247363E+11  2.582801E+09  1.686388E+09
       169  10  4.105589E+11  1.255036E+11  5.206068E+11 -5.892452E+10  0.000000E+00  8.881784E-06
       169  11  3.891874E+11  1.389409E+11  5.182374E+11 -9.797404E+10 -5.861978E-04  2.220446E-05
       169  12  3.382693E+11  1.453756E+11  5.049459E+11 -1.305078E+11  4.085621E-04  3.219647E-05
       169  13  4.209099E+11  1.819369E+11  5.398712E+11 -4.680060E+10 -8.881784E-06 -8.881784E-06
       169  14  3.868489E+11  1.782859E+11  5.285593E+11 -8.670462E+10  5.773160E-04 -1.776357E-05
       169  15  3.246564E+11  1.632431E+11  5.054381E+11 -1.248640E+11  4.929390E-04  3.996803E-05
       169  16  4.362521E+11  2.353221E+11  5.597994E+11 -3.331159E+10  2.842171E-04 -6.661338E-06
       169  17  3.928359E+11  2.219412E+11  5.427136E+11 -7.773162E+10 -3.907985E-04 -3.108624E-05
       169  18  3.234566E+11  1.973386E+11  5.145250E+11 -1.247475E+11  1.865175E-04  9.992007E-06
       169  19  4.105766E+11  1.255026E+11  5.205856E+11 -5.891911E+10 -1.487772E+09 -7.965652E+08
       169  20  3.892102E+11  1.389406E+11  5.182135E+11 -9.796522E+10 -1.744655E+09 -1.324456E+09
       169  21  3.383004E+11  1.453759E+11  5.049157E+11 -1.304962E+11 -2.253069E+09 -1.764265E+09
       169  22  4.209313E+11  1.819368E+11  5.398493E+11 -4.679626E+10 -1.608438E+09 -6.326673E+08
       169  23  3.868752E+11  1.782861E+11  5.285335E+11 -8.669683E+10 -1.915892E+09 -1.172109E+09
       169  24  3.246901E+11  1.632434E+11  5.054053E+11 -1.248529E+11 -2.443734E+09 -1.687968E+09
       169  25  4.362761E+11  2.353227E+11  5.597774E+11 -3.330840E+10 -1.670224E+09 -4.503148E+08
       169  26  3.928645E+11  2.219417E+11  5.426867E+11 -7.772456E+10 -2.026210E+09 -1.050806E+09
       169  27  3.234918E+11  1.973387E+11  5.144902E+11 -1.247363E+11 -2.582801E+09 -1.686388E+09
       170   1  4.384154E+11  2.088593E+11  5.528461E+11 -1.760061E+10  1.547152E+09  2.379362E+08
       170   2  4.612688E+11  1.585484E+11  5.456614E+11 -3.040257E+10  1.140386E+09  4.110188E+08
       170   3  4.920867E+11  1.091312E+11  5.409400E+11 -4.679926E+10  6.603240E+08  6.327038E+08
       170   4  4.449138E+11  1.740423E+11  5.449461E+11 -3.987245E+10  1.352820E+09  5.390534E+08
       170   5  4.504535E+11  1.205268E+11  5.313747E+11 -4.379861E+10  1.094028E+09  5.921353E+08
       170   6  4.800959E+11  9.849776E+10  5.343756E+11 -5.860391E+10  7.340068E+08  7.923043E+08
       170   7  4.569726E+11  1.528844E+11  5.428987E+11 -6.879263E+10  1.162015E+09  9.300542E+08
       170   8  4.314689E+11  7.873669E+10  5.135753E+11 -5.592897E+10  1.110286E+09  7.561399E+08
       170   9  4.469999E+11  7.421339E+10  5.174359E+11 -6.039741E+10  9.525039E+08  8.165575E+08
       170  10  4.384020E+11  2.088625E+11  5.528702E+11 -1.760408E+10  0.000000E+00  8.881784E-06
       170  11  4.612568E+11  1.585499E+11  5.456783E+11 -3.040681E+10  3.552714E-05  3.552714E-05
       170  12  4.920765E+11  1.091306E+11  5.409483E+11 -4.680437E+10 -3.108624E-04 -1.221245E-05
       170  13  4.448997E+11  1.740441E+11  5.449661E+11 -3.987696E+10 -5.861978E-04  1.776357E-05
       170  14  4.504404E+11  1.205275E+11  5.313903E+11 -4.380338E+10 -8.704149E-04 -8.881784E-06
       170  15  4.800844E+11  9.849709E+10  5.343849E+11 -5.860952E+10 -1.243450E-04  1.110223E-05
       170  16  4.569574E+11  1.528846E+11  5.429146E+11 -6.879873E+10  2.353673E-04  3.552714E-05
       170  17  4.314542E+11  7.873681E+10  5.135904E+11 -5.593419E+10  4.196643E-04  1.776357E-05
       170  18  4.469862E+11  7.421305E+10  5.174485E+11 -6.040266E+10 -2.575717E-04  2.109424E-05
       170  19  4.384154E+11  2.088593E+11  5.528461E+11 -1.760061E+10 -1.547152E+09 -2.379362E+08
       170  20  4.612688E+11  1.585484E+11  5.456614E+11 -3.040257E+10 -1.140386E+09 -4.110188E+08
       170  21  4.920867E+11  1.091312E+11  5.409400E+11 -4.679926E+10 -6.603240E+08 -6.327038E+08
       170  22  4.449138E+11  1.740423E+11  5.449461E+11 -3.987245E+10 -1.352820E+09 -5.390534E+08
       170  23  4.504535E+11  1.205268E+11  5.313747E+11 -4.379861E+10 -1.094028E+09 -5.921353E+08
       170  24  4.800959E+11  9.849776E+10  5.343756E+11 -5.860391E+10 -7.340068E+08 -7.923043E+08
       170  25  4.569726E+11  1.528844E+11  5.428987E+11 -6.879263E+10 -1.162015E+09 -9.300542E+08
       170  26  4.314689E+11  7.873669E+10  5.135753E+11 -5.592897E+10 -1.110286E+09 -7.561399E+08
       170  27  4.469999E+11  7.421339E+10  5.174359E+11 -6.039741E+10 -9.525039E+08 -8.165575E+08
       171   1  4.444301E+11  6.814942E+10  5.148781E+11 -4.009305E+10  9.517314E+08  5.420266E+08
       171   2  5.547070E+11  8.145373E+10  5.527177E+11 -6.576419E+10 -2.927398E+07  8.890570E+08
       171   3  6.837587E+11  5.506554E+10  5.837063E+11 -9.903743E+10 -1.353718E+09  1.338888E+09
       171   4  4.584156E+11  8.623300E+10  5.246360E+11 -4.943320E+10  8.954272E+08  6.683055E+08
       171   5  5.409747E+11  9.545382E+10  5.529800E+11 -9.148195E+10  1.620249E+08  1.236749E+09
       171   6  6.711561E+11  8.347773E+10  5.891085E+11 -1.509608E+11 -1.109193E+09  2.040871E+09
       171   7  4.680003E+11  1.025529E+11  5.326013E+11 -5.682093E+10  8.740898E+08  7.681914E+08
       171   8  4.940170E+11  9.272963E+10  5.383373E+11 -1.185981E+11  6.006099E+08  1.603380E+09
       171   9  6.030272E+11  8.005033E+10  5.684016E+11 -2.041880E+11 -4.675416E+08  2.760555E+09
       171  10  4.444310E+11  6.815538E+10  5.148969E+11 -4.009880E+10 -3.552714E-04  0.000000E+00
       171  11  5.547196E+11  8.145916E+10  5.527226E+11 -6.577541E+10  3.552714E-05 -8.881784E-06
       171  12  6.837827E+11  5.506836E+10  5.836906E+11 -9.905283E+10 -6.661338E-05 -8.215650E-05
       171  13  4.584102E+11  8.623591E+10  5.246510E+11 -4.943930E+10 -6.039613E-04 -6.661338E-06
       171  14  5.409815E+11  9.545771E+10  5.529861E+11 -9.149405E+10 -2.842171E-04 -1.776357E-05
       171  15  6.711733E+11  8.347876E+10  5.890945E+11 -1.509770E+11 -1.465494E-04 -3.552714E-05
       171  16  4.679848E+11  1.025513E+11  5.326115E+11 -5.682735E+10 -4.973799E-04  8.881784E-06
       171  17  4.940158E+11  9.273242E+10  5.383483E+11 -1.186113E+11  7.460699E-04 -1.776357E-05
       171  18  6.030363E+11  8.005118E+10  5.683963E+11 -2.042052E+11 -2.575717E-04 -9.880985E-05
       171  19  4.444301E+11  6.814942E+10  5.148781E+11 -4.009305E+10 -9.517314E+08 -5.420266E+08
       171  20  5.547070E+11  8.145373E+10  5.527177E+11 -6.576419E+10  2.927398E+07 -8.890570E+08
       171  21  6.837587E+11  5.506554E+10  5.837063E+11 -9.903743E+10  1.353718E+09 -1.338888E+09
       171  22  4.584156E+11  8.623300E+10  5.246360E+11 -4.943320E+10 -8.954272E+08 -6.683055E+08
       171  23  5.409747E+11  9.545382E+10  5.529800E+11 -9.148195E+10 -1.620249E+08 -1.236749E+09
       171  24  6.711561E+11  8.347773E+10  5.891085E+11 -1.509608E+11  1.109193E+09 -2.040871E+09
       171  25  4.680003E+11  1.025529E+11  5.326013E+11 -5.682093E+10 -8.740898E+08 -7.681914E+08
       171  26  4.940170E+11  9.272963E+10  5.383373E+11 -1.185981E+11 -6.006099E+08 -1.603380E+09
       171  27  6.030272E+11  8.005033E+10  5.684016E+11 -2.041880E+11  4.675416E+08 -2.760555E+09
       172   1  4.102534E+11  7.557167E+10  5.060901E+11 -6.465643E+10  1.297903E+09  8.740561E+08
       172   2  4.341826E+11  9.545484E+10  5.197522E+11 -6.551908E+10  1.158410E+09  8.857197E+08
       172   3  4.529941E+11  1.107943E+11  5.304954E+11 -5.998738E+10  1.048796E+09  8.109533E+08
       172   4  3.813524E+11  1.008805E+11  5.064110E+11 -1.138202E+11  1.695861E+09  1.538766E+09
       172   5  4.343133E+11  9.849833E+10  5.219591E+11 -1.227650E+11  1.188105E+09  1.659666E+09
       172   6  4.752330E+11  6.236602E+10  5.236416E+11 -1.248495E+11  6.564628E+08  1.687901E+09
       172   7  3.211781E+11  1.354730E+11  5.013099E+11 -1.671164E+11  2.437305E+09  2.259328E+09
       172   8  4.336531E+11  1.455645E+11  5.379724E+11 -1.943038E+11  1.410862E+09  2.626772E+09
       172   9  5.304301E+11  1.092554E+11  5.557661E+11 -2.148646E+11  3.430160E+08  2.904861E+09
       172  10  4.102449E+11  7.557554E+10  5.061115E+11 -6.466977E+10 -1.065814E-04 -2.664535E-05
       172  11  4.341750E+11  9.545854E+10  5.197713E+11 -6.553165E+10  6.927792E-04 -4.440892E-06
       172  12  4.529868E+11  1.107975E+11  5.305126E+11 -5.999879E+10  3.552714E-04  5.662137E-05
       172  13  3.813421E+11  1.008857E+11  5.064392E+11 -1.138326E+11  5.861978E-04  1.776357E-05
       172  14  4.343056E+11  9.850207E+10  5.219788E+11 -1.227774E+11  1.989520E-03  8.881784E-06
       172  15  4.752283E+11  6.236823E+10  5.236524E+11 -1.248618E+11  1.953993E-04  7.771561E-05
       172  16  3.211664E+11  1.354816E+11  5.013518E+11 -1.671291E+11  3.197442E-04  8.881784E-06
       172  17  4.336451E+11  1.455694E+11  5.379963E+11 -1.943177E+11 -4.263256E-04  1.776357E-05
       172  18  5.304275E+11  1.092574E+11  5.557719E+11 -2.148804E+11 -2.042810E-04  3.330669E-06
       172  19  4.102534E+11  7.557167E+10  5.060901E+11 -6.465643E+10 -1.297903E+09 -8.740561E+08
       172  20  4.341826E+11  9.545484E+10  5.197522E+11 -6.551908E+10 -1.158410E+09 -8.857197E+08
       172  21  4.529941E+11  1.107943E+11  5.304954E+11 -5.998738E+10 -1.048796E+09 -8.109533E+08
       172  22  3.813524E+11  1.008805E+11  5.064110E+11 -1.138202E+11 -1.695861E+09 -1.538766E+09
       172  23  4.343133E+11  9.849833E+10  5.219591E+11 -1.227650E+11 -1.188105E+09 -1.659666E+09
       172  24  4.752330E+11  6.236602E+10  5.236416E+11 -1.248495E+11 -6.564628E+08 -1.687901E+09
       172  25  3.211781E+11  1.354730E+11  5.013099E+11 -1.671164E+11 -2.437305E+09 -2.259328E+09
       172  26  4.336531E+11  1.455645E+11  5.379724E+11 -1.943038E+11 -1.410862E+09 -2.626772E+09
       172  27  5.304301E+11  1.092554E+11  5.557661E+11 -2.148646E+11 -3.430160E+08 -2.904861E+09
       173   1  4.383978E+11  2.359696E+11  5.607374E+11  3.481030E+10  1.654525E+09 -4.706220E+08
       173   2  3.933322E+11  2.221264E+11  5.432801E+11  7.975081E+10  2.027913E+09 -1.078202E+09
       173   3  3.216197E+11  1.967597E+11  5.144210E+11  1.274571E+11  2.607176E+09 -1.723175E+09
       173   4  4.219466E+11  1.817361E+11  5.403874E+11  4.827440E+10  1.602011E+09 -6.526534E+08
       173   5  3.873581E+11  1.779747E+11  5.290909E+11  8.862678E+10  1.916904E+09 -1.198204E+09
       173   6  3.243791E+11  1.626595E+11  5.058546E+11  1.274317E+11  2.454000E+09 -1.722834E+09
       173   7  4.099746E+11  1.241884E+11  5.204762E+11  6.025578E+10  1.494443E+09 -8.146387E+08
       173   8  3.890599E+11  1.377631E+11  5.184312E+11  9.960987E+10  1.749633E+09 -1.346693E+09
       173   9  3.389482E+11  1.443376E+11  5.055647E+11  1.326445E+11  2.253080E+09 -1.793311E+09
       173  10  4.383739E+11  2.359690E+11  5.607591E+11  3.481362E+10  7.105427E-05  0.000000E+00
       173  11  3.933035E+11  2.221258E+11  5.433070E+11  7.975806E+10 -3.907985E-04  1.332268E-05
       173  12  3.215843E+11  1.967597E+11  5.144562E+11  1.274686E+11  9.769963E-04 -2.109424E-05
       173  13  4.219252E+11  1.817362E+11  5.404092E+11  4.827886E+10  5.773160E-04  1.776357E-05
       173  14  3.873318E+11  1.779745E+11  5.291167E+11  8.863474E+10 -5.684342E-04  1.776357E-05
       173  15  3.243453E+11  1.626592E+11  5.058876E+11  1.274430E+11 -4.307665E-04  1.332268E-05
       173  16  4.099568E+11  1.241895E+11  5.204974E+11  6.026130E+10  3.907985E-04 -8.881784E-06
       173  17  3.890371E+11  1.377635E+11  5.184552E+11  9.961883E+10  3.552714E-05 -1.776357E-05
       173  18  3.389170E+11  1.443373E+11  5.055948E+11  1.326563E+11  7.993606E-05 -4.218847E-05
       173  19  4.383978E+11  2.359696E+11  5.607374E+11  3.481030E+10 -1.654525E+09  4.706220E+08
       173  20  3.933322E+11  2.221264E+11  5.432801E+11  7.975081E+10 -2.027913E+09  1.078202E+09
       173  21  3.216197E+11  1.967597E+11  5.144210E+11  1.274571E+11 -2.607176E+09  1.723175E+09
       173  22  4.219466E+11  1.817361E+11  5.403874E+11  4.827440E+10 -1.602011E+09  6.526534E+08
       173  23  3.873581E+11  1.779747E+11  5.290909E+11  8.862678E+10 -1.916904E+09  1.198204E+09
       173  24  3.243791E+11  1.626595E+11  5.058546E+11  1.274317E+11 -2.454000E+09  1.722834E+09
       173  25  4.099746E+11  1.241884E+11  5.204762E+11  6.025578E+10 -1.494443E+09  8.146387E+08
       173  26  3.890599E+11  1.377631E+11  5.184312E+11  9.960987E+10 -1.749633E+09  1.346693E+09
       173  27  3.389482E+11  1.443376E+11  5.055647E+11  1.326445E+11 -2.253080E+09  1.793311E+09
       174   1  2.633290E+11  1.763694E+11  4.910632E+11  1.567963E+11  3.078565E+09 -2.119843E+09
       174   2  1.508715E+11  1.414915E+11  4.471061E+11  1.687134E+11  4.003478E+09 -2.280939E+09
       174   3  6.555704E+10  1.175855E+11  4.141121E+11  1.694734E+11  4.712077E+09 -2.291196E+09
       174   4  2.716177E+11  1.484915E+11  4.861104E+11  1.523968E+11  2.899737E+09 -2.060363E+09
       174   5  1.595818E+11  1.191724E+11  4.443902E+11  1.574779E+11  3.849501E+09 -2.129045E+09
       174   6  6.612209E+10  9.529162E+10  4.095948E+11  1.530719E+11  4.643191E+09 -2.069463E+09
       174   7  2.823241E+11  1.216042E+11  4.821463E+11  1.521912E+11  2.701796E+09 -2.057582E+09
       174   8  1.608917E+11  9.231137E+10  4.379874E+11  1.513219E+11  3.746331E+09 -2.045824E+09
       174   9  4.989850E+10  6.286599E+10  3.968293E+11  1.429397E+11  4.690762E+09 -1.932493E+09
       174  10  2.632855E+11  1.763686E+11  4.911040E+11  1.568090E+11  0.000000E+00  0.000000E+00
       174  11  1.508160E+11  1.414909E+11  4.471597E+11  1.687287E+11  3.907985E-04 -8.881784E-06
       174  12  6.549273E+10  1.175852E+11  4.141756E+11  1.694904E+11 -3.552714E-04 -5.551115E-06
       174  13  2.715751E+11  1.484900E+11  4.861482E+11  1.524092E+11  9.992007E-06  8.881784E-06
       174  14  1.595249E+11  1.191703E+11  4.444402E+11  1.574920E+11  1.159073E-03 -8.881784E-05
       174  15  6.605524E+10  9.528988E+10  4.096559E+11  1.530867E+11 -5.684342E-04 -8.881784E-06
       174  16  2.822830E+11  1.216023E+11  4.821809E+11  1.522042E+11  0.000000E+00 -8.881784E-06
       174  17  1.608327E+11  9.230779E+10  4.380345E+11  1.513351E+11 -9.592327E-04  8.881784E-06
       174  18  4.982798E+10  6.286294E+10  3.968897E+11  1.429527E+11 -3.641532E-04  1.443290E-05
       174  19  2.633290E+11  1.763694E+11  4.910632E+11  1.567963E+11 -3.078565E+09  2.119843E+09
       174  20  1.508715E+11  1.414915E+11  4.471061E+11  1.687134E+11 -4.003478E+09  2.280939E+09
       174  21  6.555704E+10  1.175855E+11  4.141121E+11  1.694734E+11 -4.712077E+09  2.291196E+09
       174  22  2.716177E+11  1.484915E+11  4.861104E+11  1.523968E+11 -2.899737E+09  2.060363E+09
       174  23  1.595818E+11  1.191724E+11  4.443902E+11  1.574779E+11 -3.849501E+09  2.129045E+09
       174  24  6.612209E+10  9.529162E+10  4.095948E+11  1.530719E+11 -4.643191E+09  2.069463E+09
       174  25  2.823241E+11  1.216042E+11  4.821463E+11  1.521912E+11 -2.701796E+09  2.057582E+09
       174  26  1.608917E+11  9.231137E+10  4.379874E+11  1.513219E+11 -3.746331E+09  2.045824E+09
       174  27  4.989850E+10  6.286599E+10  3.968293E+11  1.429397E+11 -4.690762E+09  1.932493E+09
       175   1  4.424406E+11  1.158240E+11  5.282764E+11  9.192863E+10  1.162469E+09 -1.242836E+09
       175   2  3.546244E+11  1.165826E+11  5.023658E+11  1.156810E+11  1.998634E+09 -1.563968E+09
       175   3  2.841677E+11  1.138293E+11  4.805736E+11  1.474112E+11  2.655947E+09 -1.992954E+09
       175   4  3.608596E+11  1.206496E+11  5.068922E+11  1.239920E+11  1.978897E+09 -1.676365E+09
       175   5  2.844268E+11  1.112859E+11  4.813276E+11  1.269867E+11  2.663791E+09 -1.716841E+09
       175   6  2.335495E+11  9.958173E+10  4.624195E+11  1.308800E+11  3.094760E+09 -1.769461E+09
       175   7  2.314725E+11  1.028055E+11  4.654841E+11  1.467407E+11  3.165247E+09 -1.983954E+09
       175   8  1.454490E+11  7.483003E+10  4.309171E+11  1.281911E+11  3.858678E+09 -1.733141E+09
       175   9  8.193154E+10  4.199743E+10  4.010666E+11  1.058985E+11  4.314613E+09 -1.431716E+09
       175  10  4.424010E+11  1.158137E+11  5.282818E+11  9.193809E+10  3.197442E-04 -8.881784E-06
       175  11  3.545837E+11  1.165767E+11  5.023870E+11  1.156918E+11  1.563194E-03  8.881784E-06
       175  12  2.841264E+11  1.138270E+11  4.806071E+11  1.474243E+11  1.065814E-04  5.218048E-05
       175  13  3.608179E+11  1.206432E+11  5.069125E+11  1.240004E+11 -5.329071E-04 -8.881784E-06
       175  14  2.843843E+11  1.112831E+11  4.813608E+11  1.269962E+11  1.421085E-03 -5.329071E-05
       175  15  2.335066E+11  9.958129E+10  4.624609E+11  1.308913E+11  4.618528E-04  3.108624E-05
       175  16  2.314285E+11  1.028049E+11  4.655263E+11  1.467480E+11 -3.552714E-05  3.552714E-05
       175  17  1.454040E+11  7.483312E+10  4.309723E+11  1.281993E+11  1.021405E-03  2.664535E-05
       175  18  8.188606E+10  4.200294E+10  4.011305E+11  1.059081E+11 -2.797762E-04  1.110223E-05
       175  19  4.424406E+11  1.158240E+11  5.282764E+11  9.192863E+10 -1.162469E+09  1.242836E+09
       175  20  3.546244E+11  1.165826E+11  5.023658E+11  1.156810E+11 -1.998634E+09  1.563968E+09
       175  21  2.841677E+11  1.138293E+11  4.805736E+11  1.474112E+11 -2.655947E+09  1.992954E+09
       175  22  3.608596E+11  1.206496E+11  5.068922E+11  1.239920E+11 -1.978897E+09  1.676365E+09
       175  23  2.844268E+11  1.112859E+11  4.813276E+11  1.269867E+11 -2.663791E+09  1.716841E+09
       175  24  2.335495E+11  9.958173E+10  4.624195E+11  1.308800E+11 -3.094760E+09  1.769461E+09
       175  25  2.314725E+11  1.028055E+11  4.654841E+11  1.467407E+11 -3.165247E+09  1.983954E+09
       175  26  1.454490E+11  7.483003E+10  4.309171E+11  1.281911E+11 -3.858678E+09  1.733141E+09
       175  27  8.193154E+10  4.199743E+10  4.010666E+11  1.058985E+11 -4.314613E+09  1.431716E+09
       176   1  3.225717E+11  1.341219E+11  5.022034E+11  1.668543E+11  2.430557E+09 -2.255801E+09
       176   2  4.345790E+11  1.452958E+11  5.389938E+11  1.949842E+11  1.412214E+09 -2.636006E+09
       176   3  5.304818E+11  1.090492E+11  5.565034E+11  2.164815E+11  3.523097E+08 -2.926732E+09
       176   4  3.815283E+11  9.828641E+10  5.063986E+11  1.138140E+11  1.693298E+09 -1.538693E+09
       176   5  4.341517E+11  9.687338E+10  5.221174E+11  1.231968E+11  1.192451E+09 -1.665524E+09
       176   6  4.742444E+11  6.058814E+10  5.234971E+11  1.256404E+11  6.678798E+08 -1.698603E+09
       176   7  4.097493E+11  7.261001E+10  5.055897E+11  6.529555E+10  1.297945E+09 -8.827012E+08
       176   8  4.332995E+11  9.348789E+10  5.194572E+11  6.606843E+10  1.166370E+09 -8.931531E+08
       176   9  4.510082E+11  1.084647E+11  5.297855E+11  6.015947E+10  1.066052E+09 -8.132833E+08
       176  10  3.225596E+11  1.341304E+11  5.022450E+11  1.668670E+11 -2.842171E-04  3.552714E-05
       176  11  4.345709E+11  1.453007E+11  5.390176E+11  1.949983E+11  4.440892E-04 -5.329071E-05
       176  12  5.304793E+11  1.090512E+11  5.565094E+11  2.164975E+11  6.217249E-05  1.665335E-05
       176  13  3.815177E+11  9.829150E+10  5.064267E+11  1.138264E+11 -7.105427E-05 -4.440892E-05
       176  14  4.341438E+11  9.687703E+10  5.221370E+11  1.232093E+11 -5.684342E-04 -1.776357E-05
       176  15  4.742398E+11  6.059030E+10  5.235080E+11  1.256529E+11  5.151435E-04  1.021405E-04
       176  16  4.097406E+11  7.261380E+10  5.056110E+11  6.530889E+10  8.526513E-04  5.329071E-05
       176  17  4.332917E+11  9.349149E+10  5.194764E+11  6.608104E+10 -7.105427E-04 -2.664535E-05
       176  18  4.510008E+11  1.084678E+11  5.298029E+11  6.017090E+10 -1.154632E-04 -1.465494E-04
       176  19  3.225717E+11  1.341219E+11  5.022034E+11  1.668543E+11 -2.430557E+09  2.255801E+09
       176  20  4.345790E+11  1.452958E+11  5.389938E+11  1.949842E+11 -1.412214E+09  2.636006E+09
       176  21  5.304818E+11  1.090492E+11  5.565034E+11  2.164815E+11 -3.523097E+08  2.926732E+09
       176  22  3.815283E+11  9.828641E+10  5.063986E+11  1.138140E+11 -1.693298E+09  1.538693E+09
       176  23  4.341517E+11  9.687338E+10  5.221174E+11  1.231968E+11 -1.192451E+09  1.665524E+09
       176  24  4.742444E+11  6.058814E+10  5.234971E+11  1.256404E+11 -6.678798E+08  1.698603E+09
       176  25  4.097493E+11  7.261001E+10  5.055897E+11  6.529555E+10 -1.297945E+09  8.827012E+08
       176  26  4.332995E+11  9.348789E+10  5.194572E+11  6.606843E+10 -1.166370E+09  8.931531E+08
       176  27  4.510082E+11  1.084647E+11  5.297855E+11  6.015947E+10 -1.066052E+09  8.132833E+08
       177   1  6.018490E+11  7.935455E+10  5.686048E+11  2.051082E+11 -4.488450E+08 -2.773001E+09
       177   2  6.702599E+11  8.484620E+10  5.899949E+11  1.504668E+11 -1.085054E+09 -2.034202E+09
       177   3  6.821026E+11  5.785657E+10  5.847881E+11  9.746987E+10 -1.316731E+09 -1.317696E+09
       177   4  4.922335E+11  9.380736E+10  5.387975E+11  1.200328E+11  6.309311E+08 -1.622779E+09
       177   5  5.382555E+11  9.568277E+10  5.528664E+11  9.317245E+10  1.971908E+08 -1.259609E+09
       177   6  5.511416E+11  8.098524E+10  5.521097E+11  6.775441E+10  1.056359E+07 -9.159657E+08
       177   7  4.665331E+11  9.963882E+10  5.318598E+11  5.837979E+10  8.838860E+08 -7.892684E+08
       177   8  4.539481E+11  8.158929E+10  5.224040E+11  5.319312E+10  9.256045E+08 -7.191411E+08
       177   9  4.383514E+11  6.260987E+10  5.118197E+11  4.537538E+10  9.925022E+08 -6.134444E+08
       177  10  6.018575E+11  7.935530E+10  5.685997E+11  2.051254E+11  2.664535E-04  1.065814E-04
       177  11  6.702767E+11  8.484719E+10  5.899811E+11  1.504831E+11 -2.753353E-04  5.329071E-05
       177  12  6.821266E+11  5.785950E+10  5.847731E+11  9.748559E+10  8.881784E-06 -4.218847E-05
       177  13  4.922320E+11  9.381022E+10  5.388089E+11  1.200462E+11 -1.190159E-03  7.105427E-05
       177  14  5.382621E+11  9.568677E+10  5.528731E+11  9.318487E+10 -1.776357E-05  1.776357E-05
       177  15  5.511541E+11  8.099084E+10  5.521154E+11  6.776605E+10  1.172396E-03 -9.325873E-05
       177  16  4.665178E+11  9.963737E+10  5.318703E+11  5.838645E+10 -1.065814E-04  5.329071E-05
       177  17  4.539428E+11  8.159237E+10  5.224196E+11  5.319962E+10 -2.309264E-04 -2.664535E-05
       177  18  4.383523E+11  6.261605E+10  5.118393E+11  4.538162E+10  4.662937E-04  7.105427E-05
       177  19  6.018490E+11  7.935455E+10  5.686048E+11  2.051082E+11  4.488450E+08  2.773001E+09
       177  20  6.702599E+11  8.484620E+10  5.899949E+11  1.504668E+11  1.085054E+09  2.034202E+09
       177  21  6.821026E+11  5.785657E+10  5.847881E+11  9.746987E+10  1.316731E+09  1.317696E+09
       177  22  4.922335E+11  9.380736E+10  5.387975E+11  1.200328E+11 -6.309311E+08  1.622779E+09
       177  23  5.382555E+11  9.568277E+10  5.528664E+11  9.317245E+10 -1.971908E+08  1.259609E+09
       177  24  5.511416E+11  8.098524E+10  5.521097E+11  6.775441E+10 -1.056359E+07  9.159657E+08
       177  25  4.665331E+11  9.963882E+10  5.318598E+11  5.837979E+10 -8.838860E+08  7.892684E+08
       177  26  4.539481E+11  8.158929E+10  5.224040E+11  5.319312E+10 -9.256045E+08  7.191411E+08
       177  27  4.383514E+11  6.260987E+10  5.118197E+11  4.537538E+10 -9.925022E+08  6.134444E+08
       178   1  4.576307E+11  1.521803E+11  5.433193E+11  7.026651E+10  1.158818E+09 -9.499830E+08
       178   2  4.313093E+11  7.726322E+10  5.135654E+11  5.723299E+10  1.112322E+09 -7.737721E+08
       178   3  4.451206E+11  6.939967E+10  5.159563E+11  6.143655E+10  9.579046E+08 -8.306080E+08
       178   4  4.461218E+11  1.740630E+11  5.455710E+11  4.133015E+10  1.344967E+09 -5.587629E+08
       178   5  4.513376E+11  1.192880E+11  5.316111E+11  4.493048E+10  1.085284E+09 -6.074400E+08
       178   6  4.805982E+11  9.459306E+10  5.337878E+11  5.949584E+10  7.192517E+08 -8.043652E+08
       178   7  4.406322E+11  2.097467E+11  5.538630E+11  1.908915E+10  1.530941E+09 -2.580623E+08
       178   8  4.640042E+11  1.580645E+11  5.465439E+11  3.158914E+10  1.115344E+09 -4.270630E+08
       178   9  4.959455E+11  1.067395E+11  5.417135E+11  4.795610E+10  6.186011E+08 -6.483467E+08
       178  10  4.576154E+11  1.521804E+11  5.433351E+11  7.027270E+10  1.376677E-04 -2.664535E-05
       178  11  4.312946E+11  7.726336E+10  5.135806E+11  5.723834E+10  6.883383E-04 -1.776357E-05
       178  12  4.451071E+11  6.939941E+10  5.159690E+11  6.144195E+10  4.440892E-06 -6.106227E-05
       178  13  4.461078E+11  1.740648E+11  5.455910E+11  4.133479E+10  5.329071E-05 -5.329071E-05
       178  14  4.513247E+11  1.192887E+11  5.316265E+11  4.493538E+10  8.704149E-04 -3.552714E-05
       178  15  4.805871E+11  9.459245E+10  5.337969E+11  5.950154E+10 -1.136868E-03 -6.661338E-06
       178  16  4.406192E+11  2.097500E+11  5.538870E+11  1.909280E+10 -5.684342E-04  1.776357E-05
       178  17  4.639926E+11  1.580660E+11  5.465605E+11  3.159350E+10  8.881784E-04  2.220446E-05
       178  18  4.959358E+11  1.067389E+11  5.417212E+11  4.796126E+10 -1.598721E-04  8.770762E-05
       178  19  4.576307E+11  1.521803E+11  5.433193E+11  7.026651E+10 -1.158818E+09  9.499830E+08
       178  20  4.313093E+11  7.726322E+10  5.135654E+11  5.723299E+10 -1.112322E+09  7.737721E+08
       178  21  4.451206E+11  6.939967E+10  5.159563E+11  6.143655E+10 -9.579046E+08  8.306080E+08
       178  22  4.461218E+11  1.740630E+11  5.455710E+11  4.133015E+10 -1.344967E+09  5.587629E+08
       178  23  4.513376E+11  1.192880E+11  5.316111E+11  4.493048E+10 -1.085284E+09  6.074400E+08
       178  24  4.805982E+11  9.459306E+10  5.337878E+11  5.949584E+10 -7.192517E+08  8.043652E+08
       178  25  4.406322E+11  2.097467E+11  5.538630E+11  1.908915E+10 -1.530941E+09  2.580623E+08
       178  26  4.640042E+11  1.580645E+11  5.465439E+11  3.158914E+10 -1.115344E+09  4.270630E+08
       178  27  4.959455E+11  1.067395E+11  5.417135E+11  4.795610E+10 -6.186011E+08  6.483467E+08
       179   1  6.337204E+11  9.606049E+08  5.145713E+11  2.736407E+08 -1.611458E+09 -3.700553E+06
       179   2  6.294351E+11  1.026291E+09  5.175035E+11  3.034425E+08 -1.514214E+09 -4.102929E+06
       179   3  6.245501E+11  2.519606E+07  5.195709E+11 -2.266367E+07 -1.419810E+09  3.070038E+05
       179   4  6.333572E+11 -8.756593E+08  5.138488E+11 -1.399414E+08 -1.616334E+09  1.891566E+06
       179   5  6.297073E+11  6.258532E+06  5.166742E+11 -4.123404E+07 -1.529041E+09  5.575424E+05
       179   6  6.254692E+11 -1.195050E+08  5.187363E+11 -1.612584E+08 -1.443513E+09  2.181201E+06
       179   7  6.331485E+11 -2.620203E+09  5.131738E+11 -3.765481E+08 -1.622522E+09  5.091055E+06
       179   8  6.306006E+11 -5.522447E+08  5.161441E+11 -1.302295E+08 -1.548116E+09  1.761319E+06
       179   9  6.277448E+11  8.047156E+08  5.185982E+11  1.709803E+08 -1.476071E+09 -2.310101E+06
       179  10  6.337416E+11  9.603396E+08  5.145493E+11  2.736171E+08 -2.664535E-04  0.000000E+00
       179  11  6.294556E+11  1.026309E+09  5.174831E+11  3.034812E+08 -1.421085E-04  1.776357E-05
       179  12  6.245700E+11  2.548287E+07  5.195520E+11 -2.253987E+07  1.143530E-04  1.443290E-05
       179  13  6.333785E+11 -8.758941E+08  5.138267E+11 -1.399443E+08  0.000000E+00 -1.804112E-06
       179  14  6.297280E+11  6.292588E+06  5.166535E+11 -4.117207E+07 -5.662137E-04  5.107026E-05
       179  15  6.254895E+11 -1.192053E+08  5.187171E+11 -1.610993E+08  5.040413E-04 -2.442491E-05
       179  16  6.331700E+11 -2.620397E+09  5.131516E+11 -3.765134E+08 -4.263256E-04  2.664535E-05
       179  17  6.306216E+11 -5.521872E+08  5.161232E+11 -1.301188E+08 -2.842171E-04 -8.881784E-06
       179  18  6.277655E+11  8.050320E+08  5.185785E+11  1.712204E+08  3.774758E-04  5.884182E-05
       179  19  6.337204E+11  9.606049E+08  5.145713E+11  2.736407E+08  1.611458E+09  3.700553E+06
       179  20  6.294351E+11  1.026291E+09  5.175035E+11  3.034425E+08  1.514214E+09  4.102929E+06
       179  21  6.245501E+11  2.519606E+07  5.195709E+11 -2.266367E+07  1.419810E+09 -3.070038E+05
       179  22  6.333572E+11 -8.756593E+08  5.138488E+11 -1.399414E+08  1.616334E+09 -1.891566E+06
       179  23  6.297073E+11  6.258532E+06  5.166742E+11 -4.123404E+07  1.529041E+09 -5.575424E+05
       179  24  6.254692E+11 -1.195050E+08  5.187363E+11 -1.612584E+08  1.443513E+09 -2.181201E+06
       179  25  6.331485E+11 -2.620203E+09  5.131738E+11 -3.765481E+08  1.622522E+09 -5.091055E+06
       179  26  6.306006E+11 -5.522447E+08  5.161441E+11 -1.302295E+08  1.548116E+09 -1.761319E+06
       179  27  6.277448E+11  8.047156E+08  5.185982E+11  1.709803E+08  1.476071E+09  2.310101E+06
       180   1  6.214997E+11 -6.093954E+08  5.205005E+11 -1.142108E+08 -1.365964E+09  1.541680E+06
       180   2  6.180386E+11 -1.688202E+08  5.227998E+11  2.116027E+08 -1.288423E+09 -2.862657E+06
       180   3  6.143941E+11 -4.124026E+07  5.246922E+11 -7.088801E+06 -1.213353E+09  9.475694E+04
       180   4  6.243623E+11  3.914337E+08  5.202301E+11  1.783286E+08 -1.408323E+09 -2.412758E+06
       180   5  6.212142E+11  8.868441E+07  5.216438E+11  7.678409E+07 -1.347015E+09 -1.038763E+06
       180   6  6.181574E+11  1.287979E+07  5.230032E+11 -1.438229E+08 -1.287339E+09  1.944647E+06
       180   7  6.256005E+11 -1.025412E+07  5.189918E+11 -1.231616E+08 -1.441663E+09  1.664679E+06
       180   8  6.243142E+11 -5.377783E+07  5.201863E+11 -6.326578E+07 -1.408257E+09  8.561631E+05
       180   9  6.228462E+11  4.361360E+08  5.214311E+11  2.397382E+08 -1.371609E+09 -3.239865E+06
       180  10  6.215176E+11 -6.096428E+08  5.204818E+11 -1.144291E+08 -1.398881E-04 -4.884981E-05
       180  11  6.180559E+11 -1.688387E+08  5.227823E+11  2.114856E+08  5.684342E-04 -4.440892E-06
       180  12  6.144110E+11 -4.104160E+07  5.246760E+11 -7.138327E+06 -2.742251E-04  3.053113E-06
       180  13  6.243807E+11  3.911630E+08  5.202108E+11  1.782048E+08  1.332268E-05  8.881784E-06
       180  14  6.212321E+11  8.857749E+07  5.216254E+11  7.677907E+07  2.864375E-04  0.000000E+00
       180  15  6.181749E+11  1.293668E+07  5.229859E+11 -1.437520E+08 -4.440892E-06 -8.881784E-06
       180  16  6.256196E+11 -1.042937E+07  5.189722E+11 -1.231626E+08 -2.842171E-04  0.000000E+00
       180  17  6.243329E+11 -5.394386E+07  5.201671E+11 -6.312404E+07  5.695444E-04 -4.440892E-05
       180  18  6.228644E+11  4.360267E+08  5.214124E+11  2.399643E+08  4.651834E-04  1.276756E-05
       180  19  6.214997E+11 -6.093954E+08  5.205005E+11 -1.142108E+08  1.365964E+09 -1.541680E+06
       180  20  6.180386E+11 -1.688202E+08  5.227998E+11  2.116027E+08  1.288423E+09  2.862657E+06
       180  21  6.143941E+11 -4.124026E+07  5.246922E+11 -7.088801E+06  1.213353E+09 -9.475694E+04
       180  22  6.243623E+11  3.914337E+08  5.202301E+11  1.783286E+08  1.408323E+09  2.412758E+06
       180  23  6.212142E+11  8.868441E+07  5.216438E+11  7.678409E+07  1.347015E+09  1.038763E+06
       180  24  6.181574E+11  1.287979E+07  5.230032E+11 -1.438229E+08  1.287339E+09 -1.944647E+06
       180  25  6.256005E+11 -1.025412E+07  5.189918E+11 -1.231616E+08  1.441663E+09 -1.664679E+06
       180  26  6.243142E+11 -5.377783E+07  5.201863E+11 -6.326578E+07  1.408257E+09 -8.561631E+05
       180  27  6.228462E+11  4.361360E+08  5.214311E+11  2.397382E+08  1.371609E+09  3.239865E+06
       181   1  6.355863E+11  1.468147E+09  5.151756E+11  4.379067E+08 -1.628393E+09 -5.921086E+06
       181   2  6.314240E+11  5.262087E+08  5.167543E+11  1.354073E+08 -1.550993E+09 -1.832144E+06
       181   3  6.269693E+11 -5.549709E+08  5.179898E+11 -3.327631E+08 -1.473807E+09  4.496425E+06
       181   4  6.350090E+11  1.876686E+08  5.148694E+11  6.985105E+07 -1.624820E+09 -9.448854E+05
       181   5  6.304104E+11 -1.011234E+08  5.170357E+11 -8.413520E+07 -1.533674E+09  1.136239E+06
       181   6  6.261080E+11  1.114235E+08  5.191432E+11 -2.460090E+07 -1.446647E+09  3.302895E+05
       181   7  6.342726E+11 -1.176479E+09  5.144813E+11 -2.337866E+08 -1.620159E+09  3.160402E+06
       181   8  6.295159E+11 -8.040425E+08  5.173151E+11 -2.310225E+08 -1.517949E+09  3.122336E+06
       181   9  6.255028E+11  4.444672E+08  5.202467E+11  2.207566E+08 -1.423588E+09 -2.986710E+06
       181  10  6.356077E+11  1.467896E+09  5.151533E+11  4.379089E+08 -2.930989E-04 -2.664535E-05
       181  11  6.314448E+11  5.261607E+08  5.167333E+11  1.353048E+08  2.220446E-06  8.881784E-06
       181  12  6.269895E+11 -5.548379E+08  5.179700E+11 -3.330101E+08 -6.751544E-04  2.442491E-05
       181  13  6.350302E+11  1.873768E+08  5.148471E+11  6.984079E+07  6.661338E-06 -3.469447E-05
       181  14  6.304310E+11 -1.011710E+08  5.170149E+11 -8.423227E+07  0.000000E+00 -1.110223E-06
       181  15  6.261279E+11  1.115809E+08  5.191238E+11 -2.480242E+07  5.706546E-04 -8.881784E-06
       181  16  6.342938E+11 -1.176794E+09  5.144591E+11 -2.338044E+08  2.842171E-04  0.000000E+00
       181  17  6.295363E+11 -8.040814E+08  5.172945E+11 -2.311101E+08 -2.842171E-04 -2.664535E-05
       181  18  6.255224E+11  4.446487E+08  5.202277E+11  2.205946E+08 -5.129230E-04 -2.997602E-05
       181  19  6.355863E+11  1.468147E+09  5.151756E+11  4.379067E+08  1.628393E+09  5.921086E+06
       181  20  6.314240E+11  5.262087E+08  5.167543E+11  1.354073E+08  1.550993E+09  1.832144E+06
       181  21  6.269693E+11 -5.549709E+08  5.179898E+11 -3.327631E+08  1.473807E+09 -4.496425E+06
       181  22  6.350090E+11  1.876686E+08  5.148694E+11  6.985105E+07  1.624820E+09  9.448854E+05
       181  23  6.304104E+11 -1.011234E+08  5.170357E+11 -8.413520E+07  1.533674E+09 -1.136239E+06
       181  24  6.261080E+11  1.114235E+08  5.191432E+11 -2.460090E+07  1.446647E+09 -3.302895E+05
       181  25  6.342726E+11 -1.176479E+09  5.144813E+11 -2.337866E+08  1.620159E+09 -3.160402E+06
       181  26  6.295159E+11 -8.040425E+08  5.173151E+11 -2.310225E+08  1.517949E+09 -3.122336E+06
       181  27  6.255028E+11  4.444672E+08  5.202467E+11  2.207566E+08  1.423588E+09  2.986710E+06
       182   1  6.358605E+11 -1.285275E+09  5.122903E+11  1.107709E+08 -1.671313E+09 -1.498168E+06
       182   2  6.427323E+11  2.443417E+09  5.105105E+11  3.260750E+08 -1.788843E+09 -4.410775E+06
       182   3  6.503143E+11  9.452804E+09  5.093931E+11  2.722677E+08 -1.905852E+09 -3.685774E+06
       182   4  6.366410E+11 -4.253876E+08  5.128903E+11  2.333840E+07 -1.673652E+09 -3.161601E+05
       182   5  6.426451E+11  3.581694E+08  5.106737E+11  2.158974E+08 -1.785112E+09 -2.920461E+06
       182   6  6.505653E+11  4.828258E+09  5.097474E+11 -4.259514E+08 -1.904182E+09  5.755973E+06
       182   7  6.356536E+11 -4.687210E+08  5.126884E+11 -8.101636E+08 -1.662929E+09  1.095244E+07
       182   8  6.394591E+11 -3.926246E+09  5.092695E+11 -9.259088E+08 -1.760837E+09  1.251731E+07
       182   9  6.462392E+11 -3.922867E+09  5.075219E+11 -2.979283E+09 -1.875835E+09  4.027907E+07
       182  10  6.358840E+11 -1.284868E+09  5.122682E+11  1.107565E+08  1.421085E-04 -8.881784E-06
       182  11  6.427568E+11  2.443582E+09  5.104865E+11  3.259037E+08 -4.440892E-06  3.552714E-05
       182  12  6.503399E+11  9.452759E+09  5.093673E+11  2.718471E+08 -2.842171E-04  2.553513E-05
       182  13  6.366643E+11 -4.250795E+08  5.128680E+11  2.331137E+07 -1.110223E-05 -3.788636E-05
       182  14  6.426693E+11  3.582229E+08  5.106496E+11  2.157782E+08 -1.989520E-03 -5.440093E-05
       182  15  6.505906E+11  4.828055E+09  5.097215E+11 -4.262617E+08  0.000000E+00 -2.664535E-05
       182  16  6.356766E+11 -4.684761E+08  5.126662E+11 -8.102698E+08  1.598721E-04 -1.776357E-05
       182  17  6.394829E+11 -3.926235E+09  5.092457E+11 -9.260508E+08  1.454392E-04  1.776357E-05
       182  18  6.462640E+11 -3.923131E+09  5.074963E+11 -2.979576E+09  1.436351E-04  5.329071E-05
       182  19  6.358605E+11 -1.285275E+09  5.122903E+11  1.107709E+08  1.671313E+09  1.498168E+06
       182  20  6.427323E+11  2.443417E+09  5.105105E+11  3.260750E+08  1.788843E+09  4.410775E+06
       182  21  6.503143E+11  9.452804E+09  5.093931E+11  2.722677E+08  1.905852E+09  3.685774E+06
       182  22  6.366410E+11 -4.253876E+08  5.128903E+11  2.333840E+07  1.673652E+09  3.161601E+05
       182  23  6.426451E+11  3.581694E+08  5.106737E+11  2.158974E+08  1.785112E+09  2.920461E+06
       182  24  6.505653E+11  4.828258E+09  5.097474E+11 -4.259514E+08  1.904182E+09 -5.755973E+06
       182  25  6.356536E+11 -4.687210E+08  5.126884E+11 -8.101636E+08  1.662929E+09 -1.095244E+07
       182  26  6.394591E+11 -3.926246E+09  5.092695E+11 -9.259088E+08  1.760837E+09 -1.251731E+07
       182  27  6.462392E+11 -3.922867E+09  5.075219E+11 -2.979283E+09  1.875835E+09 -4.027907E+07
       183   1  6.453466E+11 -8.512606E+09  4.991833E+11 -2.631949E+09 -1.977222E+09  3.558735E+07
       183   2  6.698301E+11  1.678349E+09  5.035071E+11  8.767769E+09 -2.251611E+09 -1.185307E+08
       183   3  6.946617E+11  1.722557E+10  5.087068E+11  2.002362E+10 -2.516649E+09 -2.707039E+08
       183   4  6.365540E+11 -2.007312E+10  4.955445E+11 -7.678180E+09 -1.907180E+09  1.038109E+08
       183   5  6.521721E+11 -1.421671E+08  5.022094E+11  4.937812E+08 -2.030269E+09 -6.673783E+06
       183   6  6.674945E+11  1.043407E+10  5.056157E+11  9.038511E+09 -2.192546E+09 -1.221953E+08
       183   7  6.472163E+11 -8.867105E+08  5.068763E+11 -4.126460E+09 -1.897645E+09  5.578694E+07
       183   8  6.394548E+11  7.512667E+09  5.046678E+11 -4.773413E+09 -1.822999E+09  6.452884E+07
       183   9  6.358503E+11 -5.888748E+09  4.971650E+11 -2.165273E+09 -1.876484E+09  2.926918E+07
       183  10  6.453746E+11 -8.512079E+09  4.991571E+11 -2.631697E+09 -1.421085E-04 -3.552714E-05
       183  11  6.698599E+11  1.678087E+09  5.034764E+11  8.769157E+09 -5.684342E-04 -1.332268E-05
       183  12  6.946932E+11  1.722449E+10  5.086717E+11  2.002611E+10 -5.417888E-04  1.665335E-06
       183  13  6.365813E+11 -2.007248E+10  4.955194E+11 -7.678384E+09 -3.330669E-06 -1.776357E-05
       183  14  6.522009E+11 -1.415903E+08  5.021826E+11  4.940039E+08 -8.504308E-04  3.552714E-05
       183  15  6.675246E+11  1.043429E+10  5.055864E+11  9.039459E+09  9.714451E-07 -3.108624E-05
       183  16  6.472428E+11 -8.863402E+08  5.068511E+11 -4.126935E+09 -2.842171E-04  0.000000E+00
       183  17  6.394824E+11  7.513972E+09  5.046445E+11 -4.774414E+09 -1.376677E-04  4.440892E-05
       183  18  6.358790E+11 -5.887311E+09  4.971410E+11 -2.165951E+09  1.315614E-04 -3.219647E-05
       183  19  6.453466E+11 -8.512606E+09  4.991833E+11 -2.631949E+09  1.977222E+09 -3.558735E+07
       183  20  6.698301E+11  1.678349E+09  5.035071E+11  8.767769E+09  2.251611E+09  1.185307E+08
       183  21  6.946617E+11  1.722557E+10  5.087068E+11  2.002362E+10  2.516649E+09  2.707039E+08
       183  22  6.365540E+11 -2.007312E+10  4.955445E+11 -7.678180E+09  1.907180E+09 -1.038109E+08
       183  23  6.521721E+11 -1.421671E+08  5.022094E+11  4.937812E+08  2.030269E+09  6.673783E+06
       183  24  6.674945E+11  1.043407E+10  5.056157E+11  9.038511E+09  2.192546E+09  1.221953E+08
       183  25  6.472163E+11 -8.867105E+08  5.068763E+11 -4.126460E+09  1.897645E+09 -5.578694E+07
       183  26  6.394548E+11  7.512667E+09  5.046678E+11 -4.773413E+09  1.822999E+09 -6.452884E+07
       183  27  6.358503E+11 -5.888748E+09  4.971650E+11 -2.165273E+09  1.876484E+09 -2.926918E+07
       184   1  6.356522E+11 -9.670598E+08  5.124943E+11 -4.892223E+08 -1.665545E+09  6.614085E+06
       184   2  6.407095E+11  4.596412E+09  5.121618E+11  1.223257E+09 -1.738579E+09 -1.653894E+07
       184   3  6.420344E+11  3.284778E+09  5.083945E+11  4.400405E+09 -1.807087E+09 -5.949440E+07
       184   4  6.372456E+11  3.583241E+08  5.131028E+11  7.444356E+08 -1.678956E+09 -1.006476E+07
       184   5  6.422384E+11  1.681260E+09  5.107842E+11 -9.026974E+07 -1.777920E+09  1.220952E+06
       184   6  6.445712E+11 -3.163013E+09  5.054597E+11 -1.041851E+09 -1.880858E+09  1.408733E+07
       184   7  6.359985E+11  6.420675E+08  5.125339E+11  1.119330E+09 -1.669817E+09 -1.513351E+07
       184   8  6.396823E+11 -2.012212E+09  5.079844E+11 -1.894315E+09 -1.781500E+09  2.561204E+07
       184   9  6.408408E+11 -1.033862E+10  5.005022E+11 -5.851335E+09 -1.897800E+09  7.911281E+07
       184  10  6.356751E+11 -9.668854E+08  5.124720E+11 -4.892240E+08 -1.554312E-04  1.776357E-05
       184  11  6.407329E+11  4.596381E+09  5.121383E+11  1.223338E+09  1.421085E-04  2.220446E-05
       184  12  6.420583E+11  3.284552E+09  5.083698E+11  4.400650E+09  7.993606E-05  5.551115E-06
       184  13  6.372687E+11  3.584990E+08  5.130802E+11  7.445216E+08 -2.220446E-06 -1.249001E-06
       184  14  6.422622E+11  1.681148E+09  5.107601E+11 -9.017582E+07  2.842171E-04  2.664535E-05
       184  15  6.445957E+11 -3.163434E+09  5.054339E+11 -1.041706E+09  8.548717E-04  2.442491E-05
       184  16  6.360217E+11  6.423418E+08  5.125116E+11  1.119420E+09  4.185541E-04 -1.776357E-05
       184  17  6.397063E+11 -2.012240E+09  5.079603E+11 -1.894291E+09  7.094325E-04  2.664535E-05
       184  18  6.408656E+11 -1.033897E+10  5.004762E+11 -5.851356E+09 -3.141931E-04  1.554312E-05
       184  19  6.356522E+11 -9.670598E+08  5.124943E+11 -4.892223E+08  1.665545E+09 -6.614085E+06
       184  20  6.407095E+11  4.596412E+09  5.121618E+11  1.223257E+09  1.738579E+09  1.653894E+07
       184  21  6.420344E+11  3.284778E+09  5.083945E+11  4.400405E+09  1.807087E+09  5.949440E+07
       184  22  6.372456E+11  3.583241E+08  5.131028E+11  7.444356E+08  1.678956E+09  1.006476E+07
       184  23  6.422384E+11  1.681260E+09  5.107842E+11 -9.026974E+07  1.777920E+09 -1.220952E+06
       184  24  6.445712E+11 -3.163013E+09  5.054597E+11 -1.041851E+09  1.880858E+09 -1.408733E+07
       184  25  6.359985E+11  6.420675E+08  5.125339E+11  1.119330E+09  1.669817E+09  1.513351E+07
       184  26  6.396823E+11 -2.012212E+09  5.079844E+11 -1.894315E+09  1.781500E+09 -2.561204E+07
       184  27  6.408408E+11 -1.033862E+10  5.005022E+11 -5.851335E+09  1.897800E+09 -7.911281E+07
       185   1  5.482286E+11  1.130968E+11  4.901357E+11  7.072707E+09 -7.881082E+08 -9.560902E+07
       185   2  6.073016E+11  1.470708E+11  5.170995E+11  2.919864E+10 -1.224357E+09 -3.947495E+08
       185   3  4.927267E+11  1.055021E+11  4.683568E+11  6.887145E+10 -3.314487E+08 -9.311277E+08
       185   4  5.049280E+11  9.767757E+10  4.719957E+11  3.415787E+10 -4.489972E+08 -4.618160E+08
       185   5  5.966567E+11  1.452543E+11  5.126112E+11  4.986818E+10 -1.141114E+09 -6.742146E+08
       185   6  5.399550E+11  1.248961E+11  4.875823E+11  8.507428E+10 -7.101057E+08 -1.150196E+09
       185   7  5.300759E+11  1.105514E+11  4.823005E+11  6.174655E+10 -6.477824E+08 -8.348296E+08
       185   8  6.364379E+11  1.649229E+11  5.293353E+11  6.974269E+10 -1.450990E+09 -9.429313E+08
       185   9  6.226136E+11  1.588298E+11  5.216571E+11  9.949674E+10 -1.366286E+09 -1.345194E+09
       185  10  5.482482E+11  1.131006E+11  4.901289E+11  7.074697E+09 -2.131628E-04  1.776357E-05
       185  11  6.073050E+11  1.470652E+11  5.170774E+11  2.920240E+10  9.237056E-04  7.993606E-05
       185  12  4.927043E+11  1.054906E+11  4.683408E+11  6.887776E+10  0.000000E+00 -8.881784E-06
       185  13  5.049612E+11  9.768925E+10  4.720014E+11  3.415992E+10  1.776357E-05 -2.220446E-06
       185  14  5.966739E+11  1.452551E+11  5.125966E+11  4.987192E+10 -8.704149E-04 -1.554312E-05
       185  15  5.399451E+11  1.248877E+11  4.875644E+11  8.508103E+10  1.953993E-04  2.220446E-06
       185  16  5.301287E+11  1.105703E+11  4.823107E+11  6.174874E+10  2.842171E-04 -1.776357E-05
       185  17  6.364758E+11  1.649308E+11  5.293236E+11  6.974630E+10  4.263256E-04  0.000000E+00
       185  18  6.226237E+11  1.588262E+11  5.216351E+11  9.950386E+10  1.731948E-04  1.332268E-05
       185  19  5.482286E+11  1.130968E+11  4.901357E+11  7.072707E+09  7.881082E+08  9.560902E+07
       185  20  6.073016E+11  1.470708E+11  5.170995E+11  2.919864E+10  1.224357E+09  3.947495E+08
       185  21  4.927267E+11  1.055021E+11  4.683568E+11  6.887145E+10  3.314487E+08  9.311277E+08
       185  22  5.049280E+11  9.767757E+10  4.719957E+11  3.415787E+10  4.489972E+08  4.618160E+08
       185  23  5.966567E+11  1.452543E+11  5.126112E+11  4.986818E+10  1.141114E+09  6.742146E+08
       185  24  5.399550E+11  1.248961E+11  4.875823E+11  8.507428E+10  7.101057E+08  1.150196E+09
       185  25  5.300759E+11  1.105514E+11  4.823005E+11  6.174655E+10  6.477824E+08  8.348296E+08
       185  26  6.364379E+11  1.649229E+11  5.293353E+11  6.974269E+10  1.450990E+09  9.429313E+08
       185  27  6.226136E+11  1.588298E+11  5.216571E+11  9.949674E+10  1.366286E+09  1.345194E+09
       186   1  5.991997E+11  1.487909E+11  5.114801E+11  1.067090E+11 -1.191566E+09 -1.442659E+09
       186   2  6.468176E+11  1.947638E+11  5.337478E+11  1.956025E+11 -1.542539E+09 -2.644541E+09
       186   3  4.281445E+11  1.535805E+11  4.467378E+11  2.808690E+11  2.461008E+08 -3.797396E+09
       186   4  5.989145E+11  1.403591E+11  5.082245E+11  1.206137E+11 -1.230756E+09 -1.630654E+09
       186   5  6.534650E+11  1.856896E+11  5.331377E+11  2.169359E+11 -1.637874E+09 -2.932984E+09
       186   6  5.301556E+11  1.846618E+11  4.882501E+11  2.961465E+11 -5.708390E+08 -4.003958E+09
       186   7  6.132726E+11  1.340297E+11  5.099249E+11  1.311996E+11 -1.400556E+09 -1.773776E+09
       186   8  6.606515E+11  1.767050E+11  5.326858E+11  2.359872E+11 -1.738133E+09 -3.190536E+09
       186   9  6.206842E+11  2.161370E+11  5.264372E+11  3.053522E+11 -1.277488E+09 -4.128402E+09
       186  10  5.992694E+11  1.488139E+11  5.114870E+11  1.067216E+11 -7.105427E-05 -3.552714E-05
       186  11  6.468734E+11  1.947789E+11  5.337422E+11  1.956171E+11  1.421085E-04  0.000000E+00
       186  12  4.281863E+11  1.535997E+11  4.467606E+11  2.808825E+11  1.065814E-04  1.887379E-05
       186  13  5.989881E+11  1.403835E+11  5.082324E+11  1.206271E+11  2.664535E-05 -3.774758E-05
       186  14  6.535224E+11  1.857048E+11  5.331309E+11  2.169525E+11 -3.008704E-04  2.220446E-05
       186  15  5.301983E+11  1.846768E+11  4.882574E+11  2.961629E+11 -2.131628E-04 -1.776357E-05
       186  16  6.133527E+11  1.340559E+11  5.099323E+11  1.312135E+11 -1.421085E-04  1.776357E-05
       186  17  6.607109E+11  1.767203E+11  5.326778E+11  2.360060E+11 -3.552714E-05  5.329071E-05
       186  18  6.207287E+11  2.161486E+11  5.264316E+11  3.053713E+11  8.881784E-05 -8.881784E-06
       186  19  5.991997E+11  1.487909E+11  5.114801E+11  1.067090E+11  1.191566E+09  1.442659E+09
       186  20  6.468176E+11  1.947638E+11  5.337478E+11  1.956025E+11  1.542539E+09  2.644541E+09
       186  21  4.281445E+11  1.535805E+11  4.467378E+11  2.808690E+11 -2.461008E+08  3.797396E+09
       186  22  5.989145E+11  1.403591E+11  5.082245E+11  1.206137E+11  1.230756E+09  1.630654E+09
       186  23  6.534650E+11  1.856896E+11  5.331377E+11  2.169359E+11  1.637874E+09  2.932984E+09
       186  24  5.301556E+11  1.846618E+11  4.882501E+11  2.961465E+11  5.708390E+08  4.003958E+09
       186  25  6.132726E+11  1.340297E+11  5.099249E+11  1.311996E+11  1.400556E+09  1.773776E+09
       186  26  6.606515E+11  1.767050E+11  5.326858E+11  2.359872E+11  1.738133E+09  3.190536E+09
       186  27  6.206842E+11  2.161370E+11  5.264372E+11  3.053522E+11  1.277488E+09  4.128402E+09
       187   1  6.506803E+11  1.706213E+11  5.356129E+11  6.182589E+10 -1.560456E+09 -8.358052E+08
       187   2  6.458293E+11  1.513690E+11  5.270269E+11  9.958824E+10 -1.611661E+09 -1.346328E+09
       187   3  6.013783E+11  1.121007E+11  5.001462E+11  1.450284E+11 -1.372740E+09 -1.960626E+09
       187   4  6.676335E+11  1.354475E+11  5.271351E+11  1.511147E+11 -1.909637E+09 -2.043047E+09
       187   5  6.528831E+11  1.467943E+11  5.242382E+11  1.787652E+11 -1.749076E+09 -2.416885E+09
       187   6  6.120776E+11  1.647968E+11  5.152338E+11  2.035328E+11 -1.317320E+09 -2.751711E+09
       187   7  7.889388E+11  1.356996E+11  5.584449E+11  2.586000E+11 -3.120782E+09 -3.496314E+09
       187   8  7.636669E+11  1.648735E+11  5.574552E+11  2.917974E+11 -2.792481E+09 -3.945203E+09
       187   9  7.183852E+11  2.103003E+11  5.551746E+11  3.218191E+11 -2.210127E+09 -4.351026E+09
       187  10  6.506679E+11  1.706070E+11  5.355775E+11  6.183914E+10 -4.618528E-04  8.881784E-06
       187  11  6.457876E+11  1.513418E+11  5.269780E+11  9.960685E+10  3.552714E-05  4.884981E-05
       187  12  6.012859E+11  1.120532E+11  5.000802E+11  1.450557E+11  1.598721E-04  9.658940E-05
       187  13  6.676637E+11  1.354495E+11  5.271113E+11  1.511283E+11  3.552714E-05 -1.110223E-05
       187  14  6.528985E+11  1.467908E+11  5.242113E+11  1.787816E+11 -3.197442E-04 -3.108624E-05
       187  15  6.120686E+11  1.647853E+11  5.152047E+11  2.035531E+11  7.105427E-05 -2.664535E-05
       187  16  7.889992E+11  1.357073E+11  5.584106E+11  2.586167E+11  2.020606E-04  1.776357E-05
       187  17  7.637196E+11  1.648801E+11  5.574239E+11  2.918164E+11  6.472600E-04  8.881784E-06
       187  18  7.184257E+11  2.103051E+11  5.551494E+11  3.218409E+11 -1.776357E-05 -2.275957E-05
       187  19  6.506803E+11  1.706213E+11  5.356129E+11  6.182589E+10  1.560456E+09  8.358052E+08
       187  20  6.458293E+11  1.513690E+11  5.270269E+11  9.958824E+10  1.611661E+09  1.346328E+09
       187  21  6.013783E+11  1.121007E+11  5.001462E+11  1.450284E+11  1.372740E+09  1.960626E+09
       187  22  6.676335E+11  1.354475E+11  5.271351E+11  1.511147E+11  1.909637E+09  2.043047E+09
       187  23  6.528831E+11  1.467943E+11  5.242382E+11  1.787652E+11  1.749076E+09  2.416885E+09
       187  24  6.120776E+11  1.647968E+11  5.152338E+11  2.035328E+11  1.317320E+09  2.751711E+09
       187  25  7.889388E+11  1.356996E+11  5.584449E+11  2.586000E+11  3.120782E+09  3.496314E+09
       187  26  7.636669E+11  1.648735E+11  5.574552E+11  2.917974E+11  2.792481E+09  3.945203E+09
       187  27  7.183852E+11  2.103003E+11  5.551746E+11  3.218191E+11  2.210127E+09  4.351026E+09
       188   1  8.174384E+11  1.291082E+11  5.660695E+11  2.411609E+11 -3.402312E+09 -3.260520E+09
       188   2  8.897099E+11  1.127320E+11  5.844714E+11  2.251140E+11 -4.129262E+09 -3.043594E+09
       188   3  9.415507E+11  7.246399E+10  5.896887E+11  1.965353E+11 -4.758731E+09 -2.657154E+09
       188   4  6.925268E+11  1.365000E+11  5.354967E+11  1.415270E+11 -2.131888E+09 -1.913426E+09
       188   5  7.156991E+11  1.192917E+11  5.376209E+11  1.379510E+11 -2.413183E+09 -1.865086E+09
       188   6  7.205631E+11  8.550238E+10  5.293518E+11  1.258443E+11 -2.587818E+09 -1.701391E+09
       188   7  5.436842E+11  1.224844E+11  4.893060E+11  7.564912E+10 -7.386385E+08 -1.022714E+09
       188   8  5.782389E+11  1.334866E+11  5.027519E+11  9.104129E+10 -1.022759E+09 -1.230823E+09
       188   9  6.168178E+11  1.495487E+11  5.189535E+11  1.082958E+11 -1.324190E+09 -1.464109E+09
       188  10  8.175023E+11  1.291159E+11  5.660313E+11  2.411761E+11  1.332268E-04  0.000000E+00
       188  11  8.897770E+11  1.127369E+11  5.844205E+11  2.251296E+11  5.684342E-04  3.108624E-05
       188  12  9.416210E+11  7.246658E+10  5.896269E+11  1.965509E+11 -2.930989E-04 -1.221245E-05
       188  13  6.925833E+11  1.365119E+11  5.354799E+11  1.415390E+11 -8.881784E-05 -1.332268E-05
       188  14  7.157563E+11  1.193023E+11  5.375989E+11  1.379630E+11  5.684342E-04 -3.330669E-05
       188  15  7.206202E+11  8.551189E+10  5.293263E+11  1.258558E+11 -8.881784E-05  2.456368E-05
       188  16  5.437309E+11  1.225002E+11  4.893118E+11  7.566089E+10  5.329071E-05  1.776357E-05
       188  17  5.782836E+11  1.334999E+11  5.027513E+11  9.105353E+10 -7.105427E-05  4.440892E-06
       188  18  6.168582E+11  1.495584E+11  5.189453E+11  1.083081E+11  1.953993E-04  1.332268E-05
       188  19  8.174384E+11  1.291082E+11  5.660695E+11  2.411609E+11  3.402312E+09  3.260520E+09
       188  20  8.897099E+11  1.127320E+11  5.844714E+11  2.251140E+11  4.129262E+09  3.043594E+09
       188  21  9.415507E+11  7.246399E+10  5.896887E+11  1.965353E+11  4.758731E+09  2.657154E+09
       188  22  6.925268E+11  1.365000E+11  5.354967E+11  1.415270E+11  2.131888E+09  1.913426E+09
       188  23  7.156991E+11  1.192917E+11  5.376209E+11  1.379510E+11  2.413183E+09  1.865086E+09
       188  24  7.205631E+11  8.550238E+10  5.293518E+11  1.258443E+11  2.587818E+09  1.701391E+09
       188  25  5.436842E+11  1.224844E+11  4.893060E+11  7.564912E+10  7.386385E+08  1.022714E+09
       188  26  5.782389E+11  1.334866E+11  5.027519E+11  9.104129E+10  1.022759E+09  1.230823E+09
       188  27  6.168178E+11  1.495487E+11  5.189535E+11  1.082958E+11  1.324190E+09  1.464109E+09
       189   1  9.406568E+11  6.160064E+10  5.872612E+11  1.604343E+11 -4.779551E+09 -2.169043E+09
       189   2  9.082453E+11  8.102458E+10  5.851466E+11  1.169283E+11 -4.369831E+09 -1.580843E+09
       189   3  8.465351E+11  7.709527E+10  5.669540E+11  8.570700E+10 -3.779893E+09 -1.158711E+09
       189   4  7.192808E+11  8.091278E+10  5.280693E+11  1.478690E+11 -2.586820E+09 -1.999148E+09
       189   5  7.229758E+11  9.416641E+10  5.342330E+11  1.194606E+11 -2.552017E+09 -1.615075E+09
       189   6  6.949157E+11  8.787453E+10  5.248284E+11  1.007438E+11 -2.297444E+09 -1.362017E+09
       189   7  6.096478E+11  1.386226E+11  5.137192E+11  8.443274E+10 -1.297671E+09 -1.141500E+09
       189   8  6.051413E+11  1.195018E+11  5.074305E+11  8.360757E+10 -1.321177E+09 -1.130354E+09
       189   9  5.772702E+11  9.395068E+10  4.921272E+11  8.398066E+10 -1.150288E+09 -1.135404E+09
       189  10  9.407177E+11  6.159907E+10  5.871950E+11  1.604480E+11 -1.243450E-04 -8.881784E-06
       189  11  9.083082E+11  8.102623E+10  5.850892E+11  1.169402E+11 -7.993606E-05 -2.220446E-05
       189  12  8.465986E+11  7.710062E+10  5.669082E+11  8.571776E+10  1.154632E-04 -1.165734E-05
       189  13  7.193229E+11  8.091587E+10  5.280374E+11  1.478827E+11 -5.684342E-04  6.661338E-06
       189  14  7.230233E+11  9.417199E+10  5.342040E+11  1.194724E+11  0.000000E+00 -1.332268E-05
       189  15  6.949662E+11  8.788286E+10  5.248056E+11  1.007543E+11 -3.019807E-04  4.440892E-06
       189  16  6.096627E+11  1.386214E+11  5.137005E+11  8.444153E+10  4.796163E-04  4.440892E-05
       189  17  6.051685E+11  1.195058E+11  5.074167E+11  8.361511E+10  1.154632E-04 -4.884981E-05
       189  18  5.773045E+11  9.395870E+10  4.921197E+11  8.398744E+10  1.287859E-04  8.881784E-06
       189  19  9.406568E+11  6.160064E+10  5.872612E+11  1.604343E+11  4.779551E+09  2.169043E+09
       189  20  9.082453E+11  8.102458E+10  5.851466E+11  1.169283E+11  4.369831E+09  1.580843E+09
       189  21  8.465351E+11  7.709527E+10  5.669540E+11  8.570700E+10  3.779893E+09  1.158711E+09
       189  22  7.192808E+11  8.091278E+10  5.280693E+11  1.478690E+11  2.586820E+09  1.999148E+09
       189  23  7.229758E+11  9.416641E+10  5.342330E+11  1.194606E+11  2.552017E+09  1.615075E+09
       189  24  6.949157E+11  8.787453E+10  5.248284E+11  1.007438E+11  2.297444E+09  1.362017E+09
       189  25  6.096478E+11  1.386226E+11  5.137192E+11  8.443274E+10  1.297671E+09  1.141500E+09
       189  26  6.051413E+11  1.195018E+11  5.074305E+11  8.360757E+10  1.321177E+09  1.130354E+09
       189  27  5.772702E+11  9.395068E+10  4.921272E+11  8.398066E+10  1.150288E+09  1.135404E+09
       190   1  5.728684E+11  1.254378E+11  4.997856E+11  5.734327E+10 -9.893353E+08 -7.752819E+08
       190   2  5.984463E+11  1.271658E+11  5.076830E+11  7.446968E+10 -1.228099E+09 -1.006826E+09
       190   3  6.011427E+11  1.168351E+11  5.050587E+11  8.697193E+10 -1.299522E+09 -1.175847E+09
       190   4  5.831439E+11  1.283117E+11  5.048254E+11  2.761103E+10 -1.061940E+09 -3.732956E+08
       190   5  5.871286E+11  1.207544E+11  5.034449E+11  5.121845E+10 -1.134028E+09 -6.924672E+08
       190   6  5.939896E+11  1.124287E+11  5.024784E+11  7.294634E+10 -1.238263E+09 -9.862267E+08
       190   7  5.612997E+11  1.170173E+11  4.953925E+11 -3.691513E+08 -8.928985E+08  5.002975E+06
       190   8  5.723573E+11  1.125516E+11  4.972863E+11  2.849138E+10 -1.017442E+09 -3.851933E+08
       190   9  6.129315E+11  1.188681E+11  5.108721E+11  5.665905E+10 -1.380920E+09 -7.660232E+08
       190  10  5.728723E+11  1.254338E+11  4.997682E+11  5.734687E+10 -8.881784E-05  1.776357E-05
       190  11  5.984553E+11  1.271625E+11  5.076631E+11  7.447478E+10 -1.953993E-04  8.881784E-06
       190  12  6.011593E+11  1.168347E+11  5.050408E+11  8.697880E+10 -4.440892E-05  3.774758E-05
       190  13  5.831559E+11  1.283107E+11  5.048100E+11  2.761345E+10  1.065814E-04 -2.220446E-06
       190  14  5.871459E+11  1.207553E+11  5.034305E+11  5.122237E+10 -5.684342E-04 -3.108624E-05
       190  15  5.940149E+11  1.124324E+11  5.024654E+11  7.295176E+10  1.332268E-04  4.440892E-06
       190  16  5.613169E+11  1.170195E+11  4.953827E+11 -3.677579E+08  0.000000E+00  5.329071E-05
       190  17  5.723800E+11  1.125555E+11  4.972765E+11  2.849430E+10  2.486900E-04 -3.108624E-05
       190  18  6.129622E+11  1.188733E+11  5.108586E+11  5.666339E+10 -1.776357E-05 -3.858025E-05
       190  19  5.728684E+11  1.254378E+11  4.997856E+11  5.734327E+10  9.893353E+08  7.752819E+08
       190  20  5.984463E+11  1.271658E+11  5.076830E+11  7.446968E+10  1.228099E+09  1.006826E+09
       190  21  6.011427E+11  1.168351E+11  5.050587E+11  8.697193E+10  1.299522E+09  1.175847E+09
       190  22  5.831439E+11  1.283117E+11  5.048254E+11  2.761103E+10  1.061940E+09  3.732956E+08
       190  23  5.871286E+11  1.207544E+11  5.034449E+11  5.121845E+10  1.134028E+09  6.924672E+08
       190  24  5.939896E+11  1.124287E+11  5.024784E+11  7.294634E+10  1.238263E+09  9.862267E+08
       190  25  5.612997E+11  1.170173E+11  4.953925E+11 -3.691513E+08  8.928985E+08 -5.002975E+06
       190  26  5.723573E+11  1.125516E+11  4.972863E+11  2.849138E+10  1.017442E+09  3.851933E+08
       190  27  6.129315E+11  1.188681E+11  5.108721E+11  5.665905E+10  1.380920E+09  7.660232E+08
