
 stresses (elem, integ.pnt.,sxx,syy,szz,sxy,sxz,syz) for set EALL and time  0.1000000E+01

         1   1 -1.601832E+05 -1.124711E+05 -5.453086E+04 -1.403444E+03 -1.694066E-10 -6.437450E-09
         1   2 -1.684370E+05 -1.151001E+05 -5.670742E+04  5.675094E+02 -1.524659E-09 -8.978549E-09
         1   3 -1.776941E+05 -1.165106E+05 -5.884092E+04  3.220931E+03  1.376429E-10 -1.694066E-10
         1   4 -1.854578E+05 -1.194541E+05 -6.098238E+04 -1.425671E+03  6.776264E-10 -4.065758E-09
         1   5 -1.906482E+05 -1.209870E+05 -6.232703E+04  3.571961E+03 -2.710505E-09  1.355253E-09
         1   6 -1.962054E+05 -1.210651E+05 -6.345408E+04  9.634063E+03  2.117582E-09 -7.284483E-09
         1   7 -2.121769E+05 -1.322334E+05 -6.888205E+04 -1.941381E+03 -1.355253E-09  0.000000E+00
         1   8 -2.145748E+05 -1.333962E+05 -6.959421E+04  5.738437E+03  6.776264E-10  8.131516E-09
         1   9 -2.168193E+05 -1.330065E+05 -6.996516E+04  1.476724E+04  2.032879E-09 -6.098637E-09
         1  10 -1.601832E+05 -1.124711E+05 -5.453086E+04 -1.403444E+03  1.694066E-10  6.776264E-10
         1  11 -1.684370E+05 -1.151001E+05 -5.670742E+04  5.675094E+02  2.541099E-10 -2.032879E-09
         1  12 -1.776941E+05 -1.165106E+05 -5.884092E+04  3.220931E+03 -8.470329E-11 -9.317362E-10
         1  13 -1.854578E+05 -1.194541E+05 -6.098238E+04 -1.425671E+03  1.016440E-09  0.000000E+00
         1  14 -1.906482E+05 -1.209870E+05 -6.232703E+04  3.571961E+03 -3.388132E-10 -4.065758E-09
         1  15 -1.962054E+05 -1.210651E+05 -6.345408E+04  9.634063E+03  8.046813E-10 -1.694066E-10
         1  16 -2.121769E+05 -1.322334E+05 -6.888205E+04 -1.941381E+03  0.000000E+00 -1.355253E-09
         1  17 -2.145748E+05 -1.333962E+05 -6.959421E+04  5.738437E+03  0.000000E+00  1.355253E-09
         1  18 -2.168193E+05 -1.330065E+05 -6.996516E+04  1.476724E+04 -1.058791E-10  7.623297E-10
         1  19 -1.601832E+05 -1.124711E+05 -5.453086E+04 -1.403444E+03  1.524659E-09  1.016440E-09
         1  20 -1.684370E+05 -1.151001E+05 -5.670742E+04  5.675094E+02 -1.185846E-09  3.557538E-09
         1  21 -1.776941E+05 -1.165106E+05 -5.884092E+04  3.220931E+03  1.217610E-09  1.694066E-10
         1  22 -1.854578E+05 -1.194541E+05 -6.098238E+04 -1.425671E+03  6.776264E-10  4.065758E-09
         1  23 -1.906482E+05 -1.209870E+05 -6.232703E+04  3.571961E+03  0.000000E+00 -1.355253E-09
         1  24 -1.962054E+05 -1.210651E+05 -6.345408E+04  9.634063E+03 -7.623297E-10  7.284483E-09
         1  25 -2.121769E+05 -1.322334E+05 -6.888205E+04 -1.941381E+03  1.355253E-09  0.000000E+00
         1  26 -2.145748E+05 -1.333962E+05 -6.959421E+04  5.738437E+03 -6.776264E-10  2.710505E-09
         1  27 -2.168193E+05 -1.330065E+05 -6.996516E+04  1.476724E+04  6.776264E-10 -4.743385E-09
         2   1 -1.822680E+05 -1.165569E+05 -5.976499E+04  7.738926E+03 -1.694066E-10  3.049319E-09
         2   2 -1.885894E+05 -1.132870E+05 -6.037527E+04  1.615351E+04  1.694066E-10 -3.388132E-09
         2   3 -1.953158E+05 -1.102300E+05 -6.110916E+04  2.440929E+04 -6.564505E-10 -1.694066E-10
         2   4 -2.002994E+05 -1.223910E+05 -6.453809E+04  1.523698E+04  3.388132E-09 -2.710505E-09
         2   5 -2.073582E+05 -1.176623E+05 -6.500411E+04  2.412360E+04  1.694066E-09 -4.065758E-09
         2   6 -2.148022E+05 -1.128395E+05 -6.552834E+04  3.307436E+04  3.134022E-09 -1.033380E-08
         2   7 -2.185589E+05 -1.301440E+05 -6.974058E+04  2.341438E+04  1.355253E-09 -8.131516E-09
         2   8 -2.263735E+05 -1.243831E+05 -7.015132E+04  3.277219E+04  3.388132E-09  0.000000E+00
         2   9 -2.345627E+05 -1.183222E+05 -7.057699E+04  4.241147E+04  0.000000E+00 -3.388132E-10
         2  10 -1.822680E+05 -1.165569E+05 -5.976499E+04  7.738926E+03  0.000000E+00  0.000000E+00
         2  11 -1.885894E+05 -1.132870E+05 -6.037527E+04  1.615351E+04  1.694066E-10  6.776264E-10
         2  12 -1.953158E+05 -1.102300E+05 -6.110916E+04  2.440929E+04  2.117582E-11  3.388132E-10
         2  13 -2.002994E+05 -1.223910E+05 -6.453809E+04  1.523698E+04  3.388132E-10  0.000000E+00
         2  14 -2.073582E+05 -1.176623E+05 -6.500411E+04  2.412360E+04  1.016440E-09  0.000000E+00
         2  15 -2.148022E+05 -1.128395E+05 -6.552834E+04  3.307436E+04  1.270549E-10 -3.388132E-10
         2  16 -2.185589E+05 -1.301440E+05 -6.974058E+04  2.341438E+04  0.000000E+00  1.016440E-09
         2  17 -2.263735E+05 -1.243831E+05 -7.015132E+04  3.277219E+04  8.470329E-11 -6.776264E-10
         2  18 -2.345627E+05 -1.183222E+05 -7.057699E+04  4.241147E+04  1.270549E-10  0.000000E+00
         2  19 -1.822680E+05 -1.165569E+05 -5.976499E+04  7.738926E+03  1.694066E-10  2.371692E-09
         2  20 -1.885894E+05 -1.132870E+05 -6.037527E+04  1.615351E+04 -1.524659E-09  8.809143E-09
         2  21 -1.953158E+05 -1.102300E+05 -6.110916E+04  2.440929E+04 -2.054055E-09  1.694066E-10
         2  22 -2.002994E+05 -1.223910E+05 -6.453809E+04  1.523698E+04 -6.776264E-10 -2.710505E-09
         2  23 -2.073582E+05 -1.176623E+05 -6.500411E+04  2.412360E+04  1.016440E-09 -6.776264E-09
         2  24 -2.148022E+05 -1.128395E+05 -6.552834E+04  3.307436E+04 -4.235165E-10  4.912791E-09
         2  25 -2.185589E+05 -1.301440E+05 -6.974058E+04  2.341438E+04 -1.355253E-09  8.131516E-09
         2  26 -2.263735E+05 -1.243831E+05 -7.015132E+04  3.277219E+04 -3.388132E-09  0.000000E+00
         2  27 -2.345627E+05 -1.183222E+05 -7.057699E+04  4.241147E+04  0.000000E+00  3.388132E-10
         3   1 -2.299106E+05 -1.347870E+05 -7.293952E+04  2.911899E+04  1.016440E-09  4.743385E-09
         3   2 -2.360142E+05 -1.270914E+05 -7.262113E+04  3.972115E+04 -1.694066E-09 -2.371692E-09
         3   3 -2.480191E+05 -1.217317E+05 -7.395015E+04  4.861186E+04  2.032879E-09 -1.346782E-08
         3   4 -2.463292E+05 -1.446661E+05 -7.819905E+04  3.859692E+04  2.710505E-09 -9.486769E-09
         3   5 -2.562140E+05 -1.352808E+05 -7.829897E+04  5.021068E+04  0.000000E+00 -2.032879E-09
         3   6 -2.719195E+05 -1.278374E+05 -7.995138E+04  6.053022E+04 -1.439956E-09 -2.879912E-09
         3   7 -2.620403E+05 -1.545255E+05 -8.331317E+04  4.979200E+04  1.355253E-09 -8.131516E-09
         3   8 -2.753755E+05 -1.437550E+05 -8.382611E+04  6.247587E+04  0.000000E+00 -4.065758E-09
         3   9 -2.943443E+05 -1.346010E+05 -8.578906E+04  7.428875E+04  4.235165E-09 -5.082198E-09
         3  10 -2.299106E+05 -1.347870E+05 -7.293952E+04  2.911899E+04  0.000000E+00  3.388132E-10
         3  11 -2.360142E+05 -1.270914E+05 -7.262113E+04  3.972115E+04  8.470329E-11  1.016440E-09
         3  12 -2.480191E+05 -1.217317E+05 -7.395015E+04  4.861186E+04  3.176374E-10  8.893846E-10
         3  13 -2.463292E+05 -1.446661E+05 -7.819905E+04  3.859692E+04 -3.388132E-10  1.355253E-09
         3  14 -2.562140E+05 -1.352808E+05 -7.829897E+04  5.021068E+04 -6.776264E-10 -6.776264E-10
         3  15 -2.719195E+05 -1.278374E+05 -7.995138E+04  6.053022E+04 -9.317362E-10  5.082198E-10
         3  16 -2.620403E+05 -1.545255E+05 -8.331317E+04  4.979200E+04  0.000000E+00 -3.388132E-10
         3  17 -2.753755E+05 -1.437550E+05 -8.382611E+04  6.247587E+04  9.317362E-10  6.776264E-10
         3  18 -2.943443E+05 -1.346010E+05 -8.578906E+04  7.428875E+04 -1.270549E-10 -2.541099E-10
         3  19 -2.299106E+05 -1.347870E+05 -7.293952E+04  2.911899E+04 -2.371692E-09 -4.743385E-09
         3  20 -2.360142E+05 -1.270914E+05 -7.262113E+04  3.972115E+04  1.694066E-09  2.371692E-09
         3  21 -2.480191E+05 -1.217317E+05 -7.395015E+04  4.861186E+04 -6.776264E-10  8.046813E-09
         3  22 -2.463292E+05 -1.446661E+05 -7.819905E+04  3.859692E+04  1.355253E-09  4.065758E-09
         3  23 -2.562140E+05 -1.352808E+05 -7.829897E+04  5.021068E+04 -2.710505E-09 -6.776264E-10
         3  24 -2.719195E+05 -1.278374E+05 -7.995138E+04  6.053022E+04  8.470329E-11  1.694066E-10
         3  25 -2.620403E+05 -1.545255E+05 -8.331317E+04  4.979200E+04  1.355253E-09  2.710505E-09
         3  26 -2.753755E+05 -1.437550E+05 -8.382611E+04  6.247587E+04 -2.710505E-09  1.355253E-09
         3  27 -2.943443E+05 -1.346010E+05 -8.578906E+04  7.428875E+04 -2.879912E-09  2.371692E-09
         4   1 -2.297895E+05 -1.397409E+05 -7.390608E+04 -9.259962E+02  9.317362E-10  1.490778E-08
         4   2 -2.230693E+05 -1.379482E+05 -7.220351E+04  1.050625E+04 -6.776264E-10 -2.541099E-09
         4   3 -2.271042E+05 -1.389185E+05 -7.320453E+04  2.027496E+04 -2.435220E-10  1.211257E-08
         4   4 -2.457627E+05 -1.517090E+05 -7.949434E+04  1.009485E+03  6.776264E-10 -1.084202E-08
         4   5 -2.392302E+05 -1.490678E+05 -7.765962E+04  1.621634E+04  1.355253E-09 -2.032879E-09
         4   6 -2.421228E+05 -1.488018E+05 -7.818491E+04  3.024447E+04  1.016440E-09 -1.694066E-10
         4   7 -2.618777E+05 -1.642316E+05 -8.522188E+04  3.801746E+03  6.776264E-10  2.710505E-09
         4   8 -2.554844E+05 -1.608424E+05 -8.326535E+04  2.240907E+04  1.016440E-09 -4.065758E-09
         4   9 -2.573343E+05 -1.595001E+05 -8.336687E+04  4.021258E+04  2.117582E-09 -8.131516E-09
         4  10 -2.297895E+05 -1.397409E+05 -7.390608E+04 -9.259962E+02 -1.694066E-10  0.000000E+00
         4  11 -2.230693E+05 -1.379482E+05 -7.220351E+04  1.050625E+04 -4.235165E-10  6.776264E-10
         4  12 -2.271042E+05 -1.389185E+05 -7.320453E+04  2.027496E+04 -3.176374E-10 -1.185846E-09
         4  13 -2.457627E+05 -1.517090E+05 -7.949434E+04  1.009485E+03  3.388132E-10 -1.355253E-09
         4  14 -2.392302E+05 -1.490678E+05 -7.765962E+04  1.621634E+04 -1.694066E-10 -6.776264E-10
         4  15 -2.421228E+05 -1.488018E+05 -7.818491E+04  3.024447E+04 -6.352747E-10  3.388132E-10
         4  16 -2.618777E+05 -1.642316E+05 -8.522188E+04  3.801746E+03 -1.694066E-10 -3.388132E-10
         4  17 -2.554844E+05 -1.608424E+05 -8.326535E+04  2.240907E+04 -3.388132E-10  1.016440E-09
         4  18 -2.573343E+05 -1.595001E+05 -8.336687E+04  4.021258E+04  4.235165E-11 -2.117582E-10
         4  19 -2.297895E+05 -1.397409E+05 -7.390608E+04 -9.259962E+02 -2.286989E-09  6.776264E-09
         4  20 -2.230693E+05 -1.379482E+05 -7.220351E+04  1.050625E+04  6.776264E-10  2.541099E-09
         4  21 -2.271042E+05 -1.389185E+05 -7.320453E+04  2.027496E+04 -1.111731E-09 -1.270549E-09
         4  22 -2.457627E+05 -1.517090E+05 -7.949434E+04  1.009485E+03  6.776264E-10  1.084202E-08
         4  23 -2.392302E+05 -1.490678E+05 -7.765962E+04  1.621634E+04 -1.355253E-09 -3.388132E-09
         4  24 -2.421228E+05 -1.488018E+05 -7.818491E+04  3.024447E+04  3.388132E-10  5.590417E-09
         4  25 -2.618777E+05 -1.642316E+05 -8.522188E+04  3.801746E+03 -6.776264E-10  2.710505E-09
         4  26 -2.554844E+05 -1.608424E+05 -8.326535E+04  2.240907E+04 -1.016440E-09  4.065758E-09
         4  27 -2.573343E+05 -1.595001E+05 -8.336687E+04  4.021258E+04 -2.117582E-09  5.421011E-09
         5   1 -4.783894E+05 -2.010249E+05 -1.358829E+05  1.666626E+05 -3.811648E-10  1.397604E-09
         5   2 -4.666588E+05 -2.169545E+05 -1.367227E+05  1.659335E+05  3.811648E-10  0.000000E+00
         5   3 -4.559664E+05 -2.334130E+05 -1.378759E+05  1.665265E+05 -1.747005E-10 -1.715242E-09
         5   4 -5.120371E+05 -1.981719E+05 -1.420418E+05  1.707287E+05  6.776264E-10  0.000000E+00
         5   5 -4.990487E+05 -2.152477E+05 -1.428593E+05  1.726689E+05  0.000000E+00  2.541099E-10
         5   6 -4.870236E+05 -2.327547E+05 -1.439557E+05  1.757548E+05  5.929231E-10 -5.082198E-10
         5   7 -5.393182E+05 -1.939911E+05 -1.466618E+05  1.748845E+05  3.388132E-10 -3.388132E-10
         5   8 -5.254812E+05 -2.122682E+05 -1.475499E+05  1.794251E+05  6.776264E-10 -5.082198E-10
         5   9 -5.125206E+05 -2.308820E+05 -1.486805E+05  1.849472E+05 -8.470329E-10 -4.658681E-10
         5  10 -4.783894E+05 -2.010249E+05 -1.358829E+05  1.666626E+05  0.000000E+00  0.000000E+00
         5  11 -4.666588E+05 -2.169545E+05 -1.367227E+05  1.659335E+05  1.694066E-10 -1.694066E-10
         5  12 -4.559664E+05 -2.334130E+05 -1.378759E+05  1.665265E+05 -5.293956E-11 -6.352747E-11
         5  13 -5.120371E+05 -1.981719E+05 -1.420418E+05  1.707287E+05 -1.694066E-10  1.694066E-10
         5  14 -4.990487E+05 -2.152477E+05 -1.428593E+05  1.726689E+05 -8.470329E-11  1.694066E-10
         5  15 -4.870236E+05 -2.327547E+05 -1.439557E+05  1.757548E+05 -8.470329E-11  1.058791E-10
         5  16 -5.393182E+05 -1.939911E+05 -1.466618E+05  1.748845E+05  8.470329E-11  0.000000E+00
         5  17 -5.254812E+05 -2.122682E+05 -1.475499E+05  1.794251E+05 -2.117582E-10  3.388132E-10
         5  18 -5.125206E+05 -2.308820E+05 -1.486805E+05  1.849472E+05  3.176374E-11 -1.376429E-10
         5  19 -4.783894E+05 -2.010249E+05 -1.358829E+05  1.666626E+05  3.811648E-10 -7.199780E-10
         5  20 -4.666588E+05 -2.169545E+05 -1.367227E+05  1.659335E+05 -3.811648E-10 -6.776264E-10
         5  21 -4.559664E+05 -2.334130E+05 -1.378759E+05  1.665265E+05 -5.029258E-10  3.599890E-10
         5  22 -5.120371E+05 -1.981719E+05 -1.420418E+05  1.707287E+05  0.000000E+00  0.000000E+00
         5  23 -4.990487E+05 -2.152477E+05 -1.428593E+05  1.726689E+05 -1.355253E-09  1.101143E-09
         5  24 -4.870236E+05 -2.327547E+05 -1.439557E+05  1.757548E+05  8.470329E-11  5.082198E-10
         5  25 -5.393182E+05 -1.939911E+05 -1.466618E+05  1.748845E+05  3.388132E-10  3.388132E-10
         5  26 -5.254812E+05 -2.122682E+05 -1.475499E+05  1.794251E+05  0.000000E+00  5.082198E-10
         5  27 -5.125206E+05 -2.308820E+05 -1.486805E+05  1.849472E+05 -5.082198E-10 -2.117582E-10
         6   1 -4.504673E+05 -2.429869E+05 -1.386908E+05  1.671121E+05  2.541099E-10  8.470329E-11
         6   2 -4.454952E+05 -2.566644E+05 -1.404319E+05  1.703991E+05  1.694066E-09  6.352747E-10
         6   3 -4.400602E+05 -2.669383E+05 -1.413997E+05  1.738706E+05 -2.117582E-11 -9.846758E-10
         6   4 -4.804819E+05 -2.430976E+05 -1.447159E+05  1.785196E+05  1.016440E-09 -1.355253E-09
         6   5 -4.767896E+05 -2.593722E+05 -1.472324E+05  1.865452E+05 -1.694066E-10  5.082198E-10
         6   6 -4.725845E+05 -2.723081E+05 -1.489785E+05  1.946018E+05  1.058791E-09 -7.199780E-10
         6   7 -5.033569E+05 -2.418744E+05 -1.490463E+05  1.892330E+05  1.355253E-09 -2.032879E-09
         6   8 -5.012780E+05 -2.607753E+05 -1.524107E+05  2.018732E+05 -3.388132E-10 -2.032879E-09
         6   9 -4.986266E+05 -2.763980E+05 -1.550049E+05  2.144034E+05  0.000000E+00  1.778769E-09
         6  10 -4.504673E+05 -2.429869E+05 -1.386908E+05  1.671121E+05  1.694066E-10  8.470329E-11
         6  11 -4.454952E+05 -2.566644E+05 -1.404319E+05  1.703991E+05 -1.694066E-10  4.235165E-11
         6  12 -4.400602E+05 -2.669383E+05 -1.413997E+05  1.738706E+05 -2.858736E-10  2.011703E-10
         6  13 -4.804819E+05 -2.430976E+05 -1.447159E+05  1.785196E+05  0.000000E+00  1.694066E-10
         6  14 -4.767896E+05 -2.593722E+05 -1.472324E+05  1.865452E+05 -1.694066E-10  8.470329E-10
         6  15 -4.725845E+05 -2.723081E+05 -1.489785E+05  1.946018E+05  2.541099E-10  4.235165E-11
         6  16 -5.033569E+05 -2.418744E+05 -1.490463E+05  1.892330E+05 -3.388132E-10  1.694066E-10
         6  17 -5.012780E+05 -2.607753E+05 -1.524107E+05  2.018732E+05  0.000000E+00  4.658681E-10
         6  18 -4.986266E+05 -2.763980E+05 -1.550049E+05  2.144034E+05 -5.293956E-11  6.352747E-11
         6  19 -4.504673E+05 -2.429869E+05 -1.386908E+05  1.671121E+05 -2.541099E-10 -8.470329E-11
         6  20 -4.454952E+05 -2.566644E+05 -1.404319E+05  1.703991E+05 -3.049319E-09 -6.352747E-10
         6  21 -4.400602E+05 -2.669383E+05 -1.413997E+05  1.738706E+05  1.376429E-09  9.846758E-10
         6  22 -4.804819E+05 -2.430976E+05 -1.447159E+05  1.785196E+05 -2.371692E-09  6.776264E-10
         6  23 -4.767896E+05 -2.593722E+05 -1.472324E+05  1.865452E+05  1.694066E-10  8.470329E-10
         6  24 -4.725845E+05 -2.723081E+05 -1.489785E+05  1.946018E+05 -2.414044E-09 -6.352747E-10
         6  25 -5.033569E+05 -2.418744E+05 -1.490463E+05  1.892330E+05 -1.355253E-09 -6.776264E-10
         6  26 -5.012780E+05 -2.607753E+05 -1.524107E+05  2.018732E+05  3.388132E-10  1.355253E-09
         6  27 -4.986266E+05 -2.763980E+05 -1.550049E+05  2.144034E+05  0.000000E+00  2.286989E-09
         7   1 -5.158599E+05 -2.445150E+05 -1.520750E+05  1.958481E+05  2.202286E-09 -2.541099E-10
         7   2 -5.126408E+05 -2.634050E+05 -1.552092E+05  2.112640E+05  1.694066E-09 -4.658681E-10
         7   3 -5.115666E+05 -2.814435E+05 -1.586020E+05  2.292557E+05 -9.529121E-10  1.556423E-09
         7   4 -5.318765E+05 -2.569223E+05 -1.577597E+05  2.114933E+05  0.000000E+00 -3.388132E-10
         7   5 -5.283411E+05 -2.816057E+05 -1.619894E+05  2.359215E+05 -1.016440E-09 -5.082198E-10
         7   6 -5.266871E+05 -3.052327E+05 -1.663840E+05  2.624946E+05 -5.929231E-10 -1.228198E-09
         7   7 -5.297613E+05 -2.657138E+05 -1.590950E+05  2.259434E+05 -2.032879E-09  1.355253E-09
         7   8 -5.268602E+05 -2.962756E+05 -1.646272E+05  2.592100E+05  3.388132E-10  1.694066E-09
         7   9 -5.255565E+05 -3.255826E+05 -1.702278E+05  2.942173E+05  6.776264E-10  1.694066E-09
         7  10 -5.158599E+05 -2.445150E+05 -1.520750E+05  1.958481E+05  0.000000E+00  0.000000E+00
         7  11 -5.126408E+05 -2.634050E+05 -1.552092E+05  2.112640E+05  0.000000E+00 -4.235165E-11
         7  12 -5.115666E+05 -2.814435E+05 -1.586020E+05  2.292557E+05 -2.646978E-10  1.058791E-10
         7  13 -5.318765E+05 -2.569223E+05 -1.577597E+05  2.114933E+05  0.000000E+00 -5.082198E-10
         7  14 -5.283411E+05 -2.816057E+05 -1.619894E+05  2.359215E+05 -1.694066E-10 -8.470329E-11
         7  15 -5.266871E+05 -3.052327E+05 -1.663840E+05  2.624946E+05 -8.470329E-11 -2.541099E-10
         7  16 -5.297613E+05 -2.657138E+05 -1.590950E+05  2.259434E+05  0.000000E+00  0.000000E+00
         7  17 -5.268602E+05 -2.962756E+05 -1.646272E+05  2.592100E+05 -8.470329E-11  4.235165E-11
         7  18 -5.255565E+05 -3.255826E+05 -1.702278E+05  2.942173E+05 -1.588187E-10 -3.176374E-11
         7  19 -5.158599E+05 -2.445150E+05 -1.520750E+05  1.958481E+05 -1.524659E-09 -4.235165E-10
         7  20 -5.126408E+05 -2.634050E+05 -1.552092E+05  2.112640E+05 -3.388132E-10  4.658681E-10
         7  21 -5.115666E+05 -2.814435E+05 -1.586020E+05  2.292557E+05  2.308165E-09 -2.011703E-10
         7  22 -5.318765E+05 -2.569223E+05 -1.577597E+05  2.114933E+05 -1.355253E-09  1.016440E-09
         7  23 -5.283411E+05 -2.816057E+05 -1.619894E+05  2.359215E+05  1.016440E-09 -8.470329E-10
         7  24 -5.266871E+05 -3.052327E+05 -1.663840E+05  2.624946E+05 -7.623297E-10 -1.270549E-10
         7  25 -5.297613E+05 -2.657138E+05 -1.590950E+05  2.259434E+05  6.776264E-10  0.000000E+00
         7  26 -5.268602E+05 -2.962756E+05 -1.646272E+05  2.592100E+05  3.388132E-10 -3.388132E-10
         7  27 -5.255565E+05 -3.255826E+05 -1.702278E+05  2.942173E+05 -6.776264E-10  3.388132E-10
         8   1 -5.527067E+05 -1.928435E+05 -1.491101E+05  1.760189E+05  5.929231E-10  4.235165E-10
         8   2 -5.364698E+05 -2.107009E+05 -1.494341E+05  1.814059E+05  5.082198E-10 -5.929231E-10
         8   3 -5.235285E+05 -2.321633E+05 -1.511384E+05  1.899804E+05  4.870439E-10 -3.335192E-10
         8   4 -5.705618E+05 -1.952033E+05 -1.531530E+05  1.788062E+05  1.694066E-10 -3.388132E-10
         8   5 -5.516670E+05 -2.165440E+05 -1.536422E+05  1.886735E+05  0.000000E+00  5.082198E-10
         8   6 -5.358258E+05 -2.411310E+05 -1.553914E+05  2.013740E+05 -9.740879E-10 -6.776264E-10
         8   7 -5.768852E+05 -1.953697E+05 -1.544510E+05  1.813900E+05  0.000000E+00  0.000000E+00
         8   8 -5.560710E+05 -2.202409E+05 -1.552624E+05  1.956638E+05  0.000000E+00  0.000000E+00
         8   9 -5.380537E+05 -2.480162E+05 -1.572140E+05  2.124366E+05 -5.082198E-10  1.185846E-09
         8  10 -5.527067E+05 -1.928435E+05 -1.491101E+05  1.760189E+05  0.000000E+00  0.000000E+00
         8  11 -5.364698E+05 -2.107009E+05 -1.494341E+05  1.814059E+05  2.117582E-10  2.117582E-11
         8  12 -5.235285E+05 -2.321633E+05 -1.511384E+05  1.899804E+05  3.176374E-11  7.940934E-11
         8  13 -5.705618E+05 -1.952033E+05 -1.531530E+05  1.788062E+05  1.694066E-10 -1.694066E-10
         8  14 -5.516670E+05 -2.165440E+05 -1.536422E+05  1.886735E+05  8.470329E-11  4.235165E-10
         8  15 -5.358258E+05 -2.411310E+05 -1.553914E+05  2.013740E+05  6.352747E-11 -2.117582E-10
         8  16 -5.768852E+05 -1.953697E+05 -1.544510E+05  1.813900E+05  8.470329E-11 -4.235165E-11
         8  17 -5.560710E+05 -2.202409E+05 -1.552624E+05  1.956638E+05  4.235165E-11 -6.352747E-11
         8  18 -5.380537E+05 -2.480162E+05 -1.572140E+05  2.124366E+05 -4.235165E-11  7.411538E-11
         8  19 -5.527067E+05 -1.928435E+05 -1.491101E+05  1.760189E+05  8.470329E-11 -4.235165E-10
         8  20 -5.364698E+05 -2.107009E+05 -1.494341E+05  1.814059E+05 -5.082198E-10  1.270549E-09
         8  21 -5.235285E+05 -2.321633E+05 -1.511384E+05  1.899804E+05 -4.870439E-10  3.335192E-10
         8  22 -5.705618E+05 -1.952033E+05 -1.531530E+05  1.788062E+05 -1.694066E-10 -3.388132E-10
         8  23 -5.516670E+05 -2.165440E+05 -1.536422E+05  1.886735E+05  1.355253E-09  1.694066E-10
         8  24 -5.358258E+05 -2.411310E+05 -1.553914E+05  2.013740E+05 -3.811648E-10  2.032879E-09
         8  25 -5.768852E+05 -1.953697E+05 -1.544510E+05  1.813900E+05 -6.776264E-10  0.000000E+00
         8  26 -5.560710E+05 -2.202409E+05 -1.552624E+05  1.956638E+05  0.000000E+00  0.000000E+00
         8  27 -5.380537E+05 -2.480162E+05 -1.572140E+05  2.124366E+05 -1.694066E-10 -1.185846E-09
         9   1 -5.917801E+05 -1.927476E+05 -1.569055E+05  1.810256E+05  6.988022E-10  4.023406E-10
         9   2 -5.620152E+05 -2.120543E+05 -1.548139E+05  1.889967E+05  1.376429E-10  3.917527E-10
         9   3 -5.394802E+05 -2.354748E+05 -1.549910E+05  2.002683E+05 -8.999725E-10  8.417390E-10
         9   4 -5.921319E+05 -1.855801E+05 -1.555424E+05  1.771520E+05  9.317362E-10  1.694066E-10
         9   5 -5.553442E+05 -2.050240E+05 -1.520736E+05  1.828771E+05 -2.541099E-10 -1.270549E-10
         9   6 -5.245479E+05 -2.284090E+05 -1.505914E+05  1.915359E+05  2.329341E-10 -3.388132E-10
         9   7 -5.938654E+05 -1.751605E+05 -1.538052E+05  1.744558E+05 -1.694066E-10  1.694066E-10
         9   8 -5.505964E+05 -1.945006E+05 -1.490194E+05  1.779211E+05  5.082198E-10  3.388132E-10
         9   9 -5.121798E+05 -2.175568E+05 -1.459473E+05  1.839468E+05 -2.541099E-10  0.000000E+00
         9  10 -5.917801E+05 -1.927476E+05 -1.569055E+05  1.810256E+05 -8.470329E-11  8.470329E-11
         9  11 -5.620152E+05 -2.120543E+05 -1.548139E+05  1.889967E+05  6.352747E-11 -1.482308E-10
         9  12 -5.394802E+05 -2.354748E+05 -1.549910E+05  2.002683E+05  2.117582E-11 -5.823352E-11
         9  13 -5.921319E+05 -1.855801E+05 -1.555424E+05  1.771520E+05  8.470329E-11  8.470329E-11
         9  14 -5.553442E+05 -2.050240E+05 -1.520736E+05  1.828771E+05  0.000000E+00  0.000000E+00
         9  15 -5.245479E+05 -2.284090E+05 -1.505914E+05  1.915359E+05 -6.352747E-11  1.270549E-10
         9  16 -5.938654E+05 -1.751605E+05 -1.538052E+05  1.744558E+05 -4.235165E-11  0.000000E+00
         9  17 -5.505964E+05 -1.945006E+05 -1.490194E+05  1.779211E+05 -2.117582E-11 -6.352747E-11
         9  18 -5.121798E+05 -2.175568E+05 -1.459473E+05  1.839468E+05  5.293956E-12 -3.705769E-11
         9  19 -5.917801E+05 -1.927476E+05 -1.569055E+05  1.810256E+05 -2.117582E-11 -6.352747E-11
         9  20 -5.620152E+05 -2.120543E+05 -1.548139E+05  1.889967E+05 -1.376429E-10 -3.917527E-10
         9  21 -5.394802E+05 -2.354748E+05 -1.549910E+05  2.002683E+05 -4.552802E-10 -5.029258E-10
         9  22 -5.921319E+05 -1.855801E+05 -1.555424E+05  1.771520E+05 -2.541099E-10 -1.694066E-10
         9  23 -5.553442E+05 -2.050240E+05 -1.520736E+05  1.828771E+05  2.541099E-10  1.270549E-10
         9  24 -5.245479E+05 -2.284090E+05 -1.505914E+05  1.915359E+05  4.446923E-10 -3.388132E-10
         9  25 -5.938654E+05 -1.751605E+05 -1.538052E+05  1.744558E+05  1.694066E-10 -1.694066E-10
         9  26 -5.505964E+05 -1.945006E+05 -1.490194E+05  1.779211E+05  1.694066E-10  0.000000E+00
         9  27 -5.121798E+05 -2.175568E+05 -1.459473E+05  1.839468E+05  9.317362E-10  0.000000E+00
        10   1 -5.201295E+05 -2.588454E+05 -1.557950E+05  2.048874E+05 -8.893846E-10 -2.117582E-11
        10   2 -4.655192E+05 -3.016611E+05 -1.534361E+05  2.345973E+05 -7.835055E-10 -7.411538E-10
        10   3 -4.519678E+05 -3.728217E+05 -1.649579E+05  2.879980E+05 -8.417390E-10  9.926167E-10
        10   4 -5.029957E+05 -2.485985E+05 -1.503188E+05  1.955802E+05 -1.863472E-09  5.929231E-10
        10   5 -4.304739E+05 -3.036688E+05 -1.468285E+05  2.161047E+05 -1.694066E-10  4.235165E-10
        10   6 -3.878582E+05 -3.857632E+05 -1.547243E+05  2.568852E+05 -2.011703E-09  5.823352E-10
        10   7 -4.862376E+05 -2.331744E+05 -1.438824E+05  1.880123E+05 -3.388132E-10  6.776264E-10
        10   8 -3.964071E+05 -2.959395E+05 -1.384693E+05  1.970361E+05 -8.470329E-10  5.082198E-10
        10   9 -3.210230E+05 -3.791353E+05 -1.400317E+05  2.188873E+05 -5.082198E-10  1.334077E-09
        10  10 -5.201295E+05 -2.588454E+05 -1.557950E+05  2.048874E+05  1.270549E-10  4.235165E-11
        10  11 -4.655192E+05 -3.016611E+05 -1.534361E+05  2.345973E+05  0.000000E+00  4.235165E-11
        10  12 -4.519678E+05 -3.728217E+05 -1.649579E+05  2.879980E+05  4.235165E-11 -5.823352E-11
        10  13 -5.029957E+05 -2.485985E+05 -1.503188E+05  1.955802E+05  0.000000E+00  8.470329E-11
        10  14 -4.304739E+05 -3.036688E+05 -1.468285E+05  2.161047E+05  1.694066E-10 -2.117582E-10
        10  15 -3.878582E+05 -3.857632E+05 -1.547243E+05  2.568852E+05 -6.352747E-11  8.470329E-11
        10  16 -4.862376E+05 -2.331744E+05 -1.438824E+05  1.880123E+05 -1.270549E-10  4.235165E-11
        10  17 -3.964071E+05 -2.959395E+05 -1.384693E+05  1.970361E+05  4.235165E-11 -8.470329E-11
        10  18 -3.210230E+05 -3.791353E+05 -1.400317E+05  2.188873E+05  3.176374E-11 -1.058791E-11
        10  19 -5.201295E+05 -2.588454E+05 -1.557950E+05  2.048874E+05  8.893846E-10 -6.564505E-10
        10  20 -4.655192E+05 -3.016611E+05 -1.534361E+05  2.345973E+05  7.835055E-10  4.023406E-10
        10  21 -4.519678E+05 -3.728217E+05 -1.649579E+05  2.879980E+05  1.519365E-09 -6.538036E-10
        10  22 -5.029957E+05 -2.485985E+05 -1.503188E+05  1.955802E+05  1.694066E-10 -5.929231E-10
        10  23 -4.304739E+05 -3.036688E+05 -1.468285E+05  2.161047E+05  1.694066E-10  5.929231E-10
        10  24 -3.878582E+05 -3.857632E+05 -1.547243E+05  2.568852E+05  2.350516E-09 -9.211483E-10
        10  25 -4.862376E+05 -2.331744E+05 -1.438824E+05  1.880123E+05  1.016440E-09 -3.388132E-10
        10  26 -3.964071E+05 -2.959395E+05 -1.384693E+05  1.970361E+05  8.470329E-10 -5.082198E-10
        10  27 -3.210230E+05 -3.791353E+05 -1.400317E+05  2.188873E+05  1.185846E-09 -9.952637E-10
        11   1 -4.682365E+05 -2.257487E+05 -1.387970E+05  1.845528E+05 -6.140989E-10  2.435220E-10
        11   2 -3.742028E+05 -2.901754E+05 -1.328756E+05  1.868535E+05 -1.323489E-09  1.164670E-09
        11   3 -2.656143E+05 -3.565724E+05 -1.244374E+05  1.876852E+05 -1.447897E-09  1.653038E-09
        11   4 -4.115535E+05 -2.098819E+05 -1.242871E+05  1.717472E+05 -8.470329E-10  2.541099E-10
        11   5 -3.191712E+05 -2.691917E+05 -1.176726E+05  1.606301E+05  1.270549E-10 -4.235165E-11
        11   6 -2.004608E+05 -3.186819E+05 -1.038285E+05  1.390673E+05 -8.046813E-10  1.037615E-09
        11   7 -3.681731E+05 -1.923708E+05 -1.121088E+05  1.580476E+05 -5.082198E-10  5.929231E-10
        11   8 -2.817821E+05 -2.430968E+05 -1.049758E+05  1.342723E+05 -7.623297E-10  4.235165E-10
        11   9 -1.621218E+05 -2.709819E+05 -8.662074E+04  9.222260E+04 -1.185846E-09  1.027027E-09
        11  10 -4.682365E+05 -2.257487E+05 -1.387970E+05  1.845528E+05  4.235165E-11  2.117582E-11
        11  11 -3.742028E+05 -2.901754E+05 -1.328756E+05  1.868535E+05  6.352747E-11  2.117582E-11
        11  12 -2.656143E+05 -3.565724E+05 -1.244374E+05  1.876852E+05  5.293956E-11 -2.382280E-11
        11  13 -4.115535E+05 -2.098819E+05 -1.242871E+05  1.717472E+05  0.000000E+00  4.235165E-11
        11  14 -3.191712E+05 -2.691917E+05 -1.176726E+05  1.606301E+05  0.000000E+00 -4.235165E-11
        11  15 -2.004608E+05 -3.186819E+05 -1.038285E+05  1.390673E+05  2.117582E-11 -5.293956E-11
        11  16 -3.681731E+05 -1.923708E+05 -1.121088E+05  1.580476E+05 -2.117582E-11  2.117582E-11
        11  17 -2.817821E+05 -2.430968E+05 -1.049758E+05  1.342723E+05  8.470329E-11  1.058791E-11
        11  18 -1.621218E+05 -2.709819E+05 -8.662074E+04  9.222260E+04  3.176374E-11 -3.441071E-11
        11  19 -4.682365E+05 -2.257487E+05 -1.387970E+05  1.845528E+05  2.752857E-10 -5.823352E-10
        11  20 -3.742028E+05 -2.901754E+05 -1.328756E+05  1.868535E+05  1.662302E-09 -4.870439E-10
        11  21 -2.656143E+05 -3.565724E+05 -1.244374E+05  1.876852E+05  1.447897E-09 -1.653038E-09
        11  22 -4.115535E+05 -2.098819E+05 -1.242871E+05  1.717472E+05  1.694066E-10  8.470329E-11
        11  23 -3.191712E+05 -2.691917E+05 -1.176726E+05  1.606301E+05 -1.270549E-10  4.235165E-11
        11  24 -2.004608E+05 -3.186819E+05 -1.038285E+05  1.390673E+05  1.143494E-09 -1.037615E-09
        11  25 -3.681731E+05 -1.923708E+05 -1.121088E+05  1.580476E+05  1.016440E-09 -4.235165E-10
        11  26 -2.817821E+05 -2.430968E+05 -1.049758E+05  1.342723E+05  1.101143E-09 -4.235165E-10
        11  27 -1.621218E+05 -2.709819E+05 -8.662074E+04  9.222260E+04  1.185846E-09 -1.196434E-09
        12   1 -5.900092E+05 -1.662487E+05 -1.512516E+05  1.724619E+05 -1.508777E-10  5.029258E-11
        12   2 -5.395532E+05 -1.837841E+05 -1.446675E+05  1.724720E+05  2.011703E-10  1.694066E-10
        12   3 -4.957642E+05 -2.084241E+05 -1.408377E+05  1.768464E+05 -2.117582E-11  2.011703E-10
        12   4 -5.666138E+05 -1.549412E+05 -1.443110E+05  1.714991E+05 -1.270549E-10  8.470329E-11
        12   5 -5.079758E+05 -1.724151E+05 -1.360782E+05  1.671107E+05  3.811648E-10 -2.117582E-10
        12   6 -4.542673E+05 -1.955104E+05 -1.299555E+05  1.659007E+05 -8.470329E-10  5.929231E-10
        12   7 -5.466892E+05 -1.401760E+05 -1.373730E+05  1.714851E+05 -1.270549E-10  4.235165E-11
        12   8 -4.805228E+05 -1.564207E+05 -1.273887E+05  1.633730E+05 -4.235165E-10  1.694066E-10
        12   9 -4.178311E+05 -1.766618E+05 -1.188986E+05  1.574968E+05 -5.082198E-10  3.388132E-10
        12  10 -5.900092E+05 -1.662487E+05 -1.512516E+05  1.724619E+05 -3.176374E-11  1.058791E-11
        12  11 -5.395532E+05 -1.837841E+05 -1.446675E+05  1.724720E+05  8.470329E-11 -5.293956E-12
        12  12 -4.957642E+05 -2.084241E+05 -1.408377E+05  1.768464E+05  5.293956E-12  1.058791E-11
        12  13 -5.666138E+05 -1.549412E+05 -1.443110E+05  1.714991E+05  0.000000E+00 -4.235165E-11
        12  14 -5.079758E+05 -1.724151E+05 -1.360782E+05  1.671107E+05  4.235165E-11 -3.176374E-11
        12  15 -4.542673E+05 -1.955104E+05 -1.299555E+05  1.659007E+05  7.940934E-11 -9.793818E-11
        12  16 -5.466892E+05 -1.401760E+05 -1.373730E+05  1.714851E+05  1.058791E-11 -2.117582E-11
        12  17 -4.805228E+05 -1.564207E+05 -1.273887E+05  1.633730E+05 -1.058791E-11 -2.646978E-11
        12  18 -4.178311E+05 -1.766618E+05 -1.188986E+05  1.574968E+05 -1.852885E-11  3.970467E-11
        12  19 -5.900092E+05 -1.662487E+05 -1.512516E+05  1.724619E+05  4.896909E-10 -2.196992E-10
        12  20 -5.395532E+05 -1.837841E+05 -1.446675E+05  1.724720E+05 -2.011703E-10 -5.082198E-10
        12  21 -4.957642E+05 -2.084241E+05 -1.408377E+05  1.768464E+05  2.117582E-11 -3.705769E-10
        12  22 -5.666138E+05 -1.549412E+05 -1.443110E+05  1.714991E+05  1.270549E-10  0.000000E+00
        12  23 -5.079758E+05 -1.724151E+05 -1.360782E+05  1.671107E+05 -4.235165E-11 -2.964615E-10
        12  24 -4.542673E+05 -1.955104E+05 -1.299555E+05  1.659007E+05  1.694066E-10 -2.541099E-10
        12  25 -5.466892E+05 -1.401760E+05 -1.373730E+05  1.714851E+05  1.270549E-10  0.000000E+00
        12  26 -4.805228E+05 -1.564207E+05 -1.273887E+05  1.633730E+05  2.541099E-10  0.000000E+00
        12  27 -4.178311E+05 -1.766618E+05 -1.188986E+05  1.574968E+05  3.388132E-10 -3.388132E-10
        13   1 -9.636830E+04 -1.088731E+05 -4.104827E+04 -3.349751E+03 -4.446923E-10  5.346895E-10
        13   2 -1.299396E+05 -1.352144E+05 -5.303081E+04  1.736343E+04  3.705769E-11  4.976319E-10
        13   3 -1.502188E+05 -1.317217E+05 -5.638809E+04  2.812389E+04 -1.548482E-10  4.896909E-10
        13   4 -1.015560E+05 -1.316840E+05 -4.664800E+04  8.705889E+02 -3.388132E-10  4.658681E-10
        13   5 -1.444442E+05 -1.516156E+05 -5.921195E+04  2.978876E+04  8.470329E-11  4.235165E-11
        13   6 -1.753496E+05 -1.464525E+05 -6.436042E+04  4.965543E+04 -3.388132E-10  3.811648E-10
        13   7 -1.071765E+05 -1.560002E+05 -5.263533E+04  9.258418E+03 -4.235165E-10  5.929231E-10
        13   8 -1.562141E+05 -1.659990E+05 -6.444263E+04  4.374250E+04 -3.388132E-10  6.140989E-10
        13   9 -1.974015E+05 -1.597193E+05 -7.142415E+04  7.220938E+04 -4.446923E-10  3.917527E-10
        13  10 -9.636830E+04 -1.088731E+05 -4.104827E+04 -3.349751E+03  2.117582E-11  0.000000E+00
        13  11 -1.299396E+05 -1.352144E+05 -5.303081E+04  1.736343E+04 -3.176374E-11 -2.117582E-11
        13  12 -1.502188E+05 -1.317217E+05 -5.638809E+04  2.812389E+04  6.617445E-12  7.940934E-12
        13  13 -1.015560E+05 -1.316840E+05 -4.664800E+04  8.705889E+02  0.000000E+00 -1.058791E-11
        13  14 -1.444442E+05 -1.516156E+05 -5.921195E+04  2.978876E+04  0.000000E+00  5.293956E-12
        13  15 -1.753496E+05 -1.464525E+05 -6.436042E+04  4.965543E+04  0.000000E+00 -5.293956E-12
        13  16 -1.071765E+05 -1.560002E+05 -5.263533E+04  9.258418E+03 -1.058791E-11  5.293956E-12
        13  17 -1.562141E+05 -1.659990E+05 -6.444263E+04  4.374250E+04 -1.588187E-11  1.058791E-11
        13  18 -1.974015E+05 -1.597193E+05 -7.142415E+04  7.220938E+04 -6.617445E-12  3.639595E-11
        13  19 -9.636830E+04 -1.088731E+05 -4.104827E+04 -3.349751E+03  1.058791E-10 -4.711621E-10
        13  20 -1.299396E+05 -1.352144E+05 -5.303081E+04  1.736343E+04  1.323489E-10 -4.976319E-10
        13  21 -1.502188E+05 -1.317217E+05 -5.638809E+04  2.812389E+04  1.548482E-10 -4.896909E-10
        13  22 -1.015560E+05 -1.316840E+05 -4.664800E+04  8.705889E+02  1.694066E-10 -5.505714E-10
        13  23 -1.444442E+05 -1.516156E+05 -5.921195E+04  2.978876E+04  0.000000E+00  4.235165E-11
        13  24 -1.753496E+05 -1.464525E+05 -6.436042E+04  4.965543E+04  2.541099E-10 -3.811648E-10
        13  25 -1.071765E+05 -1.560002E+05 -5.263533E+04  9.258418E+03  4.235165E-10 -6.776264E-10
        13  26 -1.562141E+05 -1.659990E+05 -6.444263E+04  4.374250E+04  1.694066E-10 -5.293956E-10
        13  27 -1.974015E+05 -1.597193E+05 -7.142415E+04  7.220938E+04  2.752857E-10 -3.070494E-10
        14   1 -1.788195E+05 -1.260363E+05 -6.097117E+04  4.271899E+04 -2.223461E-10  4.235165E-10
        14   2 -2.286425E+05 -1.085612E+05 -6.744074E+04  6.381644E+04 -7.940934E-11  2.064643E-10
        14   3 -2.706052E+05 -8.035173E+04 -7.019138E+04  7.887937E+04 -5.823352E-11  5.426305E-11
        14   4 -2.042949E+05 -1.390677E+05 -6.867253E+04  6.569600E+04 -3.388132E-10  3.388132E-10
        14   5 -2.629283E+05 -1.208555E+05 -7.675677E+04  8.739267E+04  0.000000E+00 -2.117582E-11
        14   6 -3.132960E+05 -9.185512E+04 -8.103022E+04  1.031091E+05 -6.882143E-11  5.823352E-11
        14   7 -2.449292E+05 -1.560339E+05 -8.019264E+04  9.085105E+04 -3.388132E-10  2.541099E-10
        14   8 -3.111380E+05 -1.367064E+05 -8.956889E+04  1.130199E+05 -2.117582E-10  2.117582E-10
        14   9 -3.688058E+05 -1.065791E+05 -9.507699E+04  1.292792E+05 -6.352747E-11  7.411538E-11
        14  10 -1.788195E+05 -1.260363E+05 -6.097117E+04  4.271899E+04  1.058791E-11 -5.293956E-12
        14  11 -2.286425E+05 -1.085612E+05 -6.744074E+04  6.381644E+04  0.000000E+00  0.000000E+00
        14  12 -2.706052E+05 -8.035173E+04 -7.019138E+04  7.887937E+04 -1.323489E-12 -6.617445E-13
        14  13 -2.042949E+05 -1.390677E+05 -6.867253E+04  6.569600E+04  0.000000E+00  0.000000E+00
        14  14 -2.629283E+05 -1.208555E+05 -7.675677E+04  8.739267E+04  1.058791E-11  1.058791E-11
        14  15 -3.132960E+05 -9.185512E+04 -8.103022E+04  1.031091E+05 -2.646978E-12 -2.646978E-12
        14  16 -2.449292E+05 -1.560339E+05 -8.019264E+04  9.085105E+04  1.058791E-11  0.000000E+00
        14  17 -3.111380E+05 -1.367064E+05 -8.956889E+04  1.130199E+05  0.000000E+00 -5.293956E-12
        14  18 -3.688058E+05 -1.065791E+05 -9.507699E+04  1.292792E+05 -2.646978E-12  4.632211E-12
        14  19 -1.788195E+05 -1.260363E+05 -6.097117E+04  4.271899E+04  2.223461E-10 -4.235165E-10
        14  20 -2.286425E+05 -1.085612E+05 -6.744074E+04  6.381644E+04  3.705769E-11 -2.064643E-10
        14  21 -2.706052E+05 -8.035173E+04 -7.019138E+04  7.887937E+04  5.823352E-11 -7.014492E-11
        14  22 -2.042949E+05 -1.390677E+05 -6.867253E+04  6.569600E+04  1.694066E-10 -3.388132E-10
        14  23 -2.629283E+05 -1.208555E+05 -7.675677E+04  8.739267E+04 -4.235165E-11  2.117582E-11
        14  24 -3.132960E+05 -9.185512E+04 -8.103022E+04  1.031091E+05  4.764560E-11 -6.352747E-11
        14  25 -2.449292E+05 -1.560339E+05 -8.019264E+04  9.085105E+04  2.541099E-10 -3.388132E-10
        14  26 -3.111380E+05 -1.367064E+05 -8.956889E+04  1.130199E+05  1.694066E-10 -2.541099E-10
        14  27 -3.688058E+05 -1.065791E+05 -9.507699E+04  1.292792E+05  5.293956E-11 -5.293956E-11
        15   1 -2.727154E+05 -1.603555E+05 -8.661417E+04  1.052446E+05 -3.599890E-10  4.023406E-10
        15   2 -3.355801E+05 -1.298979E+05 -9.309559E+04  1.216078E+05 -1.694066E-10  2.117582E-10
        15   3 -4.004261E+05 -1.092284E+05 -1.019309E+05  1.401374E+05 -4.764560E-11  5.293956E-11
        15   4 -3.268935E+05 -1.654273E+05 -9.846416E+04  1.292947E+05 -2.541099E-10  3.388132E-10
        15   5 -3.919368E+05 -1.395971E+05 -1.063068E+05  1.415679E+05 -8.470329E-11  4.235165E-11
        15   6 -4.593620E+05 -1.230506E+05 -1.164825E+05  1.563184E+05 -1.058791E-11  6.352747E-11
        15   7 -3.886653E+05 -1.728503E+05 -1.123031E+05  1.505887E+05 -3.388132E-10  3.388132E-10
        15   8 -4.549812E+05 -1.511876E+05 -1.212338E+05  1.591061E+05  0.000000E+00 -8.470329E-11
        15   9 -5.241098E+05 -1.383682E+05 -1.324956E+05  1.703689E+05 -2.117582E-11  0.000000E+00
        15  10 -2.727154E+05 -1.603555E+05 -8.661417E+04  1.052446E+05  0.000000E+00 -1.058791E-11
        15  11 -3.355801E+05 -1.298979E+05 -9.309559E+04  1.216078E+05  3.176374E-11  5.293956E-12
        15  12 -4.004261E+05 -1.092284E+05 -1.019309E+05  1.401374E+05 -2.646978E-12 -1.323489E-12
        15  13 -3.268935E+05 -1.654273E+05 -9.846416E+04  1.292947E+05  0.000000E+00  0.000000E+00
        15  14 -3.919368E+05 -1.395971E+05 -1.063068E+05  1.415679E+05 -2.117582E-11 -2.117582E-11
        15  15 -4.593620E+05 -1.230506E+05 -1.164825E+05  1.563184E+05  5.293956E-12  0.000000E+00
        15  16 -3.886653E+05 -1.728503E+05 -1.123031E+05  1.505887E+05  0.000000E+00 -2.117582E-11
        15  17 -4.549812E+05 -1.511876E+05 -1.212338E+05  1.591061E+05  2.117582E-11 -5.293956E-12
        15  18 -5.241098E+05 -1.383682E+05 -1.324956E+05  1.703689E+05  5.293956E-12  3.970467E-12
        15  19 -2.727154E+05 -1.603555E+05 -8.661417E+04  1.052446E+05  3.599890E-10 -4.870439E-10
        15  20 -3.355801E+05 -1.298979E+05 -9.309559E+04  1.216078E+05  1.694066E-10 -1.270549E-10
        15  21 -4.004261E+05 -1.092284E+05 -1.019309E+05  1.401374E+05  5.823352E-11 -3.176374E-11
        15  22 -3.268935E+05 -1.654273E+05 -9.846416E+04  1.292947E+05  4.235165E-10 -3.388132E-10
        15  23 -3.919368E+05 -1.395971E+05 -1.063068E+05  1.415679E+05  8.470329E-11  4.235165E-11
        15  24 -4.593620E+05 -1.230506E+05 -1.164825E+05  1.563184E+05  7.411538E-11 -4.235165E-11
        15  25 -3.886653E+05 -1.728503E+05 -1.123031E+05  1.505887E+05  3.388132E-10 -2.541099E-10
        15  26 -4.549812E+05 -1.511876E+05 -1.212338E+05  1.591061E+05  8.470329E-11  8.470329E-11
        15  27 -5.241098E+05 -1.383682E+05 -1.324956E+05  1.703689E+05  4.235165E-11 -3.176374E-11
        16   1 -1.017407E+05 -1.622497E+05 -5.279806E+04  1.370045E+04 -2.329341E-10  7.729176E-10
        16   2 -1.804277E+05 -1.903491E+05 -7.415538E+04  6.446869E+04 -6.035110E-10  8.999725E-10
        16   3 -2.255647E+05 -1.773405E+05 -8.058104E+04  9.253182E+04 -3.096964E-10  4.010172E-10
        16   4 -1.138429E+05 -2.052001E+05 -6.380860E+04  3.951083E+04 -6.776264E-10  9.740879E-10
        16   5 -2.073367E+05 -2.085718E+05 -8.318170E+04  8.666500E+04  8.470329E-11  0.000000E+00
        16   6 -2.746359E+05 -1.832790E+05 -9.158298E+04  1.168690E+05 -6.458626E-10  5.029258E-10
        16   7 -1.478918E+05 -2.490518E+05 -7.938872E+04  7.233968E+04 -6.776264E-10  1.101143E-09
        16   8 -2.479646E+05 -2.265363E+05 -9.490019E+04  1.125449E+05 -2.541099E-10  7.623297E-10
        16   9 -3.325201E+05 -1.899455E+05 -1.044931E+05  1.432926E+05 -4.658681E-10  6.246868E-10
        16  10 -1.017407E+05 -1.622497E+05 -5.279806E+04  1.370045E+04 -2.117582E-11  0.000000E+00
        16  11 -1.804277E+05 -1.903491E+05 -7.415538E+04  6.446869E+04 -1.058791E-11  1.588187E-11
        16  12 -2.255647E+05 -1.773405E+05 -8.058104E+04  9.253182E+04 -1.323489E-11  1.323489E-12
        16  13 -1.138429E+05 -2.052001E+05 -6.380860E+04  3.951083E+04 -8.470329E-11 -2.117582E-11
        16  14 -2.073367E+05 -2.085718E+05 -8.318170E+04  8.666500E+04 -2.117582E-11  0.000000E+00
        16  15 -2.746359E+05 -1.832790E+05 -9.158298E+04  1.168690E+05  1.058791E-11 -3.176374E-11
        16  16 -1.478918E+05 -2.490518E+05 -7.938872E+04  7.233968E+04 -2.117582E-11  0.000000E+00
        16  17 -2.479646E+05 -2.265363E+05 -9.490019E+04  1.125449E+05  4.235165E-11  0.000000E+00
        16  18 -3.325201E+05 -1.899455E+05 -1.044931E+05  1.432926E+05  5.558654E-11  9.264423E-12
        16  19 -1.017407E+05 -1.622497E+05 -5.279806E+04  1.370045E+04  5.717472E-10 -7.729176E-10
        16  20 -1.804277E+05 -1.903491E+05 -7.415538E+04  6.446869E+04  6.035110E-10 -6.458626E-10
        16  21 -2.255647E+05 -1.773405E+05 -8.058104E+04  9.253182E+04  4.791030E-10 -4.010172E-10
        16  22 -1.138429E+05 -2.052001E+05 -6.380860E+04  3.951083E+04  5.082198E-10 -8.046813E-10
        16  23 -2.073367E+05 -2.085718E+05 -8.318170E+04  8.666500E+04 -8.470329E-11 -8.470329E-11
        16  24 -2.746359E+05 -1.832790E+05 -9.158298E+04  1.168690E+05  6.458626E-10 -5.029258E-10
        16  25 -1.478918E+05 -2.490518E+05 -7.938872E+04  7.233968E+04  6.776264E-10 -1.101143E-09
        16  26 -2.479646E+05 -2.265363E+05 -9.490019E+04  1.125449E+05  7.623297E-10 -7.623297E-10
        16  27 -3.325201E+05 -1.899455E+05 -1.044931E+05  1.432926E+05  2.964615E-10 -2.858736E-10
        17   1 -4.221816E+05 -1.160522E+05 -1.076468E+05  2.070509E+05  3.176374E-11  0.000000E+00
        17   2 -3.787603E+05 -1.337435E+05 -1.025008E+05  2.206910E+05  6.352747E-11  1.905824E-10
        17   3 -3.274778E+05 -1.478365E+05 -9.506286E+04  2.370666E+05  7.808585E-11  2.805797E-10
        17   4 -3.862974E+05 -1.511753E+05 -1.074945E+05  2.059150E+05  0.000000E+00 -1.694066E-10
        17   5 -3.446427E+05 -1.714008E+05 -1.032087E+05  2.146187E+05  8.470329E-11 -2.117582E-10
        17   6 -2.957380E+05 -1.894362E+05 -9.703483E+04  2.249283E+05  2.435220E-10 -9.529121E-11
        17   7 -3.489944E+05 -1.779702E+05 -1.053929E+05  2.034767E+05  1.694066E-10  0.000000E+00
        17   8 -3.085066E+05 -1.984573E+05 -1.013928E+05  2.074335E+05  4.235165E-10 -7.623297E-10
        17   9 -2.612689E+05 -2.177362E+05 -9.580101E+04  2.118980E+05  2.646978E-10 -4.446923E-10
        17  10 -4.221816E+05 -1.160522E+05 -1.076468E+05  2.070509E+05  1.058791E-11 -1.058791E-11
        17  11 -3.787603E+05 -1.337435E+05 -1.025008E+05  2.206910E+05  1.588187E-11  2.117582E-11
        17  12 -3.274778E+05 -1.478365E+05 -9.506286E+04  2.370666E+05 -1.720536E-11  2.911676E-11
        17  13 -3.862974E+05 -1.511753E+05 -1.074945E+05  2.059150E+05  2.117582E-11  4.235165E-11
        17  14 -3.446427E+05 -1.714008E+05 -1.032087E+05  2.146187E+05 -3.176374E-11 -4.235165E-11
        17  15 -2.957380E+05 -1.894362E+05 -9.703483E+04  2.249283E+05  6.088049E-11  2.646978E-11
        17  16 -3.489944E+05 -1.779702E+05 -1.053929E+05  2.034767E+05  2.117582E-11  2.117582E-11
        17  17 -3.085066E+05 -1.984573E+05 -1.013928E+05  2.074335E+05 -1.588187E-11  1.588187E-11
        17  18 -2.612689E+05 -2.177362E+05 -9.580101E+04  2.118980E+05  1.588187E-11  1.045556E-10
        17  19 -4.221816E+05 -1.160522E+05 -1.076468E+05  2.070509E+05  1.058791E-11  0.000000E+00
        17  20 -3.787603E+05 -1.337435E+05 -1.025008E+05  2.206910E+05 -2.117582E-11 -2.117582E-11
        17  21 -3.274778E+05 -1.478365E+05 -9.506286E+04  2.370666E+05  6.617445E-12  5.823352E-11
        17  22 -3.862974E+05 -1.511753E+05 -1.074945E+05  2.059150E+05  0.000000E+00 -3.388132E-10
        17  23 -3.446427E+05 -1.714008E+05 -1.032087E+05  2.146187E+05  8.470329E-11 -4.658681E-10
        17  24 -2.957380E+05 -1.894362E+05 -9.703483E+04  2.249283E+05  9.529121E-11 -7.411538E-11
        17  25 -3.489944E+05 -1.779702E+05 -1.053929E+05  2.034767E+05  0.000000E+00  3.388132E-10
        17  26 -3.085066E+05 -1.984573E+05 -1.013928E+05  2.074335E+05 -2.541099E-10  4.235165E-10
        17  27 -2.612689E+05 -2.177362E+05 -9.580101E+04  2.118980E+05 -9.529121E-11 -2.329341E-10
        18   1 -2.986824E+05 -1.697829E+05 -9.369305E+04  2.391867E+05 -4.235165E-11 -4.235165E-11
        18   2 -2.455205E+05 -2.093448E+05 -9.097306E+04  2.430437E+05  1.058791E-10  3.176374E-10
        18   3 -1.969207E+05 -2.606981E+05 -9.152375E+04  2.390937E+05  1.720536E-11  1.058791E-10
        18   4 -2.716569E+05 -2.141882E+05 -9.716902E+04  2.228528E+05  0.000000E+00  1.694066E-10
        18   5 -2.300132E+05 -2.460755E+05 -9.521773E+04  2.203291E+05  4.235165E-11 -3.388132E-10
        18   6 -1.970882E+05 -2.915229E+05 -9.772222E+04  2.073355E+05  8.470329E-11 -1.694066E-10
        18   7 -2.387496E+05 -2.398414E+05 -9.571819E+04  2.108134E+05  1.694066E-10 -6.776264E-10
        18   8 -2.070872E+05 -2.595187E+05 -9.332117E+04  2.033104E+05 -2.541099E-10  0.000000E+00
        18   9 -1.879361E+05 -2.933929E+05 -9.626580E+04  1.830129E+05  2.435220E-10 -3.811648E-10
        18  10 -2.986824E+05 -1.697829E+05 -9.369305E+04  2.391867E+05  0.000000E+00  8.470329E-11
        18  11 -2.455205E+05 -2.093448E+05 -9.097306E+04  2.430437E+05  0.000000E+00  4.235165E-11
        18  12 -1.969207E+05 -2.606981E+05 -9.152375E+04  2.390937E+05 -1.852885E-11  2.646978E-11
        18  13 -2.716569E+05 -2.141882E+05 -9.716902E+04  2.228528E+05  0.000000E+00  0.000000E+00
        18  14 -2.300132E+05 -2.460755E+05 -9.521773E+04  2.203291E+05  0.000000E+00  0.000000E+00
        18  15 -1.970882E+05 -2.915229E+05 -9.772222E+04  2.073355E+05 -1.588187E-11 -6.352747E-11
        18  16 -2.387496E+05 -2.398414E+05 -9.571819E+04  2.108134E+05  0.000000E+00  4.235165E-11
        18  17 -2.070872E+05 -2.595187E+05 -9.332117E+04  2.033104E+05 -1.058791E-11  1.058791E-10
        18  18 -1.879361E+05 -2.933929E+05 -9.626580E+04  1.830129E+05 -3.176374E-11 -4.499863E-11
        18  19 -2.986824E+05 -1.697829E+05 -9.369305E+04  2.391867E+05  4.235165E-11  4.235165E-11
        18  20 -2.455205E+05 -2.093448E+05 -9.097306E+04  2.430437E+05 -1.905824E-10  3.599890E-10
        18  21 -1.969207E+05 -2.606981E+05 -9.152375E+04  2.390937E+05 -1.019087E-10 -1.058791E-10
        18  22 -2.716569E+05 -2.141882E+05 -9.716902E+04  2.228528E+05  0.000000E+00 -5.082198E-10
        18  23 -2.300132E+05 -2.460755E+05 -9.521773E+04  2.203291E+05 -2.117582E-10 -3.388132E-10
        18  24 -1.970882E+05 -2.915229E+05 -9.772222E+04  2.073355E+05 -8.470329E-11  1.694066E-10
        18  25 -2.387496E+05 -2.398414E+05 -9.571819E+04  2.108134E+05 -3.388132E-10  3.388132E-10
        18  26 -2.070872E+05 -2.595187E+05 -9.332117E+04  2.033104E+05  8.470329E-11  3.388132E-10
        18  27 -1.879361E+05 -2.933929E+05 -9.626580E+04  1.830129E+05 -2.435220E-10  7.199780E-10
        19   1 -2.300874E+05 -2.528875E+05 -9.659498E+04  1.966538E+05  2.964615E-10  4.235165E-11
        19   2 -2.042084E+05 -2.683219E+05 -9.450605E+04  1.861250E+05  2.858736E-10  3.811648E-10
        19   3 -1.935904E+05 -2.923272E+05 -9.718353E+04  1.681275E+05  1.402898E-10 -3.017555E-10
        19   4 -2.118912E+05 -2.590321E+05 -9.418467E+04  1.802984E+05  8.470329E-11 -6.776264E-10
        19   5 -1.956631E+05 -2.657489E+05 -9.228242E+04  1.734209E+05  8.470329E-11  1.694066E-10
        19   6 -1.979978E+05 -2.806317E+05 -9.572590E+04  1.589579E+05  4.235165E-11 -4.235165E-10
        19   7 -1.908583E+05 -2.597937E+05 -9.013040E+04  1.683249E+05  1.694066E-10 -3.388132E-10
        19   8 -1.836342E+05 -2.568057E+05 -8.808799E+04  1.663268E+05 -8.470329E-11  6.776264E-10
        19   9 -1.981284E+05 -2.613264E+05 -9.189097E+04  1.569369E+05  4.235165E-11 -4.658681E-10
        19  10 -2.300874E+05 -2.528875E+05 -9.659498E+04  1.966538E+05 -6.352747E-11  0.000000E+00
        19  11 -2.042084E+05 -2.683219E+05 -9.450605E+04  1.861250E+05  0.000000E+00  2.964615E-10
        19  12 -1.935904E+05 -2.923272E+05 -9.718353E+04  1.681275E+05  5.293956E-12 -1.217610E-10
        19  13 -2.118912E+05 -2.590321E+05 -9.418467E+04  1.802984E+05  0.000000E+00  0.000000E+00
        19  14 -1.956631E+05 -2.657489E+05 -9.228242E+04  1.734209E+05 -6.352747E-11 -1.694066E-10
        19  15 -1.979978E+05 -2.806317E+05 -9.572590E+04  1.589579E+05  5.823352E-11  1.482308E-10
        19  16 -1.908583E+05 -2.597937E+05 -9.013040E+04  1.683249E+05  0.000000E+00  0.000000E+00
        19  17 -1.836342E+05 -2.568057E+05 -8.808799E+04  1.663268E+05  0.000000E+00 -8.470329E-11
        19  18 -1.981284E+05 -2.613264E+05 -9.189097E+04  1.569369E+05  1.588187E-11 -1.323489E-10
        19  19 -2.300874E+05 -2.528875E+05 -9.659498E+04  1.966538E+05 -1.270549E-10  2.964615E-10
        19  20 -2.042084E+05 -2.683219E+05 -9.450605E+04  1.861250E+05 -2.011703E-10  9.740879E-10
        19  21 -1.935904E+05 -2.923272E+05 -9.718353E+04  1.681275E+05 -1.402898E-10  3.017555E-10
        19  22 -2.118912E+05 -2.590321E+05 -9.418467E+04  1.802984E+05  8.470329E-11  6.776264E-10
        19  23 -1.956631E+05 -2.657489E+05 -9.228242E+04  1.734209E+05 -8.470329E-11 -1.694066E-10
        19  24 -1.979978E+05 -2.806317E+05 -9.572590E+04  1.589579E+05  4.235165E-11 -2.541099E-10
        19  25 -1.908583E+05 -2.597937E+05 -9.013040E+04  1.683249E+05 -3.388132E-10 -3.388132E-10
        19  26 -1.836342E+05 -2.568057E+05 -8.808799E+04  1.663268E+05  8.470329E-11  0.000000E+00
        19  27 -1.981284E+05 -2.613264E+05 -9.189097E+04  1.569369E+05 -4.235165E-11  1.143494E-09
        20   1 -3.268444E+05 -1.915921E+05 -1.036873E+05  1.973244E+05  6.352747E-11 -1.270549E-10
        20   2 -2.857966E+05 -2.121512E+05 -9.958956E+04  1.986481E+05  0.000000E+00  2.964615E-10
        20   3 -2.481751E+05 -2.343529E+05 -9.650559E+04  1.986250E+05  1.667596E-10  4.446923E-10
        20   4 -2.990967E+05 -2.129536E+05 -1.024101E+05  1.793160E+05  6.776264E-10  3.388132E-10
        20   5 -2.615802E+05 -2.309955E+05 -9.851513E+04  1.803340E+05 -3.388132E-10 -1.694066E-10
        20   6 -2.286187E+05 -2.511196E+05 -9.594766E+04  1.793580E+05  1.799945E-10 -8.470329E-10
        20   7 -2.685303E+05 -2.242276E+05 -9.855159E+04  1.626631E+05  1.694066E-10  1.016440E-09
        20   8 -2.338638E+05 -2.377049E+05 -9.431373E+04  1.639474E+05  4.235165E-10  1.694066E-10
        20   9 -2.047553E+05 -2.533152E+05 -9.161411E+04  1.626972E+05  1.482308E-10 -2.964615E-10
        20  10 -3.268444E+05 -1.915921E+05 -1.036873E+05  1.973244E+05 -2.117582E-11  0.000000E+00
        20  11 -2.857966E+05 -2.121512E+05 -9.958956E+04  1.986481E+05 -1.058791E-11 -4.235165E-11
        20  12 -2.481751E+05 -2.343529E+05 -9.650559E+04  1.986250E+05 -1.323489E-11 -1.058791E-11
        20  13 -2.990967E+05 -2.129536E+05 -1.024101E+05  1.793160E+05 -4.235165E-11  1.694066E-10
        20  14 -2.615802E+05 -2.309955E+05 -9.851513E+04  1.803340E+05  0.000000E+00 -1.694066E-10
        20  15 -2.286187E+05 -2.511196E+05 -9.594766E+04  1.793580E+05 -3.176374E-11 -2.117582E-11
        20  16 -2.685303E+05 -2.242276E+05 -9.855159E+04  1.626631E+05 -4.235165E-11  4.235165E-11
        20  17 -2.338638E+05 -2.377049E+05 -9.431373E+04  1.639474E+05 -9.529121E-11 -2.117582E-10
        20  18 -2.047553E+05 -2.533152E+05 -9.161411E+04  1.626972E+05 -7.940934E-12  6.882143E-11
        20  19 -3.268444E+05 -1.915921E+05 -1.036873E+05  1.973244E+05  1.058791E-10 -2.117582E-10
        20  20 -2.857966E+05 -2.121512E+05 -9.958956E+04  1.986481E+05  1.694066E-10  4.235165E-11
        20  21 -2.481751E+05 -2.343529E+05 -9.650559E+04  1.986250E+05 -5.055728E-10 -1.058791E-10
        20  22 -2.990967E+05 -2.129536E+05 -1.024101E+05  1.793160E+05 -1.694066E-10  3.388132E-10
        20  23 -2.615802E+05 -2.309955E+05 -9.851513E+04  1.803340E+05 -1.694066E-10  8.470329E-10
        20  24 -2.286187E+05 -2.511196E+05 -9.594766E+04  1.793580E+05 -3.494011E-10  1.694066E-10
        20  25 -2.685303E+05 -2.242276E+05 -9.855159E+04  1.626631E+05  0.000000E+00 -3.388132E-10
        20  26 -2.338638E+05 -2.377049E+05 -9.431373E+04  1.639474E+05  8.470329E-11 -1.694066E-10
        20  27 -2.047553E+05 -2.533152E+05 -9.161411E+04  1.626972E+05  2.117582E-11  9.740879E-10
        21   1 -2.676554E+05 -1.713593E+05 -8.780294E+04  5.274663E+03  4.319868E-09 -7.453890E-09
        21   2 -2.623832E+05 -1.679851E+05 -8.607367E+04  2.510090E+04  2.159934E-09 -3.049319E-09
        21   3 -2.648708E+05 -1.664143E+05 -8.625702E+04  4.445327E+04 -4.235165E-11  5.929231E-10
        21   4 -2.738605E+05 -1.840775E+05 -9.158760E+04  6.014999E+03  1.355253E-09  0.000000E+00
        21   5 -2.696356E+05 -1.811340E+05 -9.015393E+04  2.653319E+04 -6.776264E-10  2.710505E-09
        21   6 -2.742185E+05 -1.803221E+05 -9.090812E+04  4.652858E+04  1.270549E-09 -9.994989E-09
        21   7 -2.800319E+05 -1.967392E+05 -9.535423E+04  6.582892E+03  6.776264E-10  2.710505E-09
        21   8 -2.768934E+05 -1.940089E+05 -9.418046E+04  2.814339E+04  3.049319E-09 -6.776264E-09
        21   9 -2.838728E+05 -1.937964E+05 -9.553385E+04  4.915649E+04 -6.776264E-10  4.065758E-09
        21  10 -2.676554E+05 -1.713593E+05 -8.780294E+04  5.274663E+03  1.694066E-10 -3.388132E-10
        21  11 -2.623832E+05 -1.679851E+05 -8.607367E+04  2.510090E+04 -2.541099E-10 -3.388132E-10
        21  12 -2.648708E+05 -1.664143E+05 -8.625702E+04  4.445327E+04 -1.482308E-10  3.388132E-10
        21  13 -2.738605E+05 -1.840775E+05 -9.158760E+04  6.014999E+03  0.000000E+00  0.000000E+00
        21  14 -2.696356E+05 -1.811340E+05 -9.015393E+04  2.653319E+04 -1.694066E-10 -1.355253E-09
        21  15 -2.742185E+05 -1.803221E+05 -9.090812E+04  4.652858E+04 -1.694066E-10 -5.082198E-10
        21  16 -2.800319E+05 -1.967392E+05 -9.535423E+04  6.582892E+03  0.000000E+00  3.388132E-10
        21  17 -2.768934E+05 -1.940089E+05 -9.418046E+04  2.814339E+04 -1.270549E-10  1.016440E-09
        21  18 -2.838728E+05 -1.937964E+05 -9.553385E+04  4.915649E+04  4.235165E-11  7.199780E-10
        21  19 -2.676554E+05 -1.713593E+05 -8.780294E+04  5.274663E+03 -1.609363E-09  4.743385E-09
        21  20 -2.623832E+05 -1.679851E+05 -8.607367E+04  2.510090E+04 -8.046813E-10 -2.371692E-09
        21  21 -2.648708E+05 -1.664143E+05 -8.625702E+04  4.445327E+04  4.235165E-11  4.828088E-09
        21  22 -2.738605E+05 -1.840775E+05 -9.158760E+04  6.014999E+03 -2.710505E-09  2.710505E-09
        21  23 -2.696356E+05 -1.811340E+05 -9.015393E+04  2.653319E+04  6.776264E-10  0.000000E+00
        21  24 -2.742185E+05 -1.803221E+05 -9.090812E+04  4.652858E+04  8.470329E-11  1.863472E-09
        21  25 -2.800319E+05 -1.967392E+05 -9.535423E+04  6.582892E+03 -2.032879E-09 -2.710505E-09
        21  26 -2.768934E+05 -1.940089E+05 -9.418046E+04  2.814339E+04 -1.694066E-09  4.065758E-09
        21  27 -2.838728E+05 -1.937964E+05 -9.553385E+04  4.915649E+04 -6.776264E-10 -4.065758E-09
        22   1 -2.705335E+05 -1.619955E+05 -8.650580E+04  5.500547E+04  3.049319E-09 -3.388132E-10
        22   2 -2.843576E+05 -1.514714E+05 -8.716579E+04  6.825055E+04 -1.185846E-09 -8.470329E-09
        22   3 -3.067914E+05 -1.426037E+05 -8.987902E+04  8.153584E+04  2.964615E-10 -1.694066E-09
        22   4 -2.803800E+05 -1.775564E+05 -9.158727E+04  5.814675E+04  2.032879E-09 -4.065758E-09
        22   5 -2.913646E+05 -1.688920E+05 -9.205132E+04  7.249321E+04  0.000000E+00 -6.098637E-09
        22   6 -3.118576E+05 -1.621222E+05 -9.479598E+04  8.707885E+04  1.948176E-09  6.437450E-09
        22   7 -2.883624E+05 -1.916088E+05 -9.599425E+04  5.944944E+04 -2.710505E-09  2.710505E-09
        22   8 -2.962377E+05 -1.850087E+05 -9.624928E+04  7.514503E+04  4.065758E-09  4.065758E-09
        22   9 -3.147434E+05 -1.806333E+05 -9.907534E+04  9.136501E+04  1.694066E-09 -8.809143E-09
        22  10 -2.705335E+05 -1.619955E+05 -8.650580E+04  5.500547E+04  1.694066E-10 -6.776264E-10
        22  11 -2.843576E+05 -1.514714E+05 -8.716579E+04  6.825055E+04 -1.694066E-10  0.000000E+00
        22  12 -3.067914E+05 -1.426037E+05 -8.987902E+04  8.153584E+04 -2.117582E-10 -2.964615E-10
        22  13 -2.803800E+05 -1.775564E+05 -9.158727E+04  5.814675E+04  0.000000E+00  0.000000E+00
        22  14 -2.913646E+05 -1.688920E+05 -9.205132E+04  7.249321E+04  3.388132E-10  6.776264E-10
        22  15 -3.118576E+05 -1.621222E+05 -9.479598E+04  8.707885E+04  1.270549E-10  6.776264E-10
        22  16 -2.883624E+05 -1.916088E+05 -9.599425E+04  5.944944E+04 -3.388132E-10  0.000000E+00
        22  17 -2.962377E+05 -1.850087E+05 -9.624928E+04  7.514503E+04  0.000000E+00 -1.694066E-09
        22  18 -3.147434E+05 -1.806333E+05 -9.907534E+04  9.136501E+04 -4.446923E-10 -2.541099E-10
        22  19 -2.705335E+05 -1.619955E+05 -8.650580E+04  5.500547E+04 -1.694066E-09  3.388132E-10
        22  20 -2.843576E+05 -1.514714E+05 -8.716579E+04  6.825055E+04 -1.694066E-10  5.759824E-09
        22  21 -3.067914E+05 -1.426037E+05 -8.987902E+04  8.153584E+04 -3.006967E-09  1.694066E-09
        22  22 -2.803800E+05 -1.775564E+05 -9.158727E+04  5.814675E+04 -2.032879E-09  6.776264E-09
        22  23 -2.913646E+05 -1.688920E+05 -9.205132E+04  7.249321E+04 -2.710505E-09  6.776264E-10
        22  24 -3.118576E+05 -1.621222E+05 -9.479598E+04  8.707885E+04 -1.948176E-09 -1.016440E-09
        22  25 -2.883624E+05 -1.916088E+05 -9.599425E+04  5.944944E+04  0.000000E+00 -2.710505E-09
        22  26 -2.962377E+05 -1.850087E+05 -9.624928E+04  7.514503E+04  0.000000E+00  4.065758E-09
        22  27 -3.147434E+05 -1.806333E+05 -9.907534E+04  9.136501E+04 -1.694066E-09  8.809143E-09
        23   1 -2.894635E+05 -1.991199E+05 -9.771667E+04  5.877485E+04  2.795209E-09 -9.825582E-09
        23   2 -2.997832E+05 -1.943419E+05 -9.882503E+04  7.476083E+04  2.964615E-10  6.776264E-10
        23   3 -3.147126E+05 -1.905727E+05 -1.010571E+05  9.102235E+04  4.881027E-09 -1.736418E-09
        23   4 -2.917393E+05 -2.128249E+05 -1.009129E+05  5.579468E+04  3.049319E-09  0.000000E+00
        23   5 -3.004715E+05 -2.090607E+05 -1.019064E+05  7.113286E+04 -1.016440E-09  2.710505E-09
        23   6 -3.136784E+05 -2.063461E+05 -1.040049E+05  8.693930E+04  2.456396E-09  3.218725E-09
        23   7 -2.927136E+05 -2.249257E+05 -1.035279E+05  5.161001E+04  6.776264E-10  0.000000E+00
        23   8 -2.992503E+05 -2.221566E+05 -1.042814E+05  6.607996E+04  1.355253E-09 -4.065758E-09
        23   9 -3.099512E+05 -2.204929E+05 -1.060888E+05  8.125566E+04 -1.694066E-10 -2.371692E-09
        23  10 -2.894635E+05 -1.991199E+05 -9.771667E+04  5.877485E+04  1.694066E-10  3.388132E-10
        23  11 -2.997832E+05 -1.943419E+05 -9.882503E+04  7.476083E+04 -8.470329E-11  3.388132E-10
        23  12 -3.147126E+05 -1.905727E+05 -1.010571E+05  9.102235E+04  0.000000E+00  2.117582E-10
        23  13 -2.917393E+05 -2.128249E+05 -1.009129E+05  5.579468E+04  3.388132E-10  1.355253E-09
        23  14 -3.004715E+05 -2.090607E+05 -1.019064E+05  7.113286E+04 -5.082198E-10  0.000000E+00
        23  15 -3.136784E+05 -2.063461E+05 -1.040049E+05  8.693930E+04  0.000000E+00  1.439956E-09
        23  16 -2.927136E+05 -2.249257E+05 -1.035279E+05  5.161001E+04  1.694066E-10 -6.776264E-10
        23  17 -2.992503E+05 -2.221566E+05 -1.042814E+05  6.607996E+04  2.541099E-10  3.388132E-10
        23  18 -3.099512E+05 -2.204929E+05 -1.060888E+05  8.125566E+04  1.270549E-10  2.541099E-10
        23  19 -2.894635E+05 -1.991199E+05 -9.771667E+04  5.877485E+04 -2.795209E-09  7.115077E-09
        23  20 -2.997832E+05 -1.943419E+05 -9.882503E+04  7.476083E+04  1.058791E-09  2.032879E-09
        23  21 -3.147126E+05 -1.905727E+05 -1.010571E+05  9.102235E+04 -4.881027E-09  1.736418E-09
        23  22 -2.917393E+05 -2.128249E+05 -1.009129E+05  5.579468E+04 -3.388132E-10 -2.710505E-09
        23  23 -3.004715E+05 -2.090607E+05 -1.019064E+05  7.113286E+04 -1.694066E-09  2.710505E-09
        23  24 -3.136784E+05 -2.063461E+05 -1.040049E+05  8.693930E+04 -1.101143E-09 -5.082198E-10
        23  25 -2.927136E+05 -2.249257E+05 -1.035279E+05  5.161001E+04 -6.776264E-10  0.000000E+00
        23  26 -2.992503E+05 -2.221566E+05 -1.042814E+05  6.607996E+04 -1.355253E-09  1.355253E-09
        23  27 -3.099512E+05 -2.204929E+05 -1.060888E+05  8.125566E+04  1.694066E-10  2.371692E-09
        24   1 -2.776474E+05 -2.029985E+05 -9.612917E+04  6.506062E+03  2.286989E-09 -3.726945E-09
        24   2 -2.801977E+05 -2.016455E+05 -9.636863E+04  2.767343E+04  2.202286E-09  1.694066E-09
        24   3 -2.856798E+05 -2.009922E+05 -9.733440E+04  4.882125E+04  2.699918E-09 -4.912791E-09
        24   4 -2.763006E+05 -2.152725E+05 -9.831462E+04  5.647947E+03  3.049319E-09 -2.710505E-09
        24   5 -2.803269E+05 -2.140876E+05 -9.888289E+04  2.542560E+04  5.082198E-10  5.421011E-09
        24   6 -2.869668E+05 -2.135504E+05 -1.001034E+05  4.519932E+04  1.609363E-09  6.098637E-09
        24   7 -2.751519E+05 -2.278945E+05 -1.006093E+05  5.764469E+03  0.000000E+00 -2.710505E-09
        24   8 -2.807849E+05 -2.266707E+05 -1.014911E+05  2.395440E+04  2.032879E-09 -4.065758E-09
        24   9 -2.886182E+05 -2.259924E+05 -1.029221E+05  4.213155E+04  2.541099E-10 -1.355253E-09
        24  10 -2.776474E+05 -2.029985E+05 -9.612917E+04  6.506062E+03 -2.541099E-10  3.388132E-10
        24  11 -2.801977E+05 -2.016455E+05 -9.636863E+04  2.767343E+04  8.470329E-11  0.000000E+00
        24  12 -2.856798E+05 -2.009922E+05 -9.733440E+04  4.882125E+04 -6.352747E-11  4.235165E-11
        24  13 -2.763006E+05 -2.152725E+05 -9.831462E+04  5.647947E+03  0.000000E+00  6.776264E-10
        24  14 -2.803269E+05 -2.140876E+05 -9.888289E+04  2.542560E+04 -6.776264E-10  0.000000E+00
        24  15 -2.869668E+05 -2.135504E+05 -1.001034E+05  4.519932E+04  2.117582E-11  2.541099E-10
        24  16 -2.751519E+05 -2.278945E+05 -1.006093E+05  5.764469E+03 -8.470329E-11  0.000000E+00
        24  17 -2.807849E+05 -2.266707E+05 -1.014911E+05  2.395440E+04  1.270549E-10  6.776264E-10
        24  18 -2.886182E+05 -2.259924E+05 -1.029221E+05  4.213155E+04  3.176374E-11  4.658681E-10
        24  19 -2.776474E+05 -2.029985E+05 -9.612917E+04  6.506062E+03 -1.609363E-09  1.016440E-09
        24  20 -2.801977E+05 -2.016455E+05 -9.636863E+04  2.767343E+04 -2.202286E-09 -1.694066E-09
        24  21 -2.856798E+05 -2.009922E+05 -9.733440E+04  4.882125E+04 -1.344665E-09  4.912791E-09
        24  22 -2.763006E+05 -2.152725E+05 -9.831462E+04  5.647947E+03 -1.016440E-09  5.421011E-09
        24  23 -2.803269E+05 -2.140876E+05 -9.888289E+04  2.542560E+04  8.470329E-10  0.000000E+00
        24  24 -2.869668E+05 -2.135504E+05 -1.001034E+05  4.519932E+04 -1.609363E-09  4.743385E-09
        24  25 -2.751519E+05 -2.278945E+05 -1.006093E+05  5.764469E+03  0.000000E+00  0.000000E+00
        24  26 -2.807849E+05 -2.266707E+05 -1.014911E+05  2.395440E+04  6.776264E-10 -1.355253E-09
        24  27 -2.886182E+05 -2.259924E+05 -1.029221E+05  4.213155E+04 -2.541099E-10  4.065758E-09
        25   1 -3.107626E+05 -2.263073E+05 -1.074140E+05  8.103849E+04  0.000000E+00 -2.371692E-09
        25   2 -3.178708E+05 -2.339177E+05 -1.103577E+05  8.789395E+04  8.470329E-10 -1.524659E-09
        25   3 -3.246219E+05 -2.422276E+05 -1.133699E+05  9.515993E+04  3.017555E-09 -1.312901E-09
        25   4 -3.015481E+05 -2.285866E+05 -1.060269E+05  6.610309E+04  0.000000E+00 -4.065758E-09
        25   5 -3.068243E+05 -2.375020E+05 -1.088652E+05  7.134356E+04  6.776264E-10 -6.776264E-10
        25   6 -3.117927E+05 -2.463800E+05 -1.116345E+05  7.702457E+04  2.541099E-09 -3.388132E-10
        25   7 -2.924774E+05 -2.308179E+05 -1.046590E+05  5.087334E+04  6.776264E-10  0.000000E+00
        25   8 -2.962434E+05 -2.412127E+05 -1.074912E+05  5.485103E+04  2.032879E-09 -4.065758E-09
        25   9 -2.996865E+05 -2.509341E+05 -1.101241E+05  5.923305E+04  1.778769E-09  1.016440E-09
        25  10 -3.107626E+05 -2.263073E+05 -1.074140E+05  8.103849E+04  1.694066E-10  3.388132E-10
        25  11 -3.178708E+05 -2.339177E+05 -1.103577E+05  8.789395E+04 -4.235165E-10 -8.470329E-10
        25  12 -3.246219E+05 -2.422276E+05 -1.133699E+05  9.515993E+04  1.058791E-10 -1.270549E-10
        25  13 -3.015481E+05 -2.285866E+05 -1.060269E+05  6.610309E+04  6.776264E-10 -6.776264E-10
        25  14 -3.068243E+05 -2.375020E+05 -1.088652E+05  7.134356E+04 -3.388132E-10 -1.016440E-09
        25  15 -3.117927E+05 -2.463800E+05 -1.116345E+05  7.702457E+04  4.235165E-10  1.016440E-09
        25  16 -2.924774E+05 -2.308179E+05 -1.046590E+05  5.087334E+04  1.694066E-10 -3.388132E-10
        25  17 -2.962434E+05 -2.412127E+05 -1.074912E+05  5.485103E+04 -5.082198E-10 -6.776264E-10
        25  18 -2.996865E+05 -2.509341E+05 -1.101241E+05  5.923305E+04  1.058791E-10  0.000000E+00
        25  19 -3.107626E+05 -2.263073E+05 -1.074140E+05  8.103849E+04  1.355253E-09 -3.388132E-10
        25  20 -3.178708E+05 -2.339177E+05 -1.103577E+05  8.789395E+04 -8.470329E-10  4.235165E-09
        25  21 -3.246219E+05 -2.422276E+05 -1.133699E+05  9.515993E+04 -3.070494E-10  1.312901E-09
        25  22 -3.015481E+05 -2.285866E+05 -1.060269E+05  6.610309E+04  0.000000E+00  1.355253E-09
        25  23 -3.068243E+05 -2.375020E+05 -1.088652E+05  7.134356E+04  6.776264E-10  6.776264E-10
        25  24 -3.117927E+05 -2.463800E+05 -1.116345E+05  7.702457E+04 -2.541099E-09  3.049319E-09
        25  25 -2.924774E+05 -2.308179E+05 -1.046590E+05  5.087334E+04 -6.776264E-10  0.000000E+00
        25  26 -2.962434E+05 -2.412127E+05 -1.074912E+05  5.485103E+04 -6.776264E-10  4.065758E-09
        25  27 -2.996865E+05 -2.509341E+05 -1.101241E+05  5.923305E+04 -1.778769E-09  1.694066E-09
        26   1 -3.294095E+05 -2.472181E+05 -1.153255E+05  9.956616E+04 -1.101143E-09 -1.863472E-09
        26   2 -3.368065E+05 -2.542631E+05 -1.182139E+05  1.062832E+05  4.785736E-09 -3.049319E-09
        26   3 -3.437704E+05 -2.613575E+05 -1.210256E+05  1.134240E+05  6.352747E-10 -6.140989E-09
        26   4 -3.154675E+05 -2.518724E+05 -1.134680E+05  8.050021E+04  6.776264E-10  4.065758E-09
        26   5 -3.207227E+05 -2.600694E+05 -1.161584E+05  8.564732E+04  0.000000E+00  2.032879E-09
        26   6 -3.256035E+05 -2.677714E+05 -1.186750E+05  9.121112E+04  1.694066E-09 -3.557538E-09
        26   7 -3.016059E+05 -2.563015E+05 -1.115815E+05  6.120879E+04  1.355253E-09 -1.355253E-09
        26   8 -3.051209E+05 -2.660304E+05 -1.142303E+05  6.512529E+04  1.355253E-09 -1.355253E-09
        26   9 -3.082551E+05 -2.747453E+05 -1.166001E+05  6.940452E+04  1.270549E-09 -3.388132E-10
        26  10 -3.294095E+05 -2.472181E+05 -1.153255E+05  9.956616E+04 -1.694066E-10  3.388132E-10
        26  11 -3.368065E+05 -2.542631E+05 -1.182139E+05  1.062832E+05  1.694066E-10  6.776264E-10
        26  12 -3.437704E+05 -2.613575E+05 -1.210256E+05  1.134240E+05 -1.482308E-10  8.470329E-11
        26  13 -3.154675E+05 -2.518724E+05 -1.134680E+05  8.050021E+04  0.000000E+00  0.000000E+00
        26  14 -3.207227E+05 -2.600694E+05 -1.161584E+05  8.564732E+04 -5.082198E-10  0.000000E+00
        26  15 -3.256035E+05 -2.677714E+05 -1.186750E+05  9.121112E+04 -1.270549E-10 -8.470329E-11
        26  16 -3.016059E+05 -2.563015E+05 -1.115815E+05  6.120879E+04  0.000000E+00  6.776264E-10
        26  17 -3.051209E+05 -2.660304E+05 -1.142303E+05  6.512529E+04  0.000000E+00 -3.388132E-10
        26  18 -3.082551E+05 -2.747453E+05 -1.166001E+05  6.940452E+04 -2.541099E-10  8.470329E-11
        26  19 -3.294095E+05 -2.472181E+05 -1.153255E+05  9.956616E+04  1.101143E-09  4.573978E-09
        26  20 -3.368065E+05 -2.542631E+05 -1.182139E+05  1.062832E+05 -7.199780E-10  3.049319E-09
        26  21 -3.437704E+05 -2.613575E+05 -1.210256E+05  1.134240E+05 -6.352747E-10  7.199780E-10
        26  22 -3.154675E+05 -2.518724E+05 -1.134680E+05  8.050021E+04 -2.032879E-09  1.355253E-09
        26  23 -3.207227E+05 -2.600694E+05 -1.161584E+05  8.564732E+04  1.355253E-09  6.776264E-10
        26  24 -3.256035E+05 -2.677714E+05 -1.186750E+05  9.121112E+04 -3.388132E-10  3.557538E-09
        26  25 -3.016059E+05 -2.563015E+05 -1.115815E+05  6.120879E+04  0.000000E+00  1.355253E-09
        26  26 -3.051209E+05 -2.660304E+05 -1.142303E+05  6.512529E+04  0.000000E+00  1.355253E-09
        26  27 -3.082551E+05 -2.747453E+05 -1.166001E+05  6.940452E+04 -5.929231E-10  3.388132E-10
        27   1 -2.940228E+05 -2.589362E+05 -1.105918E+05  4.903243E+04  6.776264E-10  1.355253E-09
        27   2 -2.964227E+05 -2.683656E+05 -1.129577E+05  5.218478E+04  1.270549E-10  1.185846E-09
        27   3 -2.986786E+05 -2.774987E+05 -1.152355E+05  5.557859E+04  3.388132E-10  2.922264E-09
        27   4 -2.812199E+05 -2.625913E+05 -1.087623E+05  2.769792E+04 -3.388132E-10  1.355253E-09
        27   5 -2.824023E+05 -2.736626E+05 -1.112130E+05  2.942097E+04  0.000000E+00  1.355253E-09
        27   6 -2.833392E+05 -2.838574E+05 -1.134393E+05  3.135959E+04  1.016440E-09 -5.082198E-10
        27   7 -2.685614E+05 -2.660539E+05 -1.069231E+05  6.163557E+03 -6.776264E-10  1.355253E-09
        27   8 -2.686686E+05 -2.789876E+05 -1.095312E+05  6.674941E+03  3.388132E-10  2.710505E-09
        27   9 -2.684242E+05 -2.905096E+05 -1.117868E+05  7.353290E+03  5.505714E-10  3.388132E-09
        27  10 -2.940228E+05 -2.589362E+05 -1.105918E+05  4.903243E+04  0.000000E+00  0.000000E+00
        27  11 -2.964227E+05 -2.683656E+05 -1.129577E+05  5.218478E+04  3.811648E-10  1.694066E-10
        27  12 -2.986786E+05 -2.774987E+05 -1.152355E+05  5.557859E+04 -9.529121E-11  5.929231E-10
        27  13 -2.812199E+05 -2.625913E+05 -1.087623E+05  2.769792E+04  0.000000E+00  0.000000E+00
        27  14 -2.824023E+05 -2.736626E+05 -1.112130E+05  2.942097E+04  1.694066E-10  0.000000E+00
        27  15 -2.833392E+05 -2.838574E+05 -1.134393E+05  3.135959E+04 -3.388132E-10  5.929231E-10
        27  16 -2.685614E+05 -2.660539E+05 -1.069231E+05  6.163557E+03  0.000000E+00  0.000000E+00
        27  17 -2.686686E+05 -2.789876E+05 -1.095312E+05  6.674941E+03  8.470329E-11 -6.776264E-10
        27  18 -2.684242E+05 -2.905096E+05 -1.117868E+05  7.353290E+03  6.352747E-11  0.000000E+00
        27  19 -2.940228E+05 -2.589362E+05 -1.105918E+05  4.903243E+04  0.000000E+00  4.065758E-09
        27  20 -2.964227E+05 -2.683656E+05 -1.129577E+05  5.218478E+04 -8.046813E-10 -1.185846E-09
        27  21 -2.986786E+05 -2.774987E+05 -1.152355E+05  5.557859E+04 -1.016440E-09 -2.117582E-10
        27  22 -2.812199E+05 -2.625913E+05 -1.087623E+05  2.769792E+04 -3.388132E-10  4.065758E-09
        27  23 -2.824023E+05 -2.736626E+05 -1.112130E+05  2.942097E+04  0.000000E+00  4.065758E-09
        27  24 -2.833392E+05 -2.838574E+05 -1.134393E+05  3.135959E+04 -1.016440E-09 -2.202286E-09
        27  25 -2.685614E+05 -2.660539E+05 -1.069231E+05  6.163557E+03  6.776264E-10 -1.355253E-09
        27  26 -2.686686E+05 -2.789876E+05 -1.095312E+05  6.674941E+03 -3.388132E-10  2.710505E-09
        27  27 -2.684242E+05 -2.905096E+05 -1.117868E+05  7.353290E+03  1.270549E-10 -3.388132E-09
        28   1 -2.878139E+05 -2.316521E+05 -1.038932E+05  4.139535E+04  2.371692E-09 -4.065758E-09
        28   2 -2.903936E+05 -2.418725E+05 -1.064532E+05  4.415696E+04  1.058791E-09  1.694066E-09
        28   3 -2.930279E+05 -2.532632E+05 -1.092582E+05  4.764078E+04 -2.435220E-10  1.101143E-09
        28   4 -2.803231E+05 -2.332870E+05 -1.027220E+05  2.349347E+04  1.694066E-09  2.710505E-09
        28   5 -2.806451E+05 -2.445607E+05 -1.050412E+05  2.494777E+04  1.355253E-09 -1.355253E-09
        28   6 -2.809745E+05 -2.561817E+05 -1.074312E+05  2.698822E+04  6.776264E-10 -2.202286E-09
        28   7 -2.716677E+05 -2.345671E+05 -1.012470E+05  5.315281E+03  0.000000E+00 -5.421011E-09
        28   8 -2.701555E+05 -2.470761E+05 -1.034463E+05  5.694161E+03  2.371692E-09 -2.710505E-09
        28   9 -2.685510E+05 -2.592029E+05 -1.055508E+05  6.510218E+03  8.470329E-10 -1.016440E-09
        28  10 -2.878139E+05 -2.316521E+05 -1.038932E+05  4.139535E+04 -8.470329E-11 -3.388132E-10
        28  11 -2.903936E+05 -2.418725E+05 -1.064532E+05  4.415696E+04  0.000000E+00 -8.470329E-10
        28  12 -2.930279E+05 -2.532632E+05 -1.092582E+05  4.764078E+04 -7.411538E-11 -1.270549E-10
        28  13 -2.803231E+05 -2.332870E+05 -1.027220E+05  2.349347E+04  0.000000E+00 -6.776264E-10
        28  14 -2.806451E+05 -2.445607E+05 -1.050412E+05  2.494777E+04 -3.388132E-10  3.388132E-10
        28  15 -2.809745E+05 -2.561817E+05 -1.074312E+05  2.698822E+04  2.541099E-10 -7.623297E-10
        28  16 -2.716677E+05 -2.345671E+05 -1.012470E+05  5.315281E+03 -8.470329E-11  6.776264E-10
        28  17 -2.701555E+05 -2.470761E+05 -1.034463E+05  5.694161E+03  8.470329E-11 -1.355253E-09
        28  18 -2.685510E+05 -2.592029E+05 -1.055508E+05  6.510218E+03 -5.293956E-11 -6.352747E-10
        28  19 -2.878139E+05 -2.316521E+05 -1.038932E+05  4.139535E+04 -1.016440E-09  1.355253E-09
        28  20 -2.903936E+05 -2.418725E+05 -1.064532E+05  4.415696E+04 -3.811648E-10 -1.694066E-09
        28  21 -2.930279E+05 -2.532632E+05 -1.092582E+05  4.764078E+04 -4.341044E-10 -3.811648E-09
        28  22 -2.803231E+05 -2.332870E+05 -1.027220E+05  2.349347E+04  3.388132E-10 -5.421011E-09
        28  23 -2.806451E+05 -2.445607E+05 -1.050412E+05  2.494777E+04  1.355253E-09  1.355253E-09
        28  24 -2.809745E+05 -2.561817E+05 -1.074312E+05  2.698822E+04 -6.776264E-10  4.912791E-09
        28  25 -2.716677E+05 -2.345671E+05 -1.012470E+05  5.315281E+03  0.000000E+00  5.421011E-09
        28  26 -2.701555E+05 -2.470761E+05 -1.034463E+05  5.694161E+03 -3.388132E-10  5.421011E-09
        28  27 -2.685510E+05 -2.592029E+05 -1.055508E+05  6.510218E+03 -1.524659E-09  1.016440E-09
        29   1 -5.948503E+05 -1.842821E+05 -1.558265E+05  1.777784E+05  6.352747E-10  0.000000E+00
        29   2 -6.008281E+05 -1.700638E+05 -1.541784E+05  1.719201E+05  7.623297E-10 -8.470329E-11
        29   3 -6.166180E+05 -1.618393E+05 -1.556915E+05  1.706032E+05 -2.646978E-10 -1.852885E-10
        29   4 -5.811584E+05 -1.845766E+05 -1.531470E+05  1.763009E+05  0.000000E+00  0.000000E+00
        29   5 -5.840286E+05 -1.708751E+05 -1.509807E+05  1.714661E+05 -1.694066E-10 -2.541099E-10
        29   6 -5.959753E+05 -1.627409E+05 -1.517432E+05  1.709483E+05  2.541099E-10 -1.058791E-10
        29   7 -5.629144E+05 -1.841310E+05 -1.494091E+05  1.745071E+05  3.388132E-10 -1.355253E-09
        29   8 -5.625762E+05 -1.708006E+05 -1.466754E+05  1.707221E+05 -1.016440E-09  0.000000E+00
        29   9 -5.706341E+05 -1.626334E+05 -1.466535E+05  1.710526E+05  2.117582E-10  1.270549E-10
        29  10 -5.948503E+05 -1.842821E+05 -1.558265E+05  1.777784E+05  8.470329E-11 -4.235165E-11
        29  11 -6.008281E+05 -1.700638E+05 -1.541784E+05  1.719201E+05  1.270549E-10 -2.117582E-11
        29  12 -6.166180E+05 -1.618393E+05 -1.556915E+05  1.706032E+05 -4.235165E-11 -1.588187E-11
        29  13 -5.811584E+05 -1.845766E+05 -1.531470E+05  1.763009E+05  1.694066E-10  1.694066E-10
        29  14 -5.840286E+05 -1.708751E+05 -1.509807E+05  1.714661E+05  8.470329E-11  0.000000E+00
        29  15 -5.959753E+05 -1.627409E+05 -1.517432E+05  1.709483E+05  2.117582E-11  2.117582E-11
        29  16 -5.629144E+05 -1.841310E+05 -1.494091E+05  1.745071E+05  8.470329E-11  0.000000E+00
        29  17 -5.625762E+05 -1.708006E+05 -1.466754E+05  1.707221E+05  2.117582E-10 -2.329341E-10
        29  18 -5.706341E+05 -1.626334E+05 -1.466535E+05  1.710526E+05 -4.235165E-11 -5.293956E-11
        29  19 -5.948503E+05 -1.842821E+05 -1.558265E+05  1.777784E+05 -6.352747E-10  3.388132E-10
        29  20 -6.008281E+05 -1.700638E+05 -1.541784E+05  1.719201E+05 -4.235165E-10 -2.541099E-10
        29  21 -6.166180E+05 -1.618393E+05 -1.556915E+05  1.706032E+05  2.646978E-10  1.852885E-10
        29  22 -5.811584E+05 -1.845766E+05 -1.531470E+05  1.763009E+05  0.000000E+00  6.776264E-10
        29  23 -5.840286E+05 -1.708751E+05 -1.509807E+05  1.714661E+05 -1.694066E-10  2.541099E-10
        29  24 -5.959753E+05 -1.627409E+05 -1.517432E+05  1.709483E+05  8.470329E-11  1.058791E-10
        29  25 -5.629144E+05 -1.841310E+05 -1.494091E+05  1.745071E+05 -1.016440E-09  0.000000E+00
        29  26 -5.625762E+05 -1.708006E+05 -1.466754E+05  1.707221E+05  3.388132E-10  0.000000E+00
        29  27 -5.706341E+05 -1.626334E+05 -1.466535E+05  1.710526E+05 -8.893846E-10  2.117582E-10
        30   1 -6.209751E+05 -1.592695E+05 -1.560489E+05  1.709101E+05  1.694066E-10  8.470329E-11
        30   2 -6.180915E+05 -1.567963E+05 -1.549776E+05  1.670554E+05  1.058791E-10 -2.117582E-11
        30   3 -6.221309E+05 -1.560464E+05 -1.556355E+05  1.654925E+05  1.005852E-10  3.705769E-11
        30   4 -5.966252E+05 -1.592186E+05 -1.511688E+05  1.707006E+05  3.388132E-10 -2.541099E-10
        30   5 -5.923931E+05 -1.540546E+05 -1.492895E+05  1.677057E+05 -8.470329E-11 -4.235165E-11
        30   6 -5.946067E+05 -1.500676E+05 -1.489349E+05  1.668787E+05 -4.235165E-11  0.000000E+00
        30   7 -5.677622E+05 -1.578368E+05 -1.451198E+05  1.714110E+05  1.694066E-10 -5.082198E-10
        30   8 -5.618608E+05 -1.499553E+05 -1.423632E+05  1.694133E+05  5.082198E-10 -2.541099E-10
        30   9 -5.619364E+05 -1.427588E+05 -1.409391E+05  1.694904E+05  0.000000E+00  4.235165E-11
        30  10 -6.209751E+05 -1.592695E+05 -1.560489E+05  1.709101E+05  0.000000E+00  0.000000E+00
        30  11 -6.180915E+05 -1.567963E+05 -1.549776E+05  1.670554E+05  0.000000E+00  0.000000E+00
        30  12 -6.221309E+05 -1.560464E+05 -1.556355E+05  1.654925E+05  5.293956E-12 -5.293956E-12
        30  13 -5.966252E+05 -1.592186E+05 -1.511688E+05  1.707006E+05  8.470329E-11  8.470329E-11
        30  14 -5.923931E+05 -1.540546E+05 -1.492895E+05  1.677057E+05  4.235165E-11  4.235165E-11
        30  15 -5.946067E+05 -1.500676E+05 -1.489349E+05  1.668787E+05 -3.176374E-11  0.000000E+00
        30  16 -5.677622E+05 -1.578368E+05 -1.451198E+05  1.714110E+05  0.000000E+00 -2.117582E-11
        30  17 -5.618608E+05 -1.499553E+05 -1.423632E+05  1.694133E+05  0.000000E+00  1.058791E-11
        30  18 -5.619364E+05 -1.427588E+05 -1.409391E+05  1.694904E+05  0.000000E+00 -7.940934E-12
        30  19 -6.209751E+05 -1.592695E+05 -1.560489E+05  1.709101E+05  1.694066E-10  8.470329E-11
        30  20 -6.180915E+05 -1.567963E+05 -1.549776E+05  1.670554E+05 -2.752857E-10  1.058791E-10
        30  21 -6.221309E+05 -1.560464E+05 -1.556355E+05  1.654925E+05 -1.588187E-11  2.646978E-11
        30  22 -5.966252E+05 -1.592186E+05 -1.511688E+05  1.707006E+05 -6.776264E-10  2.541099E-10
        30  23 -5.923931E+05 -1.540546E+05 -1.492895E+05  1.677057E+05  8.470329E-11  4.235165E-11
        30  24 -5.946067E+05 -1.500676E+05 -1.489349E+05  1.668787E+05  4.235165E-11 -2.117582E-11
        30  25 -5.677622E+05 -1.578368E+05 -1.451198E+05  1.714110E+05 -1.694066E-10  3.388132E-10
        30  26 -5.618608E+05 -1.499553E+05 -1.423632E+05  1.694133E+05 -5.082198E-10  8.470329E-11
        30  27 -5.619364E+05 -1.427588E+05 -1.409391E+05  1.694904E+05  0.000000E+00 -2.117582E-11
        31   1 -5.482064E+05 -1.575846E+05 -1.411582E+05  1.711718E+05 -2.329341E-10  1.482308E-10
        31   2 -5.435020E+05 -1.529038E+05 -1.392812E+05  1.727276E+05 -1.482308E-10  6.352747E-11
        31   3 -5.418427E+05 -1.406843E+05 -1.365054E+05  1.733066E+05  5.823352E-11 -5.823352E-11
        31   4 -5.085374E+05 -1.621542E+05 -1.341383E+05  1.715921E+05  0.000000E+00 -3.388132E-10
        31   5 -5.033269E+05 -1.510466E+05 -1.308747E+05  1.767498E+05  0.000000E+00 -8.470329E-11
        31   6 -5.011248E+05 -1.323484E+05 -1.266946E+05  1.812714E+05 -4.235165E-11  2.117582E-11
        31   7 -4.640839E+05 -1.650341E+05 -1.258236E+05  1.739958E+05  5.082198E-10  1.694066E-10
        31   8 -4.579049E+05 -1.475825E+05 -1.210975E+05  1.827634E+05  8.470329E-11 -1.694066E-10
        31   9 -4.546478E+05 -1.225026E+05 -1.154301E+05  1.912048E+05  0.000000E+00  2.117582E-11
        31  10 -5.482064E+05 -1.575846E+05 -1.411582E+05  1.711718E+05  4.235165E-11  0.000000E+00
        31  11 -5.435020E+05 -1.529038E+05 -1.392812E+05  1.727276E+05  0.000000E+00  0.000000E+00
        31  12 -5.418427E+05 -1.406843E+05 -1.365054E+05  1.733066E+05  1.058791E-11 -5.293956E-12
        31  13 -5.085374E+05 -1.621542E+05 -1.341383E+05  1.715921E+05  0.000000E+00  0.000000E+00
        31  14 -5.033269E+05 -1.510466E+05 -1.308747E+05  1.767498E+05  0.000000E+00  0.000000E+00
        31  15 -5.011248E+05 -1.323484E+05 -1.266946E+05  1.812714E+05  0.000000E+00 -2.117582E-11
        31  16 -4.640839E+05 -1.650341E+05 -1.258236E+05  1.739958E+05  0.000000E+00  0.000000E+00
        31  17 -4.579049E+05 -1.475825E+05 -1.210975E+05  1.827634E+05 -2.117582E-11  4.235165E-11
        31  18 -4.546478E+05 -1.225026E+05 -1.154301E+05  1.912048E+05  5.293956E-12  2.646978E-12
        31  19 -5.482064E+05 -1.575846E+05 -1.411582E+05  1.711718E+05 -1.058791E-10  1.905824E-10
        31  20 -5.435020E+05 -1.529038E+05 -1.392812E+05  1.727276E+05  1.482308E-10  2.117582E-11
        31  21 -5.418427E+05 -1.406843E+05 -1.365054E+05  1.733066E+05 -5.823352E-11 -2.646978E-11
        31  22 -5.085374E+05 -1.621542E+05 -1.341383E+05  1.715921E+05 -6.776264E-10  3.388132E-10
        31  23 -5.033269E+05 -1.510466E+05 -1.308747E+05  1.767498E+05  0.000000E+00 -8.470329E-11
        31  24 -5.011248E+05 -1.323484E+05 -1.266946E+05  1.812714E+05  4.235165E-11  0.000000E+00
        31  25 -4.640839E+05 -1.650341E+05 -1.258236E+05  1.739958E+05 -5.082198E-10 -1.694066E-10
        31  26 -4.579049E+05 -1.475825E+05 -1.210975E+05  1.827634E+05 -8.470329E-11  0.000000E+00
        31  27 -4.546478E+05 -1.225026E+05 -1.154301E+05  1.912048E+05  0.000000E+00 -2.117582E-11
        32   1 -5.487892E+05 -1.847468E+05 -1.467072E+05  1.730853E+05  4.658681E-10  7.199780E-10
        32   2 -5.458461E+05 -1.705009E+05 -1.432694E+05  1.696391E+05  9.317362E-10 -4.235165E-11
        32   3 -5.516071E+05 -1.606157E+05 -1.424445E+05  1.702760E+05 -7.570357E-10  2.964615E-10
        32   4 -5.184629E+05 -1.892061E+05 -1.415338E+05  1.702945E+05 -3.388132E-10  0.000000E+00
        32   5 -5.124392E+05 -1.757646E+05 -1.376408E+05  1.689813E+05  5.082198E-10 -8.470329E-10
        32   6 -5.145400E+05 -1.664427E+05 -1.361965E+05  1.716625E+05  2.117582E-10  1.270549E-10
        32   7 -4.841282E+05 -1.931942E+05 -1.354645E+05  1.669074E+05  0.000000E+00 -2.032879E-09
        32   8 -4.749333E+05 -1.804258E+05 -1.310718E+05  1.676793E+05 -6.776264E-10  6.776264E-10
        32   9 -4.733210E+05 -1.715421E+05 -1.289726E+05  1.723591E+05  4.235165E-11 -3.811648E-10
        32  10 -5.487892E+05 -1.847468E+05 -1.467072E+05  1.730853E+05  8.470329E-11  0.000000E+00
        32  11 -5.458461E+05 -1.705009E+05 -1.432694E+05  1.696391E+05 -1.270549E-10  0.000000E+00
        32  12 -5.516071E+05 -1.606157E+05 -1.424445E+05  1.702760E+05 -8.470329E-11 -4.235165E-11
        32  13 -5.184629E+05 -1.892061E+05 -1.415338E+05  1.702945E+05  0.000000E+00  0.000000E+00
        32  14 -5.124392E+05 -1.757646E+05 -1.376408E+05  1.689813E+05 -8.470329E-11  1.694066E-10
        32  15 -5.145400E+05 -1.664427E+05 -1.361965E+05  1.716625E+05  1.694066E-10  8.470329E-11
        32  16 -4.841282E+05 -1.931942E+05 -1.354645E+05  1.669074E+05 -8.470329E-11  8.470329E-11
        32  17 -4.749333E+05 -1.804258E+05 -1.310718E+05  1.676793E+05  1.270549E-10  0.000000E+00
        32  18 -4.733210E+05 -1.715421E+05 -1.289726E+05  1.723591E+05 -4.235165E-11  1.058791E-10
        32  19 -5.487892E+05 -1.847468E+05 -1.467072E+05  1.730853E+05 -4.658681E-10  2.964615E-10
        32  20 -5.458461E+05 -1.705009E+05 -1.432694E+05  1.696391E+05 -9.317362E-10 -2.964615E-10
        32  21 -5.516071E+05 -1.606157E+05 -1.424445E+05  1.702760E+05  7.940934E-11  4.235165E-11
        32  22 -5.184629E+05 -1.892061E+05 -1.415338E+05  1.702945E+05 -1.016440E-09  0.000000E+00
        32  23 -5.124392E+05 -1.757646E+05 -1.376408E+05  1.689813E+05  1.694066E-10  5.082198E-10
        32  24 -5.145400E+05 -1.664427E+05 -1.361965E+05  1.716625E+05  4.658681E-10 -1.270549E-10
        32  25 -4.841282E+05 -1.931942E+05 -1.354645E+05  1.669074E+05  0.000000E+00  6.776264E-10
        32  26 -4.749333E+05 -1.804258E+05 -1.310718E+05  1.676793E+05  0.000000E+00  0.000000E+00
        32  27 -4.733210E+05 -1.715421E+05 -1.289726E+05  1.723591E+05 -4.235165E-11  3.811648E-10
        33   1 -4.362160E+05 -1.361329E+05 -1.144698E+05  1.997611E+05  1.270549E-10  4.235165E-11
        33   2 -3.981733E+05 -1.557397E+05 -1.107826E+05  1.983666E+05 -1.694066E-10 -1.905824E-10
        33   3 -3.625463E+05 -1.819983E+05 -1.089089E+05  1.949627E+05  2.223461E-10 -2.302871E-10
        33   4 -4.348900E+05 -1.541011E+05 -1.177982E+05  1.859087E+05  8.470329E-11 -1.694066E-10
        33   5 -4.002579E+05 -1.681652E+05 -1.136846E+05  1.832086E+05  1.694066E-10  1.694066E-10
        33   6 -3.684890E+05 -1.880332E+05 -1.113044E+05  1.782693E+05  2.541099E-10 -6.140989E-10
        33   7 -4.404926E+05 -1.717731E+05 -1.224531E+05  1.749597E+05 -1.694066E-10  0.000000E+00
        33   8 -4.096070E+05 -1.802571E+05 -1.179728E+05  1.711894E+05  3.388132E-10 -5.082198E-10
        33   9 -3.821058E+05 -1.937340E+05 -1.151679E+05  1.650322E+05 -4.235165E-11  4.446923E-10
        33  10 -4.362160E+05 -1.361329E+05 -1.144698E+05  1.997611E+05 -1.058791E-11  2.117582E-11
        33  11 -3.981733E+05 -1.557397E+05 -1.107826E+05  1.983666E+05  3.176374E-11  7.411538E-11
        33  12 -3.625463E+05 -1.819983E+05 -1.089089E+05  1.949627E+05 -1.852885E-11  1.058791E-11
        33  13 -4.348900E+05 -1.541011E+05 -1.177982E+05  1.859087E+05  0.000000E+00  0.000000E+00
        33  14 -4.002579E+05 -1.681652E+05 -1.136846E+05  1.832086E+05  4.235165E-11  1.482308E-10
        33  15 -3.684890E+05 -1.880332E+05 -1.113044E+05  1.782693E+05  2.117582E-11  2.117582E-11
        33  16 -4.404926E+05 -1.717731E+05 -1.224531E+05  1.749597E+05 -5.293956E-11  4.235165E-11
        33  17 -4.096070E+05 -1.802571E+05 -1.179728E+05  1.711894E+05  1.164670E-10  2.117582E-11
        33  18 -3.821058E+05 -1.937340E+05 -1.151679E+05  1.650322E+05  7.940934E-11  3.970467E-11
        33  19 -4.362160E+05 -1.361329E+05 -1.144698E+05  1.997611E+05 -4.235165E-11  4.235165E-11
        33  20 -3.981733E+05 -1.557397E+05 -1.107826E+05  1.983666E+05 -8.470329E-11  2.117582E-11
        33  21 -3.625463E+05 -1.819983E+05 -1.089089E+05  1.949627E+05 -5.293956E-11 -1.085261E-10
        33  22 -4.348900E+05 -1.541011E+05 -1.177982E+05  1.859087E+05 -2.541099E-10 -1.694066E-10
        33  23 -4.002579E+05 -1.681652E+05 -1.136846E+05  1.832086E+05  1.694066E-10  1.694066E-10
        33  24 -3.684890E+05 -1.880332E+05 -1.113044E+05  1.782693E+05 -2.541099E-10  2.752857E-10
        33  25 -4.404926E+05 -1.717731E+05 -1.224531E+05  1.749597E+05  5.082198E-10  0.000000E+00
        33  26 -4.096070E+05 -1.802571E+05 -1.179728E+05  1.711894E+05 -3.388132E-10  1.694066E-10
        33  27 -3.821058E+05 -1.937340E+05 -1.151679E+05  1.650322E+05  4.235165E-11 -4.446923E-10
        34   1 -3.433056E+05 -1.934562E+05 -1.073524E+05  1.890833E+05  4.235165E-11  4.235165E-11
        34   2 -3.122519E+05 -2.078676E+05 -1.040239E+05  1.748909E+05  0.000000E+00  6.352747E-11
        34   3 -2.822106E+05 -2.217369E+05 -1.007895E+05  1.584200E+05 -3.705769E-11 -1.058791E-11
        34   4 -3.512650E+05 -1.927926E+05 -1.088115E+05  1.722594E+05  3.388132E-10  0.000000E+00
        34   5 -3.207210E+05 -2.038201E+05 -1.049082E+05  1.610444E+05  3.388132E-10 -2.541099E-10
        34   6 -2.909618E+05 -2.118063E+05 -1.005536E+05  1.487596E+05  5.505714E-10 -3.811648E-10
        34   7 -3.650548E+05 -1.991640E+05 -1.128438E+05  1.592911E+05  0.000000E+00 -6.776264E-10
        34   8 -3.350261E+05 -2.090614E+05 -1.088175E+05  1.513986E+05  0.000000E+00  8.470329E-10
        34   9 -3.055777E+05 -2.147092E+05 -1.040574E+05  1.436991E+05  8.470329E-10  3.388132E-10
        34  10 -3.433056E+05 -1.934562E+05 -1.073524E+05  1.890833E+05 -2.117582E-11  0.000000E+00
        34  11 -3.122519E+05 -2.078676E+05 -1.040239E+05  1.748909E+05 -8.470329E-11 -4.235165E-11
        34  12 -2.822106E+05 -2.217369E+05 -1.007895E+05  1.584200E+05 -2.117582E-11 -4.235165E-11
        34  13 -3.512650E+05 -1.927926E+05 -1.088115E+05  1.722594E+05  0.000000E+00  0.000000E+00
        34  14 -3.207210E+05 -2.038201E+05 -1.049082E+05  1.610444E+05 -8.470329E-11  1.270549E-10
        34  15 -2.909618E+05 -2.118063E+05 -1.005536E+05  1.487596E+05 -8.470329E-11  2.752857E-10
        34  16 -3.650548E+05 -1.991640E+05 -1.128438E+05  1.592911E+05 -8.470329E-11  2.117582E-10
        34  17 -3.350261E+05 -2.090614E+05 -1.088175E+05  1.513986E+05  6.352747E-11 -2.117582E-11
        34  18 -3.055777E+05 -2.147092E+05 -1.040574E+05  1.436991E+05  2.646978E-12  7.940934E-11
        34  19 -3.433056E+05 -1.934562E+05 -1.073524E+05  1.890833E+05 -5.505714E-10  2.964615E-10
        34  20 -3.122519E+05 -2.078676E+05 -1.040239E+05  1.748909E+05 -6.776264E-10  6.140989E-10
        34  21 -2.822106E+05 -2.217369E+05 -1.007895E+05  1.584200E+05 -6.405687E-10  1.058791E-11
        34  22 -3.512650E+05 -1.927926E+05 -1.088115E+05  1.722594E+05  0.000000E+00 -3.388132E-10
        34  23 -3.207210E+05 -2.038201E+05 -1.049082E+05  1.610444E+05 -3.388132E-10  2.541099E-10
        34  24 -2.909618E+05 -2.118063E+05 -1.005536E+05  1.487596E+05  1.270549E-10  1.058791E-09
        34  25 -3.650548E+05 -1.991640E+05 -1.128438E+05  1.592911E+05  0.000000E+00  0.000000E+00
        34  26 -3.350261E+05 -2.090614E+05 -1.088175E+05  1.513986E+05  0.000000E+00 -1.694066E-10
        34  27 -3.055777E+05 -2.147092E+05 -1.040574E+05  1.436991E+05 -5.082198E-10  1.694066E-09
        35   1 -3.736399E+05 -1.957830E+05 -1.138846E+05  1.567482E+05  1.439956E-09 -6.776264E-10
        35   2 -3.444304E+05 -2.052475E+05 -1.099356E+05  1.499108E+05  3.811648E-10  1.270549E-10
        35   3 -3.165673E+05 -2.142956E+05 -1.061726E+05  1.426896E+05  1.852885E-10 -6.352747E-11
        35   4 -3.842270E+05 -2.035596E+05 -1.175573E+05  1.556121E+05  1.016440E-09  1.355253E-09
        35   5 -3.545750E+05 -2.125772E+05 -1.134304E+05  1.497003E+05  3.388132E-10  1.355253E-09
        35   6 -3.259930E+05 -2.211713E+05 -1.094329E+05  1.438679E+05  6.776264E-10 -3.388132E-10
        35   7 -3.966201E+05 -2.133877E+05 -1.220015E+05  1.556500E+05  1.016440E-09  6.776264E-10
        35   8 -3.661031E+05 -2.220799E+05 -1.176366E+05  1.504815E+05 -3.388132E-10  3.388132E-10
        35   9 -3.362233E+05 -2.303937E+05 -1.133234E+05  1.457411E+05  0.000000E+00  1.694066E-10
        35  10 -3.736399E+05 -1.957830E+05 -1.138846E+05  1.567482E+05  4.235165E-11  0.000000E+00
        35  11 -3.444304E+05 -2.052475E+05 -1.099356E+05  1.499108E+05 -1.270549E-10 -8.470329E-11
        35  12 -3.165673E+05 -2.142956E+05 -1.061726E+05  1.426896E+05 -7.411538E-11  7.411538E-11
        35  13 -3.842270E+05 -2.035596E+05 -1.175573E+05  1.556121E+05  1.694066E-10 -1.694066E-10
        35  14 -3.545750E+05 -2.125772E+05 -1.134304E+05  1.497003E+05 -8.470329E-11  0.000000E+00
        35  15 -3.259930E+05 -2.211713E+05 -1.094329E+05  1.438679E+05  6.352747E-11  1.482308E-10
        35  16 -3.966201E+05 -2.133877E+05 -1.220015E+05  1.556500E+05  0.000000E+00 -8.470329E-11
        35  17 -3.661031E+05 -2.220799E+05 -1.176366E+05  1.504815E+05 -2.117582E-10 -3.388132E-10
        35  18 -3.362233E+05 -2.303937E+05 -1.133234E+05  1.457411E+05 -4.764560E-11 -6.352747E-11
        35  19 -3.736399E+05 -1.957830E+05 -1.138846E+05  1.567482E+05 -1.101143E-09  0.000000E+00
        35  20 -3.444304E+05 -2.052475E+05 -1.099356E+05  1.499108E+05  2.964615E-10  1.228198E-09
        35  21 -3.165673E+05 -2.142956E+05 -1.061726E+05  1.426896E+05 -1.852885E-10 -6.140989E-10
        35  22 -3.842270E+05 -2.035596E+05 -1.175573E+05  1.556121E+05 -1.355253E-09 -6.776264E-10
        35  23 -3.545750E+05 -2.125772E+05 -1.134304E+05  1.497003E+05  3.388132E-10 -1.355253E-09
        35  24 -3.259930E+05 -2.211713E+05 -1.094329E+05  1.438679E+05  0.000000E+00  1.694066E-09
        35  25 -3.966201E+05 -2.133877E+05 -1.220015E+05  1.556500E+05 -3.388132E-10 -6.776264E-10
        35  26 -3.661031E+05 -2.220799E+05 -1.176366E+05  1.504815E+05 -1.016440E-09  1.016440E-09
        35  27 -3.362233E+05 -2.303937E+05 -1.133234E+05  1.457411E+05  0.000000E+00 -1.694066E-10
        36   1 -4.486412E+05 -1.755594E+05 -1.248401E+05  1.697940E+05  6.352747E-10  4.235165E-11
        36   2 -4.197833E+05 -1.833055E+05 -1.206178E+05  1.653806E+05  1.016440E-09 -4.235165E-11
        36   3 -3.914943E+05 -1.912298E+05 -1.165448E+05  1.607188E+05  5.188077E-10 -5.346895E-10
        36   4 -4.553769E+05 -1.848779E+05 -1.280510E+05  1.664000E+05 -6.776264E-10  3.388132E-10
        36   5 -4.275559E+05 -1.917201E+05 -1.238552E+05  1.624531E+05  1.694066E-10  3.388132E-10
        36   6 -4.004133E+05 -1.986340E+05 -1.198095E+05  1.583817E+05 -3.388132E-10 -1.185846E-09
        36   7 -4.655406E+05 -1.966795E+05 -1.324440E+05  1.649410E+05 -3.388132E-10  0.000000E+00
        36   8 -4.388146E+05 -2.029290E+05 -1.283487E+05  1.615627E+05  3.388132E-10  0.000000E+00
        36   9 -4.128867E+05 -2.092344E+05 -1.244242E+05  1.582056E+05  1.439956E-09 -2.541099E-10
        36  10 -4.486412E+05 -1.755594E+05 -1.248401E+05  1.697940E+05  4.235165E-11 -4.235165E-11
        36  11 -4.197833E+05 -1.833055E+05 -1.206178E+05  1.653806E+05  6.352747E-11 -4.235165E-11
        36  12 -3.914943E+05 -1.912298E+05 -1.165448E+05  1.607188E+05  3.176374E-11  3.705769E-11
        36  13 -4.553769E+05 -1.848779E+05 -1.280510E+05  1.664000E+05  0.000000E+00  0.000000E+00
        36  14 -4.275559E+05 -1.917201E+05 -1.238552E+05  1.624531E+05  1.694066E-10  2.541099E-10
        36  15 -4.004133E+05 -1.986340E+05 -1.198095E+05  1.583817E+05 -6.352747E-11 -2.117582E-10
        36  16 -4.655406E+05 -1.966795E+05 -1.324440E+05  1.649410E+05  8.470329E-11  4.235165E-11
        36  17 -4.388146E+05 -2.029290E+05 -1.283487E+05  1.615627E+05  4.235165E-11 -1.482308E-10
        36  18 -4.128867E+05 -2.092344E+05 -1.244242E+05  1.582056E+05  4.235165E-11  6.882143E-11
        36  19 -4.486412E+05 -1.755594E+05 -1.248401E+05  1.697940E+05 -6.352747E-10 -4.235165E-11
        36  20 -4.197833E+05 -1.833055E+05 -1.206178E+05  1.653806E+05  3.388132E-10  3.811648E-10
        36  21 -3.914943E+05 -1.912298E+05 -1.165448E+05  1.607188E+05 -1.799945E-10  1.958764E-10
        36  22 -4.553769E+05 -1.848779E+05 -1.280510E+05  1.664000E+05  0.000000E+00 -3.388132E-10
        36  23 -4.275559E+05 -1.917201E+05 -1.238552E+05  1.624531E+05 -1.694066E-10  3.388132E-10
        36  24 -4.004133E+05 -1.986340E+05 -1.198095E+05  1.583817E+05  3.388132E-10 -1.694066E-10
        36  25 -4.655406E+05 -1.966795E+05 -1.324440E+05  1.649410E+05  3.388132E-10  0.000000E+00
        36  26 -4.388146E+05 -2.029290E+05 -1.283487E+05  1.615627E+05 -1.016440E-09 -6.776264E-10
        36  27 -4.128867E+05 -2.092344E+05 -1.244242E+05  1.582056E+05 -8.470329E-11  2.541099E-10
        37   1 -8.330359E+04 -3.074182E+05 -7.814437E+04  1.049852E+05 -1.694066E-10  1.016440E-09
        37   2 -1.749398E+05 -3.335441E+05 -1.016968E+05  4.156159E+04  5.505714E-10 -1.355253E-09
        37   3 -2.629950E+05 -3.400515E+05 -1.206093E+05 -5.108907E+02  5.558654E-10 -8.364450E-10
        37   4 -1.534299E+05 -2.809034E+05 -8.686667E+04  1.168960E+05  1.694066E-10 -2.710505E-09
        37   5 -2.082819E+05 -3.167380E+05 -1.050040E+05  6.496267E+04 -4.235165E-10 -1.694066E-10
        37   6 -2.597522E+05 -3.248631E+05 -1.169230E+05  3.935622E+04  6.140989E-10 -2.837560E-09
        37   7 -2.310175E+05 -2.547891E+05 -9.716132E+04  1.221334E+05  3.388132E-10  0.000000E+00
        37   8 -2.395560E+05 -3.007537E+05 -1.080619E+05  8.394940E+04  1.694066E-10 -2.032879E-09
        37   9 -2.460502E+05 -3.089526E+05 -1.110006E+05  7.798818E+04 -1.694066E-10  2.541099E-09
        37  10 -8.330359E+04 -3.074182E+05 -7.814437E+04  1.049852E+05  0.000000E+00  8.470329E-11
        37  11 -1.749398E+05 -3.335441E+05 -1.016968E+05  4.156159E+04  4.235165E-11  4.235165E-11
        37  12 -2.629950E+05 -3.400515E+05 -1.206093E+05 -5.108907E+02  3.705769E-11 -2.117582E-10
        37  13 -1.534299E+05 -2.809034E+05 -8.686667E+04  1.168960E+05  0.000000E+00  0.000000E+00
        37  14 -2.082819E+05 -3.167380E+05 -1.050040E+05  6.496267E+04 -4.235165E-11 -6.776264E-10
        37  15 -2.597522E+05 -3.248631E+05 -1.169230E+05  3.935622E+04 -1.376429E-10 -2.541099E-10
        37  16 -2.310175E+05 -2.547891E+05 -9.716132E+04  1.221334E+05 -4.235165E-11  8.470329E-11
        37  17 -2.395560E+05 -3.007537E+05 -1.080619E+05  8.394940E+04 -1.482308E-10 -3.388132E-10
        37  18 -2.460502E+05 -3.089526E+05 -1.110006E+05  7.798818E+04 -1.588187E-11 -2.117582E-11
        37  19 -8.330359E+04 -3.074182E+05 -7.814437E+04  1.049852E+05 -1.694066E-10 -3.388132E-10
        37  20 -1.749398E+05 -3.335441E+05 -1.016968E+05  4.156159E+04 -5.505714E-10  0.000000E+00
        37  21 -2.629950E+05 -3.400515E+05 -1.206093E+05 -5.108907E+02 -5.558654E-10 -5.188077E-10
        37  22 -1.534299E+05 -2.809034E+05 -8.686667E+04  1.168960E+05 -5.082198E-10 -6.776264E-10
        37  23 -2.082819E+05 -3.167380E+05 -1.050040E+05  6.496267E+04  4.235165E-10 -1.185846E-09
        37  24 -2.597522E+05 -3.248631E+05 -1.169230E+05  3.935622E+04 -9.529121E-10  1.482308E-09
        37  25 -2.310175E+05 -2.547891E+05 -9.716132E+04  1.221334E+05  0.000000E+00  0.000000E+00
        37  26 -2.395560E+05 -3.007537E+05 -1.080619E+05  8.394940E+04 -5.082198E-10 -6.776264E-10
        37  27 -2.460502E+05 -3.089526E+05 -1.110006E+05  7.798818E+04 -5.082198E-10 -1.185846E-09
        38   1 -2.588327E+05 -3.250507E+05 -1.167767E+05 -1.043172E+03  3.388132E-10 -3.218725E-09
        38   2 -2.664843E+05 -3.153920E+05 -1.163753E+05  1.160759E+03  4.446923E-10 -5.082198E-10
        38   3 -2.742581E+05 -3.065538E+05 -1.161624E+05  2.025387E+03 -5.293956E-12 -1.672890E-09
        38   4 -2.547971E+05 -3.181779E+05 -1.145950E+05  3.505033E+04  6.776264E-10  6.776264E-10
        38   5 -2.632807E+05 -3.118462E+05 -1.150254E+05  3.115822E+04  1.694066E-10  2.371692E-09
        38   6 -2.717337E+05 -3.058448E+05 -1.155157E+05  2.641520E+04  2.329341E-10  2.541099E-10
        38   7 -2.649734E+05 -3.155473E+05 -1.161041E+05  6.833022E+04 -3.388132E-10  2.032879E-09
        38   8 -2.731951E+05 -3.123473E+05 -1.171085E+05  5.786135E+04  3.388132E-10 -1.355253E-09
        38   9 -2.813110E+05 -3.089060E+05 -1.180434E+05  4.717872E+04  1.312901E-09 -1.101143E-09
        38  10 -2.588327E+05 -3.250507E+05 -1.167767E+05 -1.043172E+03  4.235165E-11 -1.694066E-10
        38  11 -2.664843E+05 -3.153920E+05 -1.163753E+05  1.160759E+03  1.270549E-10  8.470329E-11
        38  12 -2.742581E+05 -3.065538E+05 -1.161624E+05  2.025387E+03 -7.940934E-11  1.905824E-10
        38  13 -2.547971E+05 -3.181779E+05 -1.145950E+05  3.505033E+04 -8.470329E-11  0.000000E+00
        38  14 -2.632807E+05 -3.118462E+05 -1.150254E+05  3.115822E+04  3.388132E-10 -5.082198E-10
        38  15 -2.717337E+05 -3.058448E+05 -1.155157E+05  2.641520E+04 -1.694066E-10  4.235165E-11
        38  16 -2.649734E+05 -3.155473E+05 -1.161041E+05  6.833022E+04  4.235165E-11  1.694066E-10
        38  17 -2.731951E+05 -3.123473E+05 -1.171085E+05  5.786135E+04  6.352747E-11  5.082198E-10
        38  18 -2.813110E+05 -3.089060E+05 -1.180434E+05  4.717872E+04 -1.588187E-11 -2.117582E-11
        38  19 -2.588327E+05 -3.250507E+05 -1.167767E+05 -1.043172E+03 -3.388132E-10  1.863472E-09
        38  20 -2.664843E+05 -3.153920E+05 -1.163753E+05  1.160759E+03 -1.122319E-09  5.082198E-10
        38  21 -2.742581E+05 -3.065538E+05 -1.161624E+05  2.025387E+03 -6.723324E-10  1.672890E-09
        38  22 -2.547971E+05 -3.181779E+05 -1.145950E+05  3.505033E+04 -2.032879E-09 -6.776264E-10
        38  23 -2.632807E+05 -3.118462E+05 -1.150254E+05  3.115822E+04 -1.694066E-10  3.388132E-10
        38  24 -2.717337E+05 -3.058448E+05 -1.155157E+05  2.641520E+04 -1.588187E-09 -2.541099E-10
        38  25 -2.649734E+05 -3.155473E+05 -1.161041E+05  6.833022E+04 -3.388132E-10 -6.776264E-10
        38  26 -2.731951E+05 -3.123473E+05 -1.171085E+05  5.786135E+04  1.016440E-09  1.355253E-09
        38  27 -2.813110E+05 -3.089060E+05 -1.180434E+05  4.717872E+04 -1.990527E-09  1.101143E-09
        39   1 -2.739117E+05 -3.129975E+05 -1.173818E+05  7.725982E+04 -5.929231E-10  5.082198E-10
        39   2 -2.814524E+05 -3.089882E+05 -1.180881E+05  6.849463E+04 -1.694066E-10  5.929231E-10
        39   3 -2.895029E+05 -3.058200E+05 -1.190646E+05  6.081738E+04  1.482308E-09 -1.101143E-09
        39   4 -2.903597E+05 -2.896129E+05 -1.159945E+05  1.019765E+05  3.388132E-10 -1.694066E-09
        39   5 -2.959177E+05 -2.916964E+05 -1.175228E+05  9.368240E+04  5.082198E-10  2.032879E-09
        39   6 -3.020864E+05 -2.937799E+05 -1.191733E+05  8.683069E+04 -2.117582E-10  2.668154E-09
        39   7 -3.168155E+05 -2.721585E+05 -1.177948E+05  1.219295E+05  0.000000E+00 -6.776264E-10
        39   8 -3.189532E+05 -2.806490E+05 -1.199204E+05  1.143909E+05 -3.388132E-10  1.016440E-09
        39   9 -3.220265E+05 -2.880193E+05 -1.220092E+05  1.087103E+05  1.694066E-10 -6.776264E-10
        39  10 -2.739117E+05 -3.129975E+05 -1.173818E+05  7.725982E+04  0.000000E+00  1.694066E-10
        39  11 -2.814524E+05 -3.089882E+05 -1.180881E+05  6.849463E+04  8.470329E-11 -1.694066E-10
        39  12 -2.895029E+05 -3.058200E+05 -1.190646E+05  6.081738E+04  0.000000E+00  2.541099E-10
        39  13 -2.903597E+05 -2.896129E+05 -1.159945E+05  1.019765E+05  1.694066E-10  0.000000E+00
        39  14 -2.959177E+05 -2.916964E+05 -1.175228E+05  9.368240E+04  1.694066E-10 -3.388132E-10
        39  15 -3.020864E+05 -2.937799E+05 -1.191733E+05  8.683069E+04  2.752857E-10 -1.270549E-10
        39  16 -3.168155E+05 -2.721585E+05 -1.177948E+05  1.219295E+05 -1.694066E-10 -3.388132E-10
        39  17 -3.189532E+05 -2.806490E+05 -1.199204E+05  1.143909E+05  3.388132E-10 -1.694066E-10
        39  18 -3.220265E+05 -2.880193E+05 -1.220092E+05  1.087103E+05 -1.482308E-10  2.541099E-10
        39  19 -2.739117E+05 -3.129975E+05 -1.173818E+05  7.725982E+04 -8.470329E-11 -5.082198E-10
        39  20 -2.814524E+05 -3.089882E+05 -1.180881E+05  6.849463E+04 -5.082198E-10  3.472835E-09
        39  21 -2.895029E+05 -3.058200E+05 -1.190646E+05  6.081738E+04 -8.046813E-10  1.101143E-09
        39  22 -2.903597E+05 -2.896129E+05 -1.159945E+05  1.019765E+05  3.388132E-10 -1.016440E-09
        39  23 -2.959177E+05 -2.916964E+05 -1.175228E+05  9.368240E+04  8.470329E-10  3.388132E-09
        39  24 -3.020864E+05 -2.937799E+05 -1.191733E+05  8.683069E+04 -4.658681E-10  4.235165E-11
        39  25 -3.168155E+05 -2.721585E+05 -1.177948E+05  1.219295E+05  0.000000E+00  6.776264E-10
        39  26 -3.189532E+05 -2.806490E+05 -1.199204E+05  1.143909E+05  3.388132E-10  3.388132E-10
        39  27 -3.220265E+05 -2.880193E+05 -1.220092E+05  1.087103E+05 -1.694066E-10  6.776264E-10
        40   1 -2.671591E+05 -2.556697E+05 -1.045658E+05  1.268394E+05  8.470329E-10  2.541099E-10
        40   2 -2.586648E+05 -2.787105E+05 -1.074751E+05  1.109316E+05  1.482308E-09 -5.082198E-10
        40   3 -2.490557E+05 -2.967936E+05 -1.091699E+05  9.525017E+04  2.805797E-10  1.694066E-10
        40   4 -2.945666E+05 -2.487446E+05 -1.086622E+05  1.330345E+05  6.776264E-10  0.000000E+00
        40   5 -2.898015E+05 -2.683766E+05 -1.116356E+05  1.224054E+05  0.000000E+00  1.355253E-09
        40   6 -2.833961E+05 -2.824116E+05 -1.131615E+05  1.108536E+05  2.752857E-10 -1.736418E-09
        40   7 -3.178851E+05 -2.407397E+05 -1.117249E+05  1.388283E+05  6.776264E-10  6.776264E-10
        40   8 -3.198798E+05 -2.577824E+05 -1.155324E+05  1.339119E+05  8.470329E-10 -1.016440E-09
        40   9 -3.190296E+05 -2.682355E+05 -1.174530E+05  1.264602E+05 -7.199780E-10 -5.929231E-10
        40  10 -2.671591E+05 -2.556697E+05 -1.045658E+05  1.268394E+05  0.000000E+00  8.470329E-11
        40  11 -2.586648E+05 -2.787105E+05 -1.074751E+05  1.109316E+05  4.235165E-11 -2.117582E-10
        40  12 -2.490557E+05 -2.967936E+05 -1.091699E+05  9.525017E+04 -5.293956E-11 -2.858736E-10
        40  13 -2.945666E+05 -2.487446E+05 -1.086622E+05  1.330345E+05  0.000000E+00  0.000000E+00
        40  14 -2.898015E+05 -2.683766E+05 -1.116356E+05  1.224054E+05 -2.541099E-10  1.694066E-10
        40  15 -2.833961E+05 -2.824116E+05 -1.131615E+05  1.108536E+05 -6.352747E-11  4.235165E-11
        40  16 -3.178851E+05 -2.407397E+05 -1.117249E+05  1.388283E+05  8.470329E-11  8.470329E-11
        40  17 -3.198798E+05 -2.577824E+05 -1.155324E+05  1.339119E+05 -1.482308E-10  4.235165E-11
        40  18 -3.190296E+05 -2.682355E+05 -1.174530E+05  1.264602E+05 -4.235165E-11  4.235165E-11
        40  19 -2.671591E+05 -2.556697E+05 -1.045658E+05  1.268394E+05 -8.470329E-10  1.101143E-09
        40  20 -2.586648E+05 -2.787105E+05 -1.074751E+05  1.109316E+05 -1.270549E-10 -8.470329E-10
        40  21 -2.490557E+05 -2.967936E+05 -1.091699E+05  9.525017E+04 -2.805797E-10  2.541099E-09
        40  22 -2.945666E+05 -2.487446E+05 -1.086622E+05  1.330345E+05  0.000000E+00  0.000000E+00
        40  23 -2.898015E+05 -2.683766E+05 -1.116356E+05  1.224054E+05 -6.776264E-10  0.000000E+00
        40  24 -2.833961E+05 -2.824116E+05 -1.131615E+05  1.108536E+05 -2.752857E-10  1.736418E-09
        40  25 -3.178851E+05 -2.407397E+05 -1.117249E+05  1.388283E+05 -6.776264E-10  0.000000E+00
        40  26 -3.198798E+05 -2.577824E+05 -1.155324E+05  1.339119E+05 -1.694066E-10  1.016440E-09
        40  27 -3.190296E+05 -2.682355E+05 -1.174530E+05  1.264602E+05  7.199780E-10  1.948176E-09
        41   1 -4.295743E+05 -2.758229E+05 -1.410794E+05  1.725456E+05  5.082198E-10  5.082198E-10
        41   2 -4.127426E+05 -2.766355E+05 -1.378756E+05  1.642430E+05 -2.541099E-09  1.270549E-09
        41   3 -3.964265E+05 -2.776952E+05 -1.348243E+05  1.555466E+05  2.858736E-09 -8.258571E-10
        41   4 -4.450035E+05 -2.772274E+05 -1.444462E+05  1.870974E+05  6.776264E-10 -2.032879E-09
        41   5 -4.290941E+05 -2.745964E+05 -1.407381E+05  1.786444E+05 -2.032879E-09 -1.694066E-09
        41   6 -4.137289E+05 -2.721159E+05 -1.371690E+05  1.697896E+05  9.317362E-10 -4.235165E-10
        41   7 -4.631625E+05 -2.819676E+05 -1.490260E+05  2.035075E+05  1.355253E-09  0.000000E+00
        41   8 -4.482657E+05 -2.759701E+05 -1.448471E+05  1.949591E+05  1.355253E-09  0.000000E+00
        41   9 -4.339447E+05 -2.700276E+05 -1.407945E+05  1.860024E+05  2.371692E-09 -8.470329E-10
        41  10 -4.295743E+05 -2.758229E+05 -1.410794E+05  1.725456E+05  0.000000E+00 -1.694066E-10
        41  11 -4.127426E+05 -2.766355E+05 -1.378756E+05  1.642430E+05 -8.470329E-11  3.388132E-10
        41  12 -3.964265E+05 -2.776952E+05 -1.348243E+05  1.555466E+05 -8.470329E-11  8.470329E-11
        41  13 -4.450035E+05 -2.772274E+05 -1.444462E+05  1.870974E+05  0.000000E+00  6.776264E-10
        41  14 -4.290941E+05 -2.745964E+05 -1.407381E+05  1.786444E+05  0.000000E+00 -6.776264E-10
        41  15 -4.137289E+05 -2.721159E+05 -1.371690E+05  1.697896E+05 -1.694066E-10  8.470329E-11
        41  16 -4.631625E+05 -2.819676E+05 -1.490260E+05  2.035075E+05 -3.388132E-10 -1.694066E-10
        41  17 -4.482657E+05 -2.759701E+05 -1.448471E+05  1.949591E+05  5.929231E-10  0.000000E+00
        41  18 -4.339447E+05 -2.700276E+05 -1.407945E+05  1.860024E+05 -2.541099E-10  1.482308E-10
        41  19 -4.295743E+05 -2.758229E+05 -1.410794E+05  1.725456E+05 -1.863472E-09 -5.082198E-10
        41  20 -4.127426E+05 -2.766355E+05 -1.378756E+05  1.642430E+05 -1.694066E-10  1.439956E-09
        41  21 -3.964265E+05 -2.776952E+05 -1.348243E+05  1.555466E+05 -1.503483E-09 -1.884648E-09
        41  22 -4.450035E+05 -2.772274E+05 -1.444462E+05  1.870974E+05 -6.776264E-10  2.032879E-09
        41  23 -4.290941E+05 -2.745964E+05 -1.407381E+05  1.786444E+05  2.032879E-09  1.694066E-09
        41  24 -4.137289E+05 -2.721159E+05 -1.371690E+05  1.697896E+05 -9.317362E-10  4.235165E-10
        41  25 -4.631625E+05 -2.819676E+05 -1.490260E+05  2.035075E+05 -1.355253E-09  0.000000E+00
        41  26 -4.482657E+05 -2.759701E+05 -1.448471E+05  1.949591E+05  0.000000E+00  0.000000E+00
        41  27 -4.339447E+05 -2.700276E+05 -1.407945E+05  1.860024E+05 -1.016440E-09  2.202286E-09
        42   1 -3.874962E+05 -2.760456E+05 -1.327084E+05  1.498173E+05  1.694066E-09  3.726945E-09
        42   2 -3.740592E+05 -2.686879E+05 -1.285494E+05  1.392366E+05  2.795209E-09  2.117582E-09
        42   3 -3.602754E+05 -2.622858E+05 -1.245123E+05  1.289342E+05  1.164670E-09 -2.477571E-09
        42   4 -4.052890E+05 -2.696794E+05 -1.349937E+05  1.641675E+05  0.000000E+00  2.710505E-09
        42   5 -3.909245E+05 -2.604980E+05 -1.302845E+05  1.527315E+05  6.776264E-10  3.388132E-10
        42   6 -3.762048E+05 -2.522747E+05 -1.256959E+05  1.415708E+05 -1.694066E-10 -3.726945E-09
        42   7 -4.241057E+05 -2.642598E+05 -1.376731E+05  1.791088E+05  1.355253E-09  0.000000E+00
        42   8 -4.088084E+05 -2.532400E+05 -1.324097E+05  1.668112E+05 -6.776264E-10 -4.743385E-09
        42   9 -3.931472E+05 -2.431806E+05 -1.272656E+05  1.547861E+05 -1.185846E-09 -1.524659E-09
        42  10 -3.874962E+05 -2.760456E+05 -1.327084E+05  1.498173E+05  1.694066E-10 -5.082198E-10
        42  11 -3.740592E+05 -2.686879E+05 -1.285494E+05  1.392366E+05  0.000000E+00  8.470329E-11
        42  12 -3.602754E+05 -2.622858E+05 -1.245123E+05  1.289342E+05 -1.694066E-10 -3.599890E-10
        42  13 -4.052890E+05 -2.696794E+05 -1.349937E+05  1.641675E+05 -3.388132E-10  0.000000E+00
        42  14 -3.909245E+05 -2.604980E+05 -1.302845E+05  1.527315E+05 -3.388132E-10  1.016440E-09
        42  15 -3.762048E+05 -2.522747E+05 -1.256959E+05  1.415708E+05  4.235165E-11  9.317362E-10
        42  16 -4.241057E+05 -2.642598E+05 -1.376731E+05  1.791088E+05  0.000000E+00  3.388132E-10
        42  17 -4.088084E+05 -2.532400E+05 -1.324097E+05  1.668112E+05  6.776264E-10 -1.694066E-10
        42  18 -3.931472E+05 -2.431806E+05 -1.272656E+05  1.547861E+05 -2.329341E-10 -7.411538E-10
        42  19 -3.874962E+05 -2.760456E+05 -1.327084E+05  1.498173E+05 -1.694066E-09 -2.371692E-09
        42  20 -3.740592E+05 -2.686879E+05 -1.285494E+05  1.392366E+05 -1.439956E-09  3.303428E-09
        42  21 -3.602754E+05 -2.622858E+05 -1.245123E+05  1.289342E+05 -1.164670E-09 -2.329341E-10
        42  22 -4.052890E+05 -2.696794E+05 -1.349937E+05  1.641675E+05 -2.710505E-09  1.355253E-09
        42  23 -3.909245E+05 -2.604980E+05 -1.302845E+05  1.527315E+05  2.032879E-09  5.082198E-09
        42  24 -3.762048E+05 -2.522747E+05 -1.256959E+05  1.415708E+05  1.694066E-10  1.016440E-09
        42  25 -4.241057E+05 -2.642598E+05 -1.376731E+05  1.791088E+05 -2.710505E-09 -1.355253E-09
        42  26 -4.088084E+05 -2.532400E+05 -1.324097E+05  1.668112E+05 -2.032879E-09  2.032879E-09
        42  27 -3.931472E+05 -2.431806E+05 -1.272656E+05  1.547861E+05 -1.694066E-10  1.524659E-09
        43   1 -4.364715E+05 -2.600013E+05 -1.392946E+05  1.883607E+05 -1.524659E-09  1.016440E-09
        43   2 -4.206539E+05 -2.464582E+05 -1.334224E+05  1.747264E+05  3.472835E-09 -2.117582E-09
        43   3 -4.036538E+05 -2.357931E+05 -1.278894E+05  1.618043E+05  1.164670E-09  3.663417E-09
        43   4 -4.640489E+05 -2.446292E+05 -1.417356E+05  2.021834E+05  1.355253E-09 -2.710505E-09
        43   5 -4.459101E+05 -2.296386E+05 -1.351097E+05  1.856370E+05  1.694066E-09 -1.355253E-09
        43   6 -4.260867E+05 -2.175714E+05 -1.287316E+05  1.695770E+05  4.828088E-09 -3.388132E-09
        43   7 -4.929515E+05 -2.289353E+05 -1.443774E+05  2.162053E+05  2.710505E-09  2.710505E-09
        43   8 -4.722426E+05 -2.120587E+05 -1.368603E+05  1.965142E+05 -6.776264E-10 -8.809143E-09
        43   9 -4.492884E+05 -1.981604E+05 -1.294898E+05  1.770671E+05  2.541099E-09 -1.863472E-09
        43  10 -4.364715E+05 -2.600013E+05 -1.392946E+05  1.883607E+05  0.000000E+00  0.000000E+00
        43  11 -4.206539E+05 -2.464582E+05 -1.334224E+05  1.747264E+05  8.470329E-11 -1.694066E-10
        43  12 -4.036538E+05 -2.357931E+05 -1.278894E+05  1.618043E+05 -2.541099E-10  5.082198E-10
        43  13 -4.640489E+05 -2.446292E+05 -1.417356E+05  2.021834E+05  6.776264E-10  0.000000E+00
        43  14 -4.459101E+05 -2.296386E+05 -1.351097E+05  1.856370E+05 -6.776264E-10  2.032879E-09
        43  15 -4.260867E+05 -2.175714E+05 -1.287316E+05  1.695770E+05  1.270549E-10  8.470329E-11
        43  16 -4.929515E+05 -2.289353E+05 -1.443774E+05  2.162053E+05 -1.694066E-10 -3.388132E-10
        43  17 -4.722426E+05 -2.120587E+05 -1.368603E+05  1.965142E+05  8.470329E-11 -3.388132E-10
        43  18 -4.492884E+05 -1.981604E+05 -1.294898E+05  1.770671E+05 -1.270549E-10  2.117582E-11
        43  19 -4.364715E+05 -2.600013E+05 -1.392946E+05  1.883607E+05 -1.185846E-09  3.388132E-10
        43  20 -4.206539E+05 -2.464582E+05 -1.334224E+05  1.747264E+05 -7.623297E-10  2.117582E-09
        43  21 -4.036538E+05 -2.357931E+05 -1.278894E+05  1.618043E+05  1.905824E-10 -9.529121E-10
        43  22 -4.640489E+05 -2.446292E+05 -1.417356E+05  2.021834E+05 -1.355253E-09  0.000000E+00
        43  23 -4.459101E+05 -2.296386E+05 -1.351097E+05  1.856370E+05  1.016440E-09  1.355253E-09
        43  24 -4.260867E+05 -2.175714E+05 -1.287316E+05  1.695770E+05  5.929231E-10  3.388132E-09
        43  25 -4.929515E+05 -2.289353E+05 -1.443774E+05  2.162053E+05  0.000000E+00 -2.710505E-09
        43  26 -4.722426E+05 -2.120587E+05 -1.368603E+05  1.965142E+05  6.776264E-10  6.098637E-09
        43  27 -4.492884E+05 -1.981604E+05 -1.294898E+05  1.770671E+05 -2.541099E-09 -8.470329E-10
        44   1 -4.746406E+05 -2.829218E+05 -1.515125E+05  2.158165E+05  8.470329E-10 -3.388132E-10
        44   2 -4.609573E+05 -2.736474E+05 -1.469209E+05  2.055216E+05 -2.117582E-09 -1.694066E-10
        44   3 -4.462648E+05 -2.668025E+05 -1.426135E+05  1.956854E+05  1.609363E-09  2.329341E-09
        44   4 -5.023476E+05 -2.763289E+05 -1.557353E+05  2.389416E+05  2.710505E-09  6.776264E-10
        44   5 -4.884898E+05 -2.631573E+05 -1.503294E+05  2.248874E+05 -1.016440E-09 -3.388132E-10
        44   6 -4.730943E+05 -2.522537E+05 -1.450696E+05  2.108941E+05  2.032879E-09  1.609363E-09
        44   7 -5.355640E+05 -2.728792E+05 -1.616886E+05  2.645594E+05  0.000000E+00 -1.355253E-09
        44   8 -5.216625E+05 -2.555551E+05 -1.554435E+05  2.466794E+05  6.776264E-10  2.032879E-09
        44   9 -5.055213E+05 -2.402406E+05 -1.491524E+05  2.283778E+05  1.863472E-09 -3.388132E-10
        44  10 -4.746406E+05 -2.829218E+05 -1.515125E+05  2.158165E+05  1.694066E-10  0.000000E+00
        44  11 -4.609573E+05 -2.736474E+05 -1.469209E+05  2.055216E+05 -1.694066E-10  5.929231E-10
        44  12 -4.462648E+05 -2.668025E+05 -1.426135E+05  1.956854E+05  1.905824E-10 -4.235165E-11
        44  13 -5.023476E+05 -2.763289E+05 -1.557353E+05  2.389416E+05  3.388132E-10  6.776264E-10
        44  14 -4.884898E+05 -2.631573E+05 -1.503294E+05  2.248874E+05 -3.388132E-10 -3.388132E-10
        44  15 -4.730943E+05 -2.522537E+05 -1.450696E+05  2.108941E+05 -6.776264E-10 -2.117582E-10
        44  16 -5.355640E+05 -2.728792E+05 -1.616886E+05  2.645594E+05  1.694066E-10 -1.694066E-10
        44  17 -5.216625E+05 -2.555551E+05 -1.554435E+05  2.466794E+05 -6.776264E-10  8.470329E-10
        44  18 -5.055213E+05 -2.402406E+05 -1.491524E+05  2.283778E+05 -1.270549E-10 -4.235165E-11
        44  19 -4.746406E+05 -2.829218E+05 -1.515125E+05  2.158165E+05 -8.470329E-10  3.388132E-10
        44  20 -4.609573E+05 -2.736474E+05 -1.469209E+05  2.055216E+05 -5.929231E-10  1.694066E-10
        44  21 -4.462648E+05 -2.668025E+05 -1.426135E+05  1.956854E+05 -1.609363E-09  3.811648E-10
        44  22 -5.023476E+05 -2.763289E+05 -1.557353E+05  2.389416E+05 -2.710505E-09  2.032879E-09
        44  23 -4.884898E+05 -2.631573E+05 -1.503294E+05  2.248874E+05 -1.694066E-09  3.388132E-10
        44  24 -4.730943E+05 -2.522537E+05 -1.450696E+05  2.108941E+05 -6.776264E-10  3.811648E-09
        44  25 -5.355640E+05 -2.728792E+05 -1.616886E+05  2.645594E+05  0.000000E+00  1.355253E-09
        44  26 -5.216625E+05 -2.555551E+05 -1.554435E+05  2.466794E+05 -6.776264E-10 -2.032879E-09
        44  27 -5.055213E+05 -2.402406E+05 -1.491524E+05  2.283778E+05 -1.863472E-09  3.049319E-09
        45   1 -3.192414E+05 -1.391190E+05 -9.167209E+04  8.753362E+04  6.776264E-10 -1.016440E-08
        45   2 -3.452310E+05 -1.471246E+05 -9.847110E+04  1.027386E+05  6.776264E-10  6.098637E-09
        45   3 -3.703659E+05 -1.576602E+05 -1.056052E+05  1.184900E+05  1.228198E-09 -8.470329E-11
        45   4 -3.242680E+05 -1.622650E+05 -9.730660E+04  9.430247E+04 -6.776264E-10 -1.355253E-09
        45   5 -3.450834E+05 -1.704035E+05 -1.030974E+05  1.078241E+05  6.776264E-10 -3.388132E-09
        45   6 -3.650179E+05 -1.812122E+05 -1.092460E+05  1.220165E+05 -8.470329E-11 -2.710505E-09
        45   7 -3.244823E+05 -1.797415E+05 -1.008448E+05  9.792419E+04  5.421011E-09 -2.710505E-09
        45   8 -3.398102E+05 -1.880461E+05 -1.055713E+05  1.096663E+05  6.776264E-10  4.065758E-09
        45   9 -3.543055E+05 -1.992850E+05 -1.107181E+05  1.222745E+05  4.235165E-09 -2.032879E-09
        45  10 -3.192414E+05 -1.391190E+05 -9.167209E+04  8.753362E+04  0.000000E+00 -3.388132E-10
        45  11 -3.452310E+05 -1.471246E+05 -9.847110E+04  1.027386E+05 -5.929231E-10 -1.355253E-09
        45  12 -3.703659E+05 -1.576602E+05 -1.056052E+05  1.184900E+05  1.270549E-10 -2.541099E-10
        45  13 -3.242680E+05 -1.622650E+05 -9.730660E+04  9.430247E+04  0.000000E+00  6.776264E-10
        45  14 -3.450834E+05 -1.704035E+05 -1.030974E+05  1.078241E+05  3.388132E-10  0.000000E+00
        45  15 -3.650179E+05 -1.812122E+05 -1.092460E+05  1.220165E+05  1.694066E-10 -1.439956E-09
        45  16 -3.244823E+05 -1.797415E+05 -1.008448E+05  9.792419E+04  0.000000E+00  0.000000E+00
        45  17 -3.398102E+05 -1.880461E+05 -1.055713E+05  1.096663E+05  1.694066E-10  5.082198E-10
        45  18 -3.543055E+05 -1.992850E+05 -1.107181E+05  1.222745E+05 -4.235165E-11 -1.270549E-10
        45  19 -3.192414E+05 -1.391190E+05 -9.167209E+04  8.753362E+04 -3.388132E-09  4.743385E-09
        45  20 -3.452310E+05 -1.471246E+05 -9.847110E+04  1.027386E+05 -3.388132E-09  2.032879E-09
        45  21 -3.703659E+05 -1.576602E+05 -1.056052E+05  1.184900E+05 -1.228198E-09 -5.336308E-09
        45  22 -3.242680E+05 -1.622650E+05 -9.730660E+04  9.430247E+04  6.776264E-10  4.065758E-09
        45  23 -3.450834E+05 -1.704035E+05 -1.030974E+05  1.078241E+05  6.776264E-10  6.776264E-10
        45  24 -3.650179E+05 -1.812122E+05 -1.092460E+05  1.220165E+05  8.470329E-11  2.710505E-09
        45  25 -3.244823E+05 -1.797415E+05 -1.008448E+05  9.792419E+04 -2.710505E-09  0.000000E+00
        45  26 -3.398102E+05 -1.880461E+05 -1.055713E+05  1.096663E+05 -6.776264E-10 -1.355253E-09
        45  27 -3.543055E+05 -1.992850E+05 -1.107181E+05  1.222745E+05 -4.235165E-09  2.032879E-09
        46   1 -3.860631E+05 -1.648532E+05 -1.101833E+05  1.288754E+05  2.710505E-09  2.032879E-09
        46   2 -4.110265E+05 -1.758096E+05 -1.173672E+05  1.469247E+05  2.541099E-09 -4.065758E-09
        46   3 -4.344926E+05 -1.891023E+05 -1.247190E+05  1.653535E+05  3.599890E-10 -2.795209E-09
        46   4 -3.758446E+05 -1.871155E+05 -1.125920E+05  1.300187E+05  4.743385E-09 -2.710505E-09
        46   5 -3.962177E+05 -1.973230E+05 -1.187082E+05  1.448939E+05  1.016440E-09 -1.355253E-09
        46   6 -4.152623E+05 -2.100590E+05 -1.250643E+05  1.604093E+05  1.609363E-09 -2.879912E-09
        46   7 -3.639739E+05 -2.060572E+05 -1.140062E+05  1.297200E+05  4.065758E-09 -2.710505E-09
        46   8 -3.795173E+05 -2.156646E+05 -1.190364E+05  1.413238E+05  1.355253E-09  1.355253E-09
        46   9 -3.939051E+05 -2.280477E+05 -1.243906E+05  1.538674E+05 -1.694066E-10  2.371692E-09
        46  10 -3.860631E+05 -1.648532E+05 -1.101833E+05  1.288754E+05  0.000000E+00  0.000000E+00
        46  11 -4.110265E+05 -1.758096E+05 -1.173672E+05  1.469247E+05 -8.470329E-11  6.776264E-10
        46  12 -4.344926E+05 -1.891023E+05 -1.247190E+05  1.653535E+05 -2.117582E-10 -8.046813E-10
        46  13 -3.758446E+05 -1.871155E+05 -1.125920E+05  1.300187E+05  6.776264E-10  0.000000E+00
        46  14 -3.962177E+05 -1.973230E+05 -1.187082E+05  1.448939E+05  6.776264E-10  3.388132E-10
        46  15 -4.152623E+05 -2.100590E+05 -1.250643E+05  1.604093E+05  8.470329E-11 -1.185846E-09
        46  16 -3.639739E+05 -2.060572E+05 -1.140062E+05  1.297200E+05  1.694066E-10 -3.388132E-10
        46  17 -3.795173E+05 -2.156646E+05 -1.190364E+05  1.413238E+05 -2.541099E-10 -5.082198E-10
        46  18 -3.939051E+05 -2.280477E+05 -1.243906E+05  1.538674E+05 -6.352747E-11  8.046813E-10
        46  19 -3.860631E+05 -1.648532E+05 -1.101833E+05  1.288754E+05  0.000000E+00 -2.032879E-09
        46  20 -4.110265E+05 -1.758096E+05 -1.173672E+05  1.469247E+05  1.694066E-10  6.776264E-09
        46  21 -4.344926E+05 -1.891023E+05 -1.247190E+05  1.653535E+05 -3.070494E-09  8.470329E-11
        46  22 -3.758446E+05 -1.871155E+05 -1.125920E+05  1.300187E+05 -6.776264E-10  2.710505E-09
        46  23 -3.962177E+05 -1.973230E+05 -1.187082E+05  1.448939E+05 -1.016440E-09  1.355253E-09
        46  24 -4.152623E+05 -2.100590E+05 -1.250643E+05  1.604093E+05 -1.609363E-09  2.879912E-09
        46  25 -3.639739E+05 -2.060572E+05 -1.140062E+05  1.297200E+05 -4.065758E-09  2.710505E-09
        46  26 -3.795173E+05 -2.156646E+05 -1.190364E+05  1.413238E+05 -1.355253E-09 -4.065758E-09
        46  27 -3.939051E+05 -2.280477E+05 -1.243906E+05  1.538674E+05  1.524659E-09 -2.371692E-09
        47   1 -3.581483E+05 -2.161763E+05 -1.148649E+05  1.260154E+05 -6.776264E-10  1.863472E-09
        47   2 -3.711319E+05 -2.256039E+05 -1.193472E+05  1.367581E+05  3.388132E-10 -1.694066E-09
        47   3 -3.840341E+05 -2.361711E+05 -1.240410E+05  1.476148E+05  2.710505E-09 -2.329341E-10
        47   4 -3.475018E+05 -2.295234E+05 -1.154050E+05  1.171893E+05 -2.710505E-09  8.131516E-09
        47   5 -3.586057E+05 -2.378599E+05 -1.192931E+05  1.264661E+05 -4.065758E-09  0.000000E+00
        47   6 -3.695484E+05 -2.474556E+05 -1.234008E+05  1.359345E+05  2.456396E-09  5.082198E-10
        47   7 -3.365031E+05 -2.420044E+05 -1.157015E+05  1.080130E+05 -1.355253E-09  0.000000E+00
        47   8 -3.454309E+05 -2.490922E+05 -1.189046E+05  1.156655E+05  2.710505E-09  1.355253E-09
        47   9 -3.541089E+05 -2.575757E+05 -1.223369E+05  1.235988E+05 -5.082198E-10 -4.743385E-09
        47  10 -3.581483E+05 -2.161763E+05 -1.148649E+05  1.260154E+05  0.000000E+00 -3.388132E-10
        47  11 -3.711319E+05 -2.256039E+05 -1.193472E+05  1.367581E+05  0.000000E+00 -1.694066E-10
        47  12 -3.840341E+05 -2.361711E+05 -1.240410E+05  1.476148E+05  6.352747E-11 -1.694066E-10
        47  13 -3.475018E+05 -2.295234E+05 -1.154050E+05  1.171893E+05  0.000000E+00  0.000000E+00
        47  14 -3.586057E+05 -2.378599E+05 -1.192931E+05  1.264661E+05 -1.016440E-09 -6.776264E-10
        47  15 -3.695484E+05 -2.474556E+05 -1.234008E+05  1.359345E+05 -2.964615E-10  6.776264E-10
        47  16 -3.365031E+05 -2.420044E+05 -1.157015E+05  1.080130E+05 -1.694066E-10  3.388132E-10
        47  17 -3.454309E+05 -2.490922E+05 -1.189046E+05  1.156655E+05 -8.470329E-11 -5.082198E-10
        47  18 -3.541089E+05 -2.575757E+05 -1.223369E+05  1.235988E+05  0.000000E+00  0.000000E+00
        47  19 -3.581483E+05 -2.161763E+05 -1.148649E+05  1.260154E+05 -6.776264E-10  8.470329E-10
        47  20 -3.711319E+05 -2.256039E+05 -1.193472E+05  1.367581E+05 -1.694066E-09 -1.016440E-09
        47  21 -3.840341E+05 -2.361711E+05 -1.240410E+05  1.476148E+05 -5.421011E-09  5.653945E-09
        47  22 -3.475018E+05 -2.295234E+05 -1.154050E+05  1.171893E+05  1.355253E-09 -2.710505E-09
        47  23 -3.586057E+05 -2.378599E+05 -1.192931E+05  1.264661E+05  1.355253E-09  0.000000E+00
        47  24 -3.695484E+05 -2.474556E+05 -1.234008E+05  1.359345E+05 -2.456396E-09 -5.082198E-10
        47  25 -3.365031E+05 -2.420044E+05 -1.157015E+05  1.080130E+05 -1.355253E-09  0.000000E+00
        47  26 -3.454309E+05 -2.490922E+05 -1.189046E+05  1.156655E+05 -2.710505E-09  1.355253E-09
        47  27 -3.541089E+05 -2.575757E+05 -1.223369E+05  1.235988E+05  1.863472E-09  2.032879E-09
        48   1 -3.225167E+05 -1.907413E+05 -1.026516E+05  9.801611E+04  2.710505E-09 -1.355253E-09
        48   2 -3.359036E+05 -1.994586E+05 -1.070724E+05  1.085934E+05  5.675121E-09 -2.541099E-09
        48   3 -3.493044E+05 -2.098492E+05 -1.118307E+05  1.192705E+05  6.776264E-10 -8.555033E-09
        48   4 -3.200502E+05 -2.074816E+05 -1.055064E+05  9.351552E+04 -1.355253E-09  1.355253E-09
        48   5 -3.310731E+05 -2.155015E+05 -1.093149E+05  1.028936E+05  3.388132E-10  3.388132E-09
        48   6 -3.420609E+05 -2.254105E+05 -1.134943E+05  1.124158E+05  4.658681E-09  1.185846E-09
        48   7 -3.152647E+05 -2.211955E+05 -1.072920E+05  8.744852E+04  1.355253E-09  2.710505E-09
        48   8 -3.236129E+05 -2.282964E+05 -1.103819E+05  9.545751E+04  6.776264E-10 -6.776264E-09
        48   9 -3.318670E+05 -2.375256E+05 -1.138785E+05  1.036579E+05  3.218725E-09 -3.388132E-10
        48  10 -3.225167E+05 -1.907413E+05 -1.026516E+05  9.801611E+04 -1.694066E-10  3.388132E-10
        48  11 -3.359036E+05 -1.994586E+05 -1.070724E+05  1.085934E+05  4.235165E-10  1.694066E-10
        48  12 -3.493044E+05 -2.098492E+05 -1.118307E+05  1.192705E+05 -6.352747E-11  2.541099E-10
        48  13 -3.200502E+05 -2.074816E+05 -1.055064E+05  9.351552E+04  0.000000E+00  6.776264E-10
        48  14 -3.310731E+05 -2.155015E+05 -1.093149E+05  1.028936E+05  3.388132E-10  3.388132E-10
        48  15 -3.420609E+05 -2.254105E+05 -1.134943E+05  1.124158E+05  8.470329E-11 -6.776264E-10
        48  16 -3.152647E+05 -2.211955E+05 -1.072920E+05  8.744852E+04  3.388132E-10  3.388132E-10
        48  17 -3.236129E+05 -2.282964E+05 -1.103819E+05  9.545751E+04  1.694066E-10 -8.470329E-10
        48  18 -3.318670E+05 -2.375256E+05 -1.138785E+05  1.036579E+05 -6.352747E-11  2.117582E-10
        48  19 -3.225167E+05 -1.907413E+05 -1.026516E+05  9.801611E+04 -1.355253E-09  1.355253E-09
        48  20 -3.359036E+05 -1.994586E+05 -1.070724E+05  1.085934E+05 -2.964615E-09 -2.879912E-09
        48  21 -3.493044E+05 -2.098492E+05 -1.118307E+05  1.192705E+05 -2.032879E-09  8.555033E-09
        48  22 -3.200502E+05 -2.074816E+05 -1.055064E+05  9.351552E+04  0.000000E+00 -4.065758E-09
        48  23 -3.310731E+05 -2.155015E+05 -1.093149E+05  1.028936E+05  1.016440E-09 -3.388132E-09
        48  24 -3.420609E+05 -2.254105E+05 -1.134943E+05  1.124158E+05 -1.948176E-09 -1.185846E-09
        48  25 -3.152647E+05 -2.211955E+05 -1.072920E+05  8.744852E+04 -4.065758E-09  0.000000E+00
        48  26 -3.236129E+05 -2.282964E+05 -1.103819E+05  9.545751E+04 -6.776264E-10  4.065758E-09
        48  27 -3.318670E+05 -2.375256E+05 -1.138785E+05  1.036579E+05 -3.218725E-09  3.049319E-09
        49   1 -4.610381E+05 -2.045803E+05 -1.331237E+05  1.645548E+05  5.929231E-10  6.776264E-10
        49   2 -4.373695E+05 -2.108225E+05 -1.296384E+05  1.608910E+05 -4.235165E-11  5.929231E-10
        49   3 -4.117174E+05 -2.165899E+05 -1.256615E+05  1.574119E+05  2.435220E-10  8.470329E-10
        49   4 -4.507411E+05 -2.209595E+05 -1.343401E+05  1.632963E+05  6.776264E-10 -3.388132E-10
        49   5 -4.286257E+05 -2.258320E+05 -1.308915E+05  1.585410E+05 -1.355253E-09 -1.016440E-09
        49   6 -4.048983E+05 -2.303636E+05 -1.270524E+05  1.537151E+05  1.185846E-09 -8.470329E-11
        49   7 -4.407069E+05 -2.366607E+05 -1.354735E+05  1.625893E+05  0.000000E+00 -2.710505E-09
        49   8 -4.201797E+05 -2.397663E+05 -1.319892E+05  1.568952E+05  0.000000E+00 -1.016440E-09
        49   9 -3.984189E+05 -2.425836E+05 -1.282005E+05  1.509063E+05  0.000000E+00  2.541099E-10
        49  10 -4.610381E+05 -2.045803E+05 -1.331237E+05  1.645548E+05  0.000000E+00 -8.470329E-11
        49  11 -4.373695E+05 -2.108225E+05 -1.296384E+05  1.608910E+05 -8.470329E-11  4.235165E-11
        49  12 -4.117174E+05 -2.165899E+05 -1.256615E+05  1.574119E+05  0.000000E+00  1.058791E-10
        49  13 -4.507411E+05 -2.209595E+05 -1.343401E+05  1.632963E+05 -5.082198E-10  0.000000E+00
        49  14 -4.286257E+05 -2.258320E+05 -1.308915E+05  1.585410E+05 -4.235165E-10 -5.082198E-10
        49  15 -4.048983E+05 -2.303636E+05 -1.270524E+05  1.537151E+05 -2.117582E-10 -6.352747E-11
        49  16 -4.407069E+05 -2.366607E+05 -1.354735E+05  1.625893E+05 -2.541099E-10  1.694066E-10
        49  17 -4.201797E+05 -2.397663E+05 -1.319892E+05  1.568952E+05 -3.388132E-10 -4.235165E-11
        49  18 -3.984189E+05 -2.425836E+05 -1.282005E+05  1.509063E+05  8.470329E-11  1.376429E-10
        49  19 -4.610381E+05 -2.045803E+05 -1.331237E+05  1.645548E+05 -5.929231E-10  6.776264E-10
        49  20 -4.373695E+05 -2.108225E+05 -1.296384E+05  1.608910E+05 -6.352747E-10  8.470329E-11
        49  21 -4.117174E+05 -2.165899E+05 -1.256615E+05  1.574119E+05 -2.435220E-10 -1.694066E-10
        49  22 -4.507411E+05 -2.209595E+05 -1.343401E+05  1.632963E+05 -1.355253E-09  1.016440E-09
        49  23 -4.286257E+05 -2.258320E+05 -1.308915E+05  1.585410E+05  0.000000E+00  1.016440E-09
        49  24 -4.048983E+05 -2.303636E+05 -1.270524E+05  1.537151E+05  1.694066E-10  8.470329E-11
        49  25 -4.407069E+05 -2.366607E+05 -1.354735E+05  1.625893E+05 -6.776264E-10  6.776264E-10
        49  26 -4.201797E+05 -2.397663E+05 -1.319892E+05  1.568952E+05 -6.776264E-10  3.388132E-10
        49  27 -3.984189E+05 -2.425836E+05 -1.282005E+05  1.509063E+05  0.000000E+00  1.101143E-09
        50   1 -3.953740E+05 -2.201405E+05 -1.231029E+05  1.545161E+05 -4.235165E-10 -5.082198E-10
        50   2 -3.658922E+05 -2.295053E+05 -1.190795E+05  1.482162E+05  4.235165E-11 -1.482308E-09
        50   3 -3.339463E+05 -2.382585E+05 -1.144409E+05  1.421756E+05  2.117582E-10 -5.823352E-10
        50   4 -3.901011E+05 -2.335569E+05 -1.247316E+05  1.504848E+05  1.355253E-09  1.016440E-09
        50   5 -3.631474E+05 -2.419311E+05 -1.210157E+05  1.433625E+05  1.694066E-10 -5.082198E-10
        50   6 -3.344471E+05 -2.499410E+05 -1.168776E+05  1.361511E+05  6.352747E-10  1.270549E-10
        50   7 -3.852958E+05 -2.462702E+05 -1.263132E+05  1.473069E+05  1.355253E-09  6.776264E-10
        50   8 -3.609523E+05 -2.532637E+05 -1.228432E+05  1.395817E+05  3.388132E-10  6.776264E-10
        50   9 -3.356025E+05 -2.600307E+05 -1.191266E+05  1.314803E+05  7.623297E-10 -1.355253E-09
        50  10 -3.953740E+05 -2.201405E+05 -1.231029E+05  1.545161E+05 -8.470329E-11  8.470329E-11
        50  11 -3.658922E+05 -2.295053E+05 -1.190795E+05  1.482162E+05 -1.694066E-10  8.470329E-11
        50  12 -3.339463E+05 -2.382585E+05 -1.144409E+05  1.421756E+05 -6.352747E-11  3.176374E-11
        50  13 -3.901011E+05 -2.335569E+05 -1.247316E+05  1.504848E+05 -3.388132E-10  0.000000E+00
        50  14 -3.631474E+05 -2.419311E+05 -1.210157E+05  1.433625E+05 -2.541099E-10 -6.776264E-10
        50  15 -3.344471E+05 -2.499410E+05 -1.168776E+05  1.361511E+05  1.058791E-10  0.000000E+00
        50  16 -3.852958E+05 -2.462702E+05 -1.263132E+05  1.473069E+05  0.000000E+00  0.000000E+00
        50  17 -3.609523E+05 -2.532637E+05 -1.228432E+05  1.395817E+05  4.235165E-11  0.000000E+00
        50  18 -3.356025E+05 -2.600307E+05 -1.191266E+05  1.314803E+05  1.694066E-10 -2.117582E-11
        50  19 -3.953740E+05 -2.201405E+05 -1.231029E+05  1.545161E+05 -2.541099E-10  5.082198E-10
        50  20 -3.658922E+05 -2.295053E+05 -1.190795E+05  1.482162E+05 -1.397604E-09  1.270549E-10
        50  21 -3.339463E+05 -2.382585E+05 -1.144409E+05  1.421756E+05 -8.893846E-10  5.823352E-10
        50  22 -3.901011E+05 -2.335569E+05 -1.247316E+05  1.504848E+05 -1.355253E-09 -3.388132E-10
        50  23 -3.631474E+05 -2.419311E+05 -1.210157E+05  1.433625E+05 -8.470329E-10  5.082198E-10
        50  24 -3.344471E+05 -2.499410E+05 -1.168776E+05  1.361511E+05  4.235165E-11  1.228198E-09
        50  25 -3.852958E+05 -2.462702E+05 -1.263132E+05  1.473069E+05 -1.355253E-09  6.776264E-10
        50  26 -3.609523E+05 -2.532637E+05 -1.228432E+05  1.395817E+05 -3.388132E-10 -6.776264E-10
        50  27 -3.356025E+05 -2.600307E+05 -1.191266E+05  1.314803E+05 -7.623297E-10  1.355253E-09
        51   1 -3.824352E+05 -2.527213E+05 -1.270313E+05  1.448379E+05  1.948176E-09 -1.016440E-09
        51   2 -3.591855E+05 -2.591756E+05 -1.236722E+05  1.364353E+05  2.117582E-09  0.000000E+00
        51   3 -3.342365E+05 -2.652443E+05 -1.198962E+05  1.283644E+05  5.611593E-10 -8.258571E-10
        51   4 -3.804042E+05 -2.621134E+05 -1.285035E+05  1.419501E+05  0.000000E+00  6.776264E-10
        51   5 -3.583994E+05 -2.679501E+05 -1.252699E+05  1.325490E+05 -1.016440E-09 -2.032879E-09
        51   6 -3.350096E+05 -2.734519E+05 -1.216923E+05  1.230952E+05  8.470329E-10  2.879912E-09
        51   7 -3.781366E+05 -2.692719E+05 -1.294817E+05  1.392966E+05  6.776264E-10 -2.710505E-09
        51   8 -3.572734E+05 -2.737615E+05 -1.262070E+05  1.289367E+05  0.000000E+00 -3.388132E-09
        51   9 -3.353106E+05 -2.777635E+05 -1.226148E+05  1.181509E+05  1.355253E-09 -3.388132E-10
        51  10 -3.824352E+05 -2.527213E+05 -1.270313E+05  1.448379E+05  0.000000E+00  3.388132E-10
        51  11 -3.591855E+05 -2.591756E+05 -1.236722E+05  1.364353E+05  8.470329E-11  0.000000E+00
        51  12 -3.342365E+05 -2.652443E+05 -1.198962E+05  1.283644E+05  6.352747E-11  8.470329E-11
        51  13 -3.804042E+05 -2.621134E+05 -1.285035E+05  1.419501E+05  1.694066E-10  0.000000E+00
        51  14 -3.583994E+05 -2.679501E+05 -1.252699E+05  1.325490E+05  3.388132E-10 -1.694066E-10
        51  15 -3.350096E+05 -2.734519E+05 -1.216923E+05  1.230952E+05  6.352747E-11  3.388132E-10
        51  16 -3.781366E+05 -2.692719E+05 -1.294817E+05  1.392966E+05  1.694066E-10  1.694066E-10
        51  17 -3.572734E+05 -2.737615E+05 -1.262070E+05  1.289367E+05 -4.235165E-11 -2.541099E-10
        51  18 -3.353106E+05 -2.777635E+05 -1.226148E+05  1.181509E+05 -4.235165E-11  2.752857E-10
        51  19 -3.824352E+05 -2.527213E+05 -1.270313E+05  1.448379E+05 -2.625802E-09 -3.388132E-10
        51  20 -3.591855E+05 -2.591756E+05 -1.236722E+05  1.364353E+05 -7.623297E-10  1.355253E-09
        51  21 -3.342365E+05 -2.652443E+05 -1.198962E+05  1.283644E+05 -1.916412E-09  8.258571E-10
        51  22 -3.804042E+05 -2.621134E+05 -1.285035E+05  1.419501E+05  0.000000E+00  2.032879E-09
        51  23 -3.583994E+05 -2.679501E+05 -1.252699E+05  1.325490E+05  3.388132E-10 -6.776264E-10
        51  24 -3.350096E+05 -2.734519E+05 -1.216923E+05  1.230952E+05 -8.470329E-10 -1.524659E-09
        51  25 -3.781366E+05 -2.692719E+05 -1.294817E+05  1.392966E+05 -1.355253E-09  0.000000E+00
        51  26 -3.572734E+05 -2.737615E+05 -1.262070E+05  1.289367E+05 -6.776264E-10  2.032879E-09
        51  27 -3.353106E+05 -2.777635E+05 -1.226148E+05  1.181509E+05 -6.776264E-10  3.388132E-10
        52   1 -4.354014E+05 -2.449738E+05 -1.360750E+05  1.617444E+05  1.524659E-09  6.776264E-10
        52   2 -4.163668E+05 -2.475975E+05 -1.327929E+05  1.550718E+05  1.101143E-09  1.185846E-09
        52   3 -3.951744E+05 -2.497118E+05 -1.289773E+05  1.486402E+05  8.893846E-10  6.776264E-10
        52   4 -4.305623E+05 -2.576264E+05 -1.376377E+05  1.634557E+05  1.355253E-09 -2.710505E-09
        52   5 -4.125035E+05 -2.594746E+05 -1.343956E+05  1.550314E+05  6.776264E-10 -2.371692E-09
        52   6 -3.925212E+05 -2.608400E+05 -1.306722E+05  1.464891E+05  7.199780E-10 -5.929231E-10
        52   7 -4.254278E+05 -2.676876E+05 -1.386231E+05  1.654081E+05  2.710505E-09 -1.355253E-09
        52   8 -4.082241E+05 -2.679185E+05 -1.352285E+05  1.552749E+05 -2.371692E-09 -3.388132E-09
        52   9 -3.893060E+05 -2.675205E+05 -1.313653E+05  1.446737E+05  1.355253E-09 -3.218725E-09
        52  10 -4.354014E+05 -2.449738E+05 -1.360750E+05  1.617444E+05  0.000000E+00 -3.388132E-10
        52  11 -4.163668E+05 -2.475975E+05 -1.327929E+05  1.550718E+05  3.388132E-10  0.000000E+00
        52  12 -3.951744E+05 -2.497118E+05 -1.289773E+05  1.486402E+05  4.235165E-11  4.446923E-10
        52  13 -4.305623E+05 -2.576264E+05 -1.376377E+05  1.634557E+05  0.000000E+00  0.000000E+00
        52  14 -4.125035E+05 -2.594746E+05 -1.343956E+05  1.550314E+05 -1.694066E-10 -5.082198E-10
        52  15 -3.925212E+05 -2.608400E+05 -1.306722E+05  1.464891E+05 -2.117582E-10  1.694066E-10
        52  16 -4.254278E+05 -2.676876E+05 -1.386231E+05  1.654081E+05 -3.388132E-10  0.000000E+00
        52  17 -4.082241E+05 -2.679185E+05 -1.352285E+05  1.552749E+05 -1.694066E-10 -3.388132E-10
        52  18 -3.893060E+05 -2.675205E+05 -1.313653E+05  1.446737E+05  3.282253E-10  1.694066E-10
        52  19 -4.354014E+05 -2.449738E+05 -1.360750E+05  1.617444E+05 -8.470329E-10  6.776264E-10
        52  20 -4.163668E+05 -2.475975E+05 -1.327929E+05  1.550718E+05  9.317362E-10  1.694066E-10
        52  21 -3.951744E+05 -2.497118E+05 -1.289773E+05  1.486402E+05 -8.893846E-10 -6.776264E-10
        52  22 -4.305623E+05 -2.576264E+05 -1.376377E+05  1.634557E+05 -1.355253E-09  2.710505E-09
        52  23 -4.125035E+05 -2.594746E+05 -1.343956E+05  1.550314E+05 -6.776264E-10  2.371692E-09
        52  24 -3.925212E+05 -2.608400E+05 -1.306722E+05  1.464891E+05  6.352747E-10  5.929231E-10
        52  25 -4.254278E+05 -2.676876E+05 -1.386231E+05  1.654081E+05 -1.355253E-09  1.355253E-09
        52  26 -4.082241E+05 -2.679185E+05 -1.352285E+05  1.552749E+05 -1.694066E-09  6.776264E-10
        52  27 -3.893060E+05 -2.675205E+05 -1.313653E+05  1.446737E+05 -6.776264E-10  1.863472E-09
        53   1 -2.726510E+05 -2.960725E+05 -1.137447E+05  1.305996E+04  1.185846E-09  0.000000E+00
        53   2 -2.863978E+05 -2.890111E+05 -1.150818E+05  3.695119E+04 -4.235165E-11  8.470329E-11
        53   3 -3.006368E+05 -2.818529E+05 -1.164979E+05  6.080390E+04  1.482308E-09 -1.905824E-09
        53   4 -2.799695E+05 -3.006195E+05 -1.161178E+05  3.180332E+04  0.000000E+00  0.000000E+00
        53   5 -2.966432E+05 -2.931802E+05 -1.179647E+05  5.415528E+04 -1.524659E-09  6.776264E-10
        53   6 -3.135578E+05 -2.858939E+05 -1.198903E+05  7.662068E+04  1.567011E-09 -3.811648E-09
        53   7 -2.826104E+05 -3.012886E+05 -1.167798E+05  5.308604E+04  0.000000E+00 -1.355253E-09
        53   8 -3.030209E+05 -2.939135E+05 -1.193869E+05  7.354749E+04  0.000000E+00  0.000000E+00
        53   9 -3.232987E+05 -2.869422E+05 -1.220482E+05  9.433504E+04  1.524659E-09  1.694066E-10
        53  10 -2.726510E+05 -2.960725E+05 -1.137447E+05  1.305996E+04 -4.235165E-11 -1.694066E-10
        53  11 -2.863978E+05 -2.890111E+05 -1.150818E+05  3.695119E+04  3.388132E-10 -2.541099E-10
        53  12 -3.006368E+05 -2.818529E+05 -1.164979E+05  6.080390E+04  5.293956E-12 -2.329341E-10
        53  13 -2.799695E+05 -3.006195E+05 -1.161178E+05  3.180332E+04  1.694066E-10 -3.388132E-10
        53  14 -2.966432E+05 -2.931802E+05 -1.179647E+05  5.415528E+04 -1.694066E-10  3.388132E-10
        53  15 -3.135578E+05 -2.858939E+05 -1.198903E+05  7.662068E+04 -8.470329E-11  4.658681E-10
        53  16 -2.826104E+05 -3.012886E+05 -1.167798E+05  5.308604E+04 -1.270549E-10  0.000000E+00
        53  17 -3.030209E+05 -2.939135E+05 -1.193869E+05  7.354749E+04  0.000000E+00 -5.082198E-10
        53  18 -3.232987E+05 -2.869422E+05 -1.220482E+05  9.433504E+04 -3.705769E-11 -2.541099E-10
        53  19 -2.726510E+05 -2.960725E+05 -1.137447E+05  1.305996E+04 -1.524659E-09  2.710505E-09
        53  20 -2.863978E+05 -2.890111E+05 -1.150818E+05  3.695119E+04  4.235165E-11  1.270549E-09
        53  21 -3.006368E+05 -2.818529E+05 -1.164979E+05  6.080390E+04 -8.046813E-10  1.905824E-09
        53  22 -2.799695E+05 -3.006195E+05 -1.161178E+05  3.180332E+04 -1.355253E-09  0.000000E+00
        53  23 -2.966432E+05 -2.931802E+05 -1.179647E+05  5.415528E+04  1.694066E-10  6.776264E-10
        53  24 -3.135578E+05 -2.858939E+05 -1.198903E+05  7.662068E+04 -1.567011E-09  2.456396E-09
        53  25 -2.826104E+05 -3.012886E+05 -1.167798E+05  5.308604E+04  6.776264E-10  0.000000E+00
        53  26 -3.030209E+05 -2.939135E+05 -1.193869E+05  7.354749E+04  0.000000E+00  2.710505E-09
        53  27 -3.232987E+05 -2.869422E+05 -1.220482E+05  9.433504E+04 -1.524659E-09  3.896352E-09
        54   1 -3.098776E+05 -2.782853E+05 -1.176326E+05  7.452198E+04  1.355253E-09  1.694066E-10
        54   2 -3.302159E+05 -2.719870E+05 -1.204406E+05  9.671582E+04  1.143494E-09  2.286989E-09
        54   3 -3.498688E+05 -2.660148E+05 -1.231767E+05  1.190879E+05 -3.070494E-10 -2.985791E-09
        54   4 -3.233298E+05 -2.821837E+05 -1.211027E+05  8.941529E+04  0.000000E+00 -5.421011E-09
        54   5 -3.437045E+05 -2.766575E+05 -1.240724E+05  1.093649E+05 -1.694066E-10 -6.776264E-10
        54   6 -3.633401E+05 -2.717297E+05 -1.270140E+05  1.297300E+05  9.740879E-10 -1.439956E-09
        54   7 -3.358702E+05 -2.838445E+05 -1.239429E+05  1.050998E+05 -6.776264E-10  0.000000E+00
        54   8 -3.565294E+05 -2.796377E+05 -1.272334E+05  1.225483E+05 -1.355253E-09 -2.710505E-09
        54   9 -3.763657E+05 -2.762971E+05 -1.305326E+05  1.407086E+05  1.948176E-09 -1.185846E-09
        54  10 -3.098776E+05 -2.782853E+05 -1.176326E+05  7.452198E+04 -5.082198E-10 -5.082198E-10
        54  11 -3.302159E+05 -2.719870E+05 -1.204406E+05  9.671582E+04  1.270549E-10 -1.694066E-10
        54  12 -3.498688E+05 -2.660148E+05 -1.231767E+05  1.190879E+05 -5.399835E-10  2.329341E-10
        54  13 -3.233298E+05 -2.821837E+05 -1.211027E+05  8.941529E+04 -3.388132E-10  6.776264E-10
        54  14 -3.437045E+05 -2.766575E+05 -1.240724E+05  1.093649E+05  5.082198E-10  3.388132E-10
        54  15 -3.633401E+05 -2.717297E+05 -1.270140E+05  1.297300E+05  8.470329E-11 -4.235165E-10
        54  16 -3.358702E+05 -2.838445E+05 -1.239429E+05  1.050998E+05 -8.470329E-11  1.694066E-10
        54  17 -3.565294E+05 -2.796377E+05 -1.272334E+05  1.225483E+05 -5.082198E-10  1.694066E-10
        54  18 -3.763657E+05 -2.762971E+05 -1.305326E+05  1.407086E+05 -2.223461E-10 -1.482308E-10
        54  19 -3.098776E+05 -2.782853E+05 -1.176326E+05  7.452198E+04 -6.776264E-10  1.185846E-09
        54  20 -3.302159E+05 -2.719870E+05 -1.204406E+05  9.671582E+04  2.117582E-10  3.134022E-09
        54  21 -3.498688E+05 -2.660148E+05 -1.231767E+05  1.190879E+05  3.070494E-10 -2.435220E-09
        54  22 -3.233298E+05 -2.821837E+05 -1.211027E+05  8.941529E+04  0.000000E+00  2.710505E-09
        54  23 -3.437045E+05 -2.766575E+05 -1.240724E+05  1.093649E+05  1.694066E-10  3.388132E-09
        54  24 -3.633401E+05 -2.717297E+05 -1.270140E+05  1.297300E+05 -2.329341E-09  2.795209E-09
        54  25 -3.358702E+05 -2.838445E+05 -1.239429E+05  1.050998E+05 -6.776264E-10 -1.355253E-09
        54  26 -3.565294E+05 -2.796377E+05 -1.272334E+05  1.225483E+05  1.355253E-09 -1.355253E-09
        54  27 -3.763657E+05 -2.762971E+05 -1.305326E+05  1.407086E+05 -3.303428E-09  2.541099E-09
        55   1 -3.445938E+05 -2.832074E+05 -1.255602E+05  1.138507E+05 -1.524659E-09 -1.694066E-10
        55   2 -3.654225E+05 -2.800891E+05 -1.291023E+05  1.301700E+05  1.651714E-09 -2.541099E-10
        55   3 -3.857988E+05 -2.775066E+05 -1.326611E+05  1.469747E+05  1.715242E-09  1.545835E-09
        55   4 -3.633667E+05 -2.792277E+05 -1.285189E+05  1.275321E+05  2.710505E-09  0.000000E+00
        55   5 -3.832824E+05 -2.770977E+05 -1.320760E+05  1.413819E+05 -8.470329E-10  1.016440E-09
        55   6 -4.028010E+05 -2.757318E+05 -1.357066E+05  1.560467E+05 -3.811648E-10 -1.694066E-09
        55   7 -3.819135E+05 -2.724723E+05 -1.308772E+05  1.417807E+05  2.032879E-09  1.355253E-09
        55   8 -4.010392E+05 -2.721286E+05 -1.346336E+05  1.528272E+05  1.694066E-09 -6.776264E-10
        55   9 -4.198205E+05 -2.727359E+05 -1.385113E+05  1.651187E+05  1.101143E-09  1.694066E-09
        55  10 -3.445938E+05 -2.832074E+05 -1.255602E+05  1.138507E+05  8.470329E-11 -1.694066E-10
        55  11 -3.654225E+05 -2.800891E+05 -1.291023E+05  1.301700E+05  0.000000E+00  1.694066E-10
        55  12 -3.857988E+05 -2.775066E+05 -1.326611E+05  1.469747E+05  3.705769E-10  4.023406E-10
        55  13 -3.633667E+05 -2.792277E+05 -1.285189E+05  1.275321E+05  0.000000E+00  3.388132E-10
        55  14 -3.832824E+05 -2.770977E+05 -1.320760E+05  1.413819E+05 -8.470329E-10 -1.694066E-10
        55  15 -4.028010E+05 -2.757318E+05 -1.357066E+05  1.560467E+05 -5.082198E-10 -8.470329E-11
        55  16 -3.819135E+05 -2.724723E+05 -1.308772E+05  1.417807E+05 -8.470329E-11 -1.694066E-10
        55  17 -4.010392E+05 -2.721286E+05 -1.346336E+05  1.528272E+05  8.470329E-11  6.776264E-10
        55  18 -4.198205E+05 -2.727359E+05 -1.385113E+05  1.651187E+05 -2.117582E-11 -4.235165E-11
        55  19 -3.445938E+05 -2.832074E+05 -1.255602E+05  1.138507E+05 -5.082198E-10  1.524659E-09
        55  20 -3.654225E+05 -2.800891E+05 -1.291023E+05  1.301700E+05 -2.964615E-10  1.609363E-09
        55  21 -3.857988E+05 -2.775066E+05 -1.326611E+05  1.469747E+05 -1.715242E-09 -2.901088E-09
        55  22 -3.633667E+05 -2.792277E+05 -1.285189E+05  1.275321E+05  0.000000E+00  1.355253E-09
        55  23 -3.832824E+05 -2.770977E+05 -1.320760E+05  1.413819E+05 -5.082198E-10  1.694066E-09
        55  24 -4.028010E+05 -2.757318E+05 -1.357066E+05  1.560467E+05  3.811648E-10  1.694066E-09
        55  25 -3.819135E+05 -2.724723E+05 -1.308772E+05  1.417807E+05 -6.776264E-10  1.355253E-09
        55  26 -4.010392E+05 -2.721286E+05 -1.346336E+05  1.528272E+05 -3.388132E-10 -6.776264E-10
        55  27 -4.198205E+05 -2.727359E+05 -1.385113E+05  1.651187E+05  2.541099E-10  1.016440E-09
        56   1 -2.921429E+05 -3.000137E+05 -1.184313E+05  6.680760E+04  5.929231E-10 -2.879912E-09
        56   2 -3.135785E+05 -2.929488E+05 -1.213054E+05  8.574970E+04  4.235165E-10  2.032879E-09
        56   3 -3.318731E+05 -2.856198E+05 -1.234986E+05  1.046226E+05  7.199780E-10  2.774033E-09
        56   4 -3.098866E+05 -2.934821E+05 -1.206737E+05  8.931375E+04  1.694066E-09  0.000000E+00
        56   5 -3.321414E+05 -2.871822E+05 -1.238647E+05  1.046398E+05  3.388132E-10 -6.776264E-10
        56   6 -3.506214E+05 -2.807264E+05 -1.262696E+05  1.202212E+05  5.082198E-10 -2.286989E-09
        56   7 -3.275042E+05 -2.839762E+05 -1.222961E+05  1.130769E+05  0.000000E+00 -1.355253E-09
        56   8 -3.511828E+05 -2.791934E+05 -1.260752E+05  1.240732E+05  1.016440E-09 -1.355253E-09
        56   9 -3.702328E+05 -2.742933E+05 -1.289052E+05  1.358124E+05  1.016440E-09  0.000000E+00
        56  10 -2.921429E+05 -3.000137E+05 -1.184313E+05  6.680760E+04  1.694066E-10  1.694066E-10
        56  11 -3.135785E+05 -2.929488E+05 -1.213054E+05  8.574970E+04 -4.235165E-11 -1.694066E-10
        56  12 -3.318731E+05 -2.856198E+05 -1.234986E+05  1.046226E+05  6.352747E-11  4.023406E-10
        56  13 -3.098866E+05 -2.934821E+05 -1.206737E+05  8.931375E+04  3.388132E-10  0.000000E+00
        56  14 -3.321414E+05 -2.871822E+05 -1.238647E+05  1.046398E+05 -5.082198E-10 -6.776264E-10
        56  15 -3.506214E+05 -2.807264E+05 -1.262696E+05  1.202212E+05  3.599890E-10 -2.117582E-10
        56  16 -3.275042E+05 -2.839762E+05 -1.222961E+05  1.130769E+05  0.000000E+00 -1.694066E-10
        56  17 -3.511828E+05 -2.791934E+05 -1.260752E+05  1.240732E+05 -2.541099E-10  0.000000E+00
        56  18 -3.702328E+05 -2.742933E+05 -1.289052E+05  1.358124E+05  8.470329E-11  1.694066E-10
        56  19 -2.921429E+05 -3.000137E+05 -1.184313E+05  6.680760E+04  8.470329E-11  1.524659E-09
        56  20 -3.135785E+05 -2.929488E+05 -1.213054E+05  8.574970E+04 -4.235165E-10  6.776264E-10
        56  21 -3.318731E+05 -2.856198E+05 -1.234986E+05  1.046226E+05 -4.235165E-11  1.291725E-09
        56  22 -3.098866E+05 -2.934821E+05 -1.206737E+05  8.931375E+04 -1.016440E-09  0.000000E+00
        56  23 -3.321414E+05 -2.871822E+05 -1.238647E+05  1.046398E+05  3.388132E-10  2.032879E-09
        56  24 -3.506214E+05 -2.807264E+05 -1.262696E+05  1.202212E+05 -5.082198E-10 -1.778769E-09
        56  25 -3.275042E+05 -2.839762E+05 -1.222961E+05  1.130769E+05  0.000000E+00  0.000000E+00
        56  26 -3.511828E+05 -2.791934E+05 -1.260752E+05  1.240732E+05 -2.371692E-09  1.355253E-09
        56  27 -3.702328E+05 -2.742933E+05 -1.289052E+05  1.358124E+05 -1.016440E-09  1.355253E-09
        57   1 -3.199224E+05 -2.338309E+05 -1.107506E+05  1.406723E+05  1.397604E-09  2.541099E-10
        57   2 -3.029596E+05 -2.234778E+05 -1.052875E+05  1.364117E+05  1.058791E-10  2.541099E-10
        57   3 -2.960531E+05 -2.183159E+05 -1.028738E+05  1.382610E+05 -4.446923E-10 -7.940934E-10
        57   4 -2.957998E+05 -2.395803E+05 -1.070760E+05  1.343434E+05 -1.694066E-10  3.388132E-10
        57   5 -2.711192E+05 -2.283718E+05 -9.989820E+04  1.335917E+05 -5.929231E-10  2.371692E-09
        57   6 -2.575993E+05 -2.227791E+05 -9.607568E+04  1.393433E+05 -3.176374E-10 -2.498747E-09
        57   7 -2.542705E+05 -2.408723E+05 -9.902856E+04  1.268276E+05  3.388132E-10 -6.776264E-10
        57   8 -2.214655E+05 -2.287311E+05 -9.003931E+04  1.298200E+05 -5.082198E-10 -6.776264E-10
        57   9 -2.010860E+05 -2.226869E+05 -8.475458E+04  1.397408E+05  8.470329E-11 -3.388132E-10
        57  10 -3.199224E+05 -2.338309E+05 -1.107506E+05  1.406723E+05  0.000000E+00  8.470329E-11
        57  11 -3.029596E+05 -2.234778E+05 -1.052875E+05  1.364117E+05  2.117582E-11  0.000000E+00
        57  12 -2.960531E+05 -2.183159E+05 -1.028738E+05  1.382610E+05  0.000000E+00  1.164670E-10
        57  13 -2.957998E+05 -2.395803E+05 -1.070760E+05  1.343434E+05  0.000000E+00  0.000000E+00
        57  14 -2.711192E+05 -2.283718E+05 -9.989820E+04  1.335917E+05  2.541099E-10 -1.694066E-10
        57  15 -2.575993E+05 -2.227791E+05 -9.607568E+04  1.393433E+05 -1.058791E-10 -1.270549E-10
        57  16 -2.542705E+05 -2.408723E+05 -9.902856E+04  1.268276E+05  0.000000E+00  0.000000E+00
        57  17 -2.214655E+05 -2.287311E+05 -9.003931E+04  1.298200E+05 -6.352747E-11 -1.270549E-10
        57  18 -2.010860E+05 -2.226869E+05 -8.475458E+04  1.397408E+05 -4.235165E-11  4.235165E-11
        57  19 -3.199224E+05 -2.338309E+05 -1.107506E+05  1.406723E+05 -4.235165E-11 -2.541099E-10
        57  20 -3.029596E+05 -2.234778E+05 -1.052875E+05  1.364117E+05 -1.058791E-10  4.235165E-10
        57  21 -2.960531E+05 -2.183159E+05 -1.028738E+05  1.382610E+05  7.835055E-10  1.164670E-10
        57  22 -2.957998E+05 -2.395803E+05 -1.070760E+05  1.343434E+05 -1.694066E-10 -3.388132E-10
        57  23 -2.711192E+05 -2.283718E+05 -9.989820E+04  1.335917E+05 -8.470329E-11 -1.016440E-09
        57  24 -2.575993E+05 -2.227791E+05 -9.607568E+04  1.393433E+05 -2.117582E-11  2.498747E-09
        57  25 -2.542705E+05 -2.408723E+05 -9.902856E+04  1.268276E+05 -3.388132E-10  0.000000E+00
        57  26 -2.214655E+05 -2.287311E+05 -9.003931E+04  1.298200E+05 -1.694066E-10 -6.776264E-10
        57  27 -2.010860E+05 -2.226869E+05 -8.475458E+04  1.397408E+05 -4.235165E-10  3.388132E-10
        58   1 -2.829972E+05 -2.159881E+05 -9.979706E+04  1.384911E+05  4.235165E-11 -1.101143E-09
        58   2 -2.725771E+05 -2.197964E+05 -9.847471E+04  1.450276E+05  3.176374E-11 -6.352747E-10
        58   3 -2.639048E+05 -2.251438E+05 -9.780971E+04  1.526923E+05 -1.958764E-10 -4.976319E-10
        58   4 -2.493299E+05 -2.225242E+05 -9.437082E+04  1.377038E+05  1.016440E-09 -3.388132E-10
        58   5 -2.386958E+05 -2.286327E+05 -9.346570E+04  1.452766E+05  1.694066E-10 -3.388132E-10
        58   6 -2.299141E+05 -2.362198E+05 -9.322678E+04  1.539974E+05  1.376429E-10  2.117582E-10
        58   7 -2.113925E+05 -2.279642E+05 -8.787132E+04  1.357577E+05  6.776264E-10  0.000000E+00
        58   8 -2.006194E+05 -2.365213E+05 -8.742816E+04  1.445236E+05  6.776264E-10 -1.355253E-09
        58   9 -1.918104E+05 -2.464809E+05 -8.765826E+04  1.544496E+05 -2.117582E-11  8.470329E-11
        58  10 -2.829972E+05 -2.159881E+05 -9.979706E+04  1.384911E+05  0.000000E+00 -8.470329E-11
        58  11 -2.725771E+05 -2.197964E+05 -9.847471E+04  1.450276E+05  6.352747E-11  8.470329E-11
        58  12 -2.639048E+05 -2.251438E+05 -9.780971E+04  1.526923E+05  4.235165E-11 -5.293956E-11
        58  13 -2.493299E+05 -2.225242E+05 -9.437082E+04  1.377038E+05  0.000000E+00  1.694066E-10
        58  14 -2.386958E+05 -2.286327E+05 -9.346570E+04  1.452766E+05 -4.235165E-11  5.082198E-10
        58  15 -2.299141E+05 -2.362198E+05 -9.322678E+04  1.539974E+05  1.058791E-11 -1.905824E-10
        58  16 -2.113925E+05 -2.279642E+05 -8.787132E+04  1.357577E+05 -8.470329E-11  0.000000E+00
        58  17 -2.006194E+05 -2.365213E+05 -8.742816E+04  1.445236E+05 -2.117582E-11 -1.270549E-10
        58  18 -1.918104E+05 -2.464809E+05 -8.765826E+04  1.544496E+05  0.000000E+00 -4.235165E-11
        58  19 -2.829972E+05 -2.159881E+05 -9.979706E+04  1.384911E+05 -3.811648E-10  1.778769E-09
        58  20 -2.725771E+05 -2.197964E+05 -9.847471E+04  1.450276E+05  3.070494E-10 -4.235165E-11
        58  21 -2.639048E+05 -2.251438E+05 -9.780971E+04  1.526923E+05  1.958764E-10 -1.799945E-10
        58  22 -2.493299E+05 -2.225242E+05 -9.437082E+04  1.377038E+05 -6.776264E-10  3.388132E-10
        58  23 -2.386958E+05 -2.286327E+05 -9.346570E+04  1.452766E+05  5.082198E-10 -1.016440E-09
        58  24 -2.299141E+05 -2.362198E+05 -9.322678E+04  1.539974E+05  3.176374E-11  4.658681E-10
        58  25 -2.113925E+05 -2.279642E+05 -8.787132E+04  1.357577E+05 -6.776264E-10  0.000000E+00
        58  26 -2.006194E+05 -2.365213E+05 -8.742816E+04  1.445236E+05 -3.388132E-10  6.776264E-10
        58  27 -1.918104E+05 -2.464809E+05 -8.765826E+04  1.544496E+05  2.117582E-11 -8.470329E-11
        59   1 -1.610129E+05 -2.412585E+05 -8.045428E+04  1.337619E+05  1.164670E-09  5.082198E-10
        59   2 -1.803909E+05 -2.506345E+05 -8.620508E+04  1.530078E+05 -9.529121E-11  1.143494E-09
        59   3 -1.836856E+05 -2.569808E+05 -8.813329E+04  1.642938E+05  3.838118E-10  6.246868E-10
        59   4 -1.378122E+05 -2.244590E+05 -7.245424E+04  1.579856E+05 -2.541099E-10  1.355253E-09
        59   5 -1.622312E+05 -2.382041E+05 -8.008706E+04  1.656044E+05 -4.235165E-11  0.000000E+00
        59   6 -1.691937E+05 -2.483945E+05 -8.351763E+04  1.650734E+05  1.694066E-10 -1.058791E-09
        59   7 -1.609057E+05 -2.191761E+05 -7.601635E+04  1.801011E+05  1.694066E-10 -1.355253E-09
        59   8 -1.893379E+05 -2.372890E+05 -8.532538E+04  1.754684E+05  8.470329E-11  6.776264E-10
        59   9 -1.988372E+05 -2.512544E+05 -9.001831E+04  1.625167E+05  1.058791E-10 -1.355253E-09
        59  10 -1.610129E+05 -2.412585E+05 -8.045428E+04  1.337619E+05  0.000000E+00  8.470329E-11
        59  11 -1.803909E+05 -2.506345E+05 -8.620508E+04  1.530078E+05  3.176374E-11  8.470329E-11
        59  12 -1.836856E+05 -2.569808E+05 -8.813329E+04  1.642938E+05  7.940934E-12 -1.270549E-10
        59  13 -1.378122E+05 -2.244590E+05 -7.245424E+04  1.579856E+05  0.000000E+00  0.000000E+00
        59  14 -1.622312E+05 -2.382041E+05 -8.008706E+04  1.656044E+05  0.000000E+00 -8.470329E-11
        59  15 -1.691937E+05 -2.483945E+05 -8.351763E+04  1.650734E+05  3.176374E-11 -1.058791E-10
        59  16 -1.609057E+05 -2.191761E+05 -7.601635E+04  1.801011E+05 -2.117582E-11  8.470329E-11
        59  17 -1.893379E+05 -2.372890E+05 -8.532538E+04  1.754684E+05 -7.411538E-11  4.235165E-11
        59  18 -1.988372E+05 -2.512544E+05 -9.001831E+04  1.625167E+05  1.588187E-11 -1.588187E-10
        59  19 -1.610129E+05 -2.412585E+05 -8.045428E+04  1.337619E+05 -1.482308E-10 -1.185846E-09
        59  20 -1.803909E+05 -2.506345E+05 -8.620508E+04  1.530078E+05 -2.435220E-10  2.117582E-10
        59  21 -1.836856E+05 -2.569808E+05 -8.813329E+04  1.642938E+05 -2.144052E-10  7.305659E-10
        59  22 -1.378122E+05 -2.244590E+05 -7.245424E+04  1.579856E+05 -8.470329E-11  0.000000E+00
        59  23 -1.622312E+05 -2.382041E+05 -8.008706E+04  1.656044E+05  4.235165E-11 -1.355253E-09
        59  24 -1.691937E+05 -2.483945E+05 -8.351763E+04  1.650734E+05 -1.694066E-10  1.058791E-09
        59  25 -1.609057E+05 -2.191761E+05 -7.601635E+04  1.801011E+05 -1.694066E-10  0.000000E+00
        59  26 -1.893379E+05 -2.372890E+05 -8.532538E+04  1.754684E+05 -8.470329E-11  6.776264E-10
        59  27 -1.988372E+05 -2.512544E+05 -9.001831E+04  1.625167E+05 -2.752857E-10  1.355253E-09
        60   1 -2.401649E+05 -2.287494E+05 -9.378285E+04  1.277006E+05 -2.117582E-11 -8.470329E-11
        60   2 -2.032620E+05 -2.225471E+05 -8.516182E+04  1.284627E+05  6.140989E-10  6.352747E-10
        60   3 -1.668669E+05 -2.333349E+05 -8.004036E+04  1.322202E+05  2.382280E-10  2.646978E-10
        60   4 -1.510189E+05 -2.555467E+05 -8.131312E+04  1.377276E+05  8.470329E-11  1.016440E-09
        60   5 -1.621203E+05 -2.317567E+05 -7.877541E+04  1.428914E+05  4.235165E-11  5.082198E-10
        60   6 -1.704200E+05 -2.284238E+05 -7.976878E+04  1.507122E+05  2.117582E-10 -1.270549E-10
        60   7  3.215326E+04 -2.650154E+05 -4.657243E+04  1.614910E+05  0.000000E+00  0.000000E+00
        60   8 -3.832932E+04 -2.235520E+05 -5.237626E+04  1.697886E+05  0.000000E+00 -2.032879E-09
        60   9 -1.013198E+05 -2.065139E+05 -6.156674E+04  1.804578E+05 -1.270549E-10 -1.694066E-10
        60  10 -2.401649E+05 -2.287494E+05 -9.378285E+04  1.277006E+05  0.000000E+00  0.000000E+00
        60  11 -2.032620E+05 -2.225471E+05 -8.516182E+04  1.284627E+05 -2.117582E-11 -4.235165E-11
        60  12 -1.668669E+05 -2.333349E+05 -8.004036E+04  1.322202E+05  6.352747E-11  8.470329E-11
        60  13 -1.510189E+05 -2.555467E+05 -8.131312E+04  1.377276E+05 -8.470329E-11  0.000000E+00
        60  14 -1.621203E+05 -2.317567E+05 -7.877541E+04  1.428914E+05 -4.235165E-11  1.694066E-10
        60  15 -1.704200E+05 -2.284238E+05 -7.976878E+04  1.507122E+05 -2.117582E-11  2.117582E-10
        60  16  3.215326E+04 -2.650154E+05 -4.657243E+04  1.614910E+05  4.235165E-11 -8.470329E-11
        60  17 -3.832932E+04 -2.235520E+05 -5.237626E+04  1.697886E+05 -2.117582E-11 -3.388132E-10
        60  18 -1.013198E+05 -2.065139E+05 -6.156674E+04  1.804578E+05 -2.117582E-11  1.588187E-10
        60  19 -2.401649E+05 -2.287494E+05 -9.378285E+04  1.277006E+05  3.599890E-10 -5.929231E-10
        60  20 -2.032620E+05 -2.225471E+05 -8.516182E+04  1.284627E+05 -6.140989E-10  4.235165E-11
        60  21 -1.668669E+05 -2.333349E+05 -8.004036E+04  1.322202E+05 -2.382280E-10  4.129286E-10
        60  22 -1.510189E+05 -2.555467E+05 -8.131312E+04  1.377276E+05 -8.470329E-11 -3.388132E-10
        60  23 -1.621203E+05 -2.317567E+05 -7.877541E+04  1.428914E+05  2.964615E-10 -5.082198E-10
        60  24 -1.704200E+05 -2.284238E+05 -7.976878E+04  1.507122E+05  1.270549E-10  1.270549E-10
        60  25  3.215326E+04 -2.650154E+05 -4.657243E+04  1.614910E+05  0.000000E+00  0.000000E+00
        60  26 -3.832932E+04 -2.235520E+05 -5.237626E+04  1.697886E+05 -3.388132E-10  1.355253E-09
        60  27 -1.013198E+05 -2.065139E+05 -6.156674E+04  1.804578E+05 -2.117582E-10 -5.082198E-10
        61   1 -2.056165E+05 -2.526254E+05 -9.164838E+04  1.545786E+05  5.823352E-11 -8.470329E-11
        61   2 -2.016769E+05 -2.837156E+05 -9.707850E+04  1.555158E+05 -2.646978E-12  1.694066E-09
        61   3 -1.921350E+05 -2.972498E+05 -9.787695E+04  1.609165E+05  8.205632E-11  2.646978E-10
        61   4 -2.218522E+05 -2.664930E+05 -9.766905E+04  1.369064E+05  2.117582E-10 -2.371692E-09
        61   5 -2.130577E+05 -3.023847E+05 -1.030885E+05  1.393882E+05  2.117582E-11  0.000000E+00
        61   6 -1.976468E+05 -3.170868E+05 -1.029467E+05  1.472092E+05  1.535247E-10  8.470329E-11
        61   7 -2.420327E+05 -2.850755E+05 -1.054217E+05  1.218057E+05  1.270549E-10 -1.355253E-09
        61   8 -2.270099E+05 -3.279670E+05 -1.109954E+05  1.262414E+05  1.694066E-10 -1.355253E-09
        61   9 -2.041145E+05 -3.448850E+05 -1.097999E+05  1.371317E+05  1.588187E-10 -1.270549E-10
        61  10 -2.056165E+05 -2.526254E+05 -9.164838E+04  1.545786E+05  2.117582E-11 -8.470329E-11
        61  11 -2.016769E+05 -2.837156E+05 -9.707850E+04  1.555158E+05 -1.588187E-11 -1.694066E-10
        61  12 -1.921350E+05 -2.972498E+05 -9.787695E+04  1.609165E+05  2.646978E-12 -1.058791E-11
        61  13 -2.218522E+05 -2.664930E+05 -9.766905E+04  1.369064E+05  2.117582E-11 -1.694066E-10
        61  14 -2.130577E+05 -3.023847E+05 -1.030885E+05  1.393882E+05  4.235165E-11  0.000000E+00
        61  15 -1.976468E+05 -3.170868E+05 -1.029467E+05  1.472092E+05 -2.646978E-12 -4.235165E-11
        61  16 -2.420327E+05 -2.850755E+05 -1.054217E+05  1.218057E+05 -1.058791E-11 -8.470329E-11
        61  17 -2.270099E+05 -3.279670E+05 -1.109954E+05  1.262414E+05 -5.293956E-12  2.117582E-10
        61  18 -2.041145E+05 -3.448850E+05 -1.097999E+05  1.371317E+05 -1.191140E-11  2.117582E-11
        61  19 -2.056165E+05 -2.526254E+05 -9.164838E+04  1.545786E+05 -5.823352E-11  7.623297E-10
        61  20 -2.016769E+05 -2.837156E+05 -9.707850E+04  1.555158E+05  2.646978E-12 -3.388132E-10
        61  21 -1.921350E+05 -2.972498E+05 -9.787695E+04  1.609165E+05 -8.205632E-11 -2.646978E-10
        61  22 -2.218522E+05 -2.664930E+05 -9.766905E+04  1.369064E+05 -4.235165E-11  1.694066E-09
        61  23 -2.130577E+05 -3.023847E+05 -1.030885E+05  1.393882E+05 -1.058791E-10  6.776264E-10
        61  24 -1.976468E+05 -3.170868E+05 -1.029467E+05  1.472092E+05 -6.882143E-11 -7.623297E-10
        61  25 -2.420327E+05 -2.850755E+05 -1.054217E+05  1.218057E+05 -2.117582E-10  0.000000E+00
        61  26 -2.270099E+05 -3.279670E+05 -1.109954E+05  1.262414E+05 -2.117582E-10 -6.776264E-10
        61  27 -2.041145E+05 -3.448850E+05 -1.097999E+05  1.371317E+05 -2.011703E-10 -2.117582E-10
        62   1 -1.850524E+05 -3.036302E+05 -9.773652E+04  1.701501E+05  1.455838E-10  7.199780E-10
        62   2 -1.864265E+05 -3.014014E+05 -9.756557E+04  1.949910E+05  2.117582E-10 -4.235165E-10
        62   3 -1.821126E+05 -2.825111E+05 -9.292474E+04  2.251606E+05  1.052174E-10  5.664533E-10
        62   4 -1.887522E+05 -3.278138E+05 -1.033132E+05  1.600482E+05  8.470329E-11 -1.694066E-10
        62   5 -1.785205E+05 -3.267897E+05 -1.010620E+05  1.873503E+05 -1.588187E-11 -2.541099E-10
        62   6 -1.617164E+05 -3.062983E+05 -9.360294E+04  2.211993E+05  3.970467E-11 -3.811648E-10
        62   7 -1.885526E+05 -3.542364E+05 -1.085578E+05  1.505654E+05  1.270549E-10  6.776264E-10
        62   8 -1.634706E+05 -3.544812E+05 -1.035904E+05  1.809942E+05  1.164670E-10 -6.776264E-10
        62   9 -1.308087E+05 -3.316699E+05 -9.249572E+04  2.195021E+05  8.205632E-11  0.000000E+00
        62  10 -1.850524E+05 -3.036302E+05 -9.773652E+04  1.701501E+05 -1.588187E-11  0.000000E+00
        62  11 -1.864265E+05 -3.014014E+05 -9.756557E+04  1.949910E+05 -2.117582E-11 -1.694066E-10
        62  12 -1.821126E+05 -2.825111E+05 -9.292474E+04  2.251606E+05  1.985233E-12  1.588187E-11
        62  13 -1.887522E+05 -3.278138E+05 -1.033132E+05  1.600482E+05  0.000000E+00  0.000000E+00
        62  14 -1.785205E+05 -3.267897E+05 -1.010620E+05  1.873503E+05 -2.117582E-11 -2.541099E-10
        62  15 -1.617164E+05 -3.062983E+05 -9.360294E+04  2.211993E+05  7.940934E-12  0.000000E+00
        62  16 -1.885526E+05 -3.542364E+05 -1.085578E+05  1.505654E+05  5.293956E-12  8.470329E-11
        62  17 -1.634706E+05 -3.544812E+05 -1.035904E+05  1.809942E+05 -1.058791E-11 -8.470329E-11
        62  18 -1.308087E+05 -3.316699E+05 -9.249572E+04  2.195021E+05 -3.970467E-12  4.764560E-11
        62  19 -1.850524E+05 -3.036302E+05 -9.773652E+04  1.701501E+05 -1.455838E-10 -3.811648E-10
        62  20 -1.864265E+05 -3.014014E+05 -9.756557E+04  1.949910E+05 -1.270549E-10  4.235165E-10
        62  21 -1.821126E+05 -2.825111E+05 -9.292474E+04  2.251606E+05 -1.052174E-10 -5.664533E-10
        62  22 -1.887522E+05 -3.278138E+05 -1.033132E+05  1.600482E+05 -8.470329E-11  8.470329E-10
        62  23 -1.785205E+05 -3.267897E+05 -1.010620E+05  1.873503E+05 -2.646978E-11  2.541099E-10
        62  24 -1.617164E+05 -3.062983E+05 -9.360294E+04  2.211993E+05 -1.244080E-10 -2.964615E-10
        62  25 -1.885526E+05 -3.542364E+05 -1.085578E+05  1.505654E+05 -8.470329E-11  0.000000E+00
        62  26 -1.634706E+05 -3.544812E+05 -1.035904E+05  1.809942E+05 -7.411538E-11  3.388132E-10
        62  27 -1.308087E+05 -3.316699E+05 -9.249572E+04  2.195021E+05 -8.205632E-11 -3.388132E-10
        63   1 -1.917742E+05 -3.732625E+05 -1.130073E+05  1.393334E+05  8.470329E-11 -6.352747E-10
        63   2 -1.585395E+05 -3.698846E+05 -1.056848E+05  1.644841E+05  8.470329E-11  9.317362E-10
        63   3 -1.214336E+05 -3.559843E+05 -9.548358E+04  1.956893E+05  7.411538E-11  1.058791E-11
        63   4 -2.113873E+05 -3.899532E+05 -1.202681E+05  8.627047E+04  0.000000E+00  3.388132E-10
        63   5 -1.645246E+05 -3.875923E+05 -1.104234E+05  1.049115E+05  4.235165E-11  8.470329E-11
        63   6 -1.138027E+05 -3.740607E+05 -9.757270E+04  1.312830E+05  7.411538E-11  2.752857E-10
        63   7 -2.416300E+05 -4.118085E+05 -1.306877E+05  3.724323E+04  2.541099E-10  0.000000E+00
        63   8 -1.734391E+05 -4.085219E+05 -1.163922E+05  4.761915E+04 -3.388132E-10  3.388132E-10
        63   9 -1.018616E+05 -3.932496E+05 -9.902225E+04  6.823299E+04  2.117582E-11  0.000000E+00
        63  10 -1.917742E+05 -3.732625E+05 -1.130073E+05  1.393334E+05  2.646978E-12 -4.235165E-11
        63  11 -1.585395E+05 -3.698846E+05 -1.056848E+05  1.644841E+05 -2.646978E-12  0.000000E+00
        63  12 -1.214336E+05 -3.559843E+05 -9.548358E+04  1.956893E+05  1.985233E-12  4.764560E-11
        63  13 -2.113873E+05 -3.899532E+05 -1.202681E+05  8.627047E+04  1.058791E-11 -1.694066E-10
        63  14 -1.645246E+05 -3.875923E+05 -1.104234E+05  1.049115E+05 -1.588187E-11 -1.694066E-10
        63  15 -1.138027E+05 -3.740607E+05 -9.757270E+04  1.312830E+05 -6.617445E-12  1.270549E-10
        63  16 -2.416300E+05 -4.118085E+05 -1.306877E+05  3.724323E+04  0.000000E+00 -4.235165E-11
        63  17 -1.734391E+05 -4.085219E+05 -1.163922E+05  4.761915E+04 -5.293956E-12 -4.235165E-11
        63  18 -1.018616E+05 -3.932496E+05 -9.902225E+04  6.823299E+04 -3.143286E-11  4.235165E-11
        63  19 -1.917742E+05 -3.732625E+05 -1.130073E+05  1.393334E+05 -9.529121E-11  2.964615E-10
        63  20 -1.585395E+05 -3.698846E+05 -1.056848E+05  1.644841E+05 -6.352747E-11 -5.929231E-10
        63  21 -1.214336E+05 -3.559843E+05 -9.548358E+04  1.956893E+05 -8.470329E-11 -6.882143E-10
        63  22 -2.113873E+05 -3.899532E+05 -1.202681E+05  8.627047E+04 -8.470329E-11 -3.388132E-10
        63  23 -1.645246E+05 -3.875923E+05 -1.104234E+05  1.049115E+05  4.235165E-11 -8.470329E-11
        63  24 -1.138027E+05 -3.740607E+05 -9.757270E+04  1.312830E+05 -7.411538E-11 -6.140989E-10
        63  25 -2.416300E+05 -4.118085E+05 -1.306877E+05  3.724323E+04 -1.694066E-10 -3.388132E-10
        63  26 -1.734391E+05 -4.085219E+05 -1.163922E+05  4.761915E+04  0.000000E+00  0.000000E+00
        63  27 -1.018616E+05 -3.932496E+05 -9.902225E+04  6.823299E+04 -2.117582E-11  0.000000E+00
        64   1 -2.625206E+05 -3.214547E+05 -1.167951E+05  1.156424E+05  1.005852E-10 -4.235165E-10
        64   2 -2.400589E+05 -3.512582E+05 -1.182634E+05  1.194624E+05  1.323489E-10  3.388132E-10
        64   3 -2.128707E+05 -3.659922E+05 -1.157726E+05  1.281888E+05  1.376429E-10 -9.052665E-10
        64   4 -3.039684E+05 -3.432389E+05 -1.294415E+05  6.659950E+04  1.270549E-10  1.694066E-10
        64   5 -2.735916E+05 -3.710846E+05 -1.289352E+05  6.838624E+04  6.352747E-11  3.388132E-10
        64   6 -2.380397E+05 -3.814172E+05 -1.238914E+05  7.614451E+04  1.323489E-10 -3.388132E-10
        64   7 -3.594711E+05 -3.870873E+05 -1.493117E+05  2.802212E+04  2.541099E-10 -3.388132E-10
        64   8 -3.167040E+05 -4.120379E+05 -1.457484E+05  2.688482E+04  4.235165E-11  1.694066E-10
        64   9 -2.683889E+05 -4.159434E+05 -1.368665E+05  3.334185E+04 -9.529121E-11 -8.470329E-11
        64  10 -2.625206E+05 -3.214547E+05 -1.167951E+05  1.156424E+05 -2.646978E-12 -8.470329E-11
        64  11 -2.400589E+05 -3.512582E+05 -1.182634E+05  1.194624E+05  2.977850E-12 -8.470329E-11
        64  12 -2.128707E+05 -3.659922E+05 -1.157726E+05  1.281888E+05 -1.902515E-12  1.058791E-11
        64  13 -3.039684E+05 -3.432389E+05 -1.294415E+05  6.659950E+04 -3.970467E-12  0.000000E+00
        64  14 -2.735916E+05 -3.710846E+05 -1.289352E+05  6.838624E+04  0.000000E+00  0.000000E+00
        64  15 -2.380397E+05 -3.814172E+05 -1.238914E+05  7.614451E+04 -2.150670E-12  1.482308E-10
        64  16 -3.594711E+05 -3.870873E+05 -1.493117E+05  2.802212E+04 -5.293956E-12  0.000000E+00
        64  17 -3.167040E+05 -4.120379E+05 -1.457484E+05  2.688482E+04 -1.025704E-11  0.000000E+00
        64  18 -2.683889E+05 -4.159434E+05 -1.368665E+05  3.334185E+04  6.121137E-12  6.352747E-11
        64  19 -2.625206E+05 -3.214547E+05 -1.167951E+05  1.156424E+05 -1.005852E-10 -2.541099E-10
        64  20 -2.400589E+05 -3.512582E+05 -1.182634E+05  1.194624E+05 -1.323489E-10 -3.388132E-10
        64  21 -2.128707E+05 -3.659922E+05 -1.157726E+05  1.281888E+05 -1.164670E-10 -1.111731E-10
        64  22 -3.039684E+05 -3.432389E+05 -1.294415E+05  6.659950E+04 -1.270549E-10 -1.694066E-10
        64  23 -2.735916E+05 -3.710846E+05 -1.289352E+05  6.838624E+04  2.117582E-11  3.388132E-10
        64  24 -2.380397E+05 -3.814172E+05 -1.238914E+05  7.614451E+04 -8.999725E-11  1.355253E-09
        64  25 -3.594711E+05 -3.870873E+05 -1.493117E+05  2.802212E+04 -1.694066E-10  3.388132E-10
        64  26 -3.167040E+05 -4.120379E+05 -1.457484E+05  2.688482E+04 -4.235165E-11  1.694066E-10
        64  27 -2.683889E+05 -4.159434E+05 -1.368665E+05  3.334185E+04 -7.411538E-11  4.235165E-10
        65   1 -2.484052E+04 -3.812703E+05 -8.122216E+04  6.879972E+04  3.176374E-11 -3.176374E-10
        65   2 -9.429353E+04 -3.764685E+05 -9.415240E+04  1.710780E+05  6.882143E-11 -2.646978E-10
        65   3 -1.013680E+05 -3.287567E+05 -8.602493E+04  2.331312E+05  7.279189E-11 -1.138201E-10
        65   4  6.201304E+04 -3.870765E+05 -6.501269E+04  1.277199E+05  4.235165E-11 -1.694066E-10
        65   5 -7.138260E+04 -3.239470E+05 -7.906591E+04  2.192983E+05  6.352747E-11  4.235165E-11
        65   6 -1.011210E+05 -2.289396E+05 -6.601212E+04  2.913543E+05  1.058791E-11  2.117582E-10
        65   7  1.665593E+05 -3.396197E+05 -3.461208E+04  2.011441E+05 -2.541099E-10 -5.082198E-10
        65   8 -3.845194E+04 -2.524161E+05 -5.817361E+04  2.749900E+05  4.235165E-11  8.470329E-11
        65   9 -1.066025E+05 -1.323444E+05 -4.778939E+04  3.468313E+05 -3.176374E-11 -4.446923E-10
        65  10 -2.484052E+04 -3.812703E+05 -8.122216E+04  6.879972E+04 -2.117582E-11 -4.235165E-11
        65  11 -9.429353E+04 -3.764685E+05 -9.415240E+04  1.710780E+05 -5.293956E-12 -6.352747E-11
        65  12 -1.013680E+05 -3.287567E+05 -8.602493E+04  2.331312E+05 -3.970467E-12  3.441071E-11
        65  13  6.201304E+04 -3.870765E+05 -6.501269E+04  1.277199E+05  0.000000E+00 -8.470329E-11
        65  14 -7.138260E+04 -3.239470E+05 -7.906591E+04  2.192983E+05  2.117582E-11 -1.270549E-10
        65  15 -1.011210E+05 -2.289396E+05 -6.601212E+04  2.913543E+05 -7.940934E-12 -5.293956E-11
        65  16  1.665593E+05 -3.396197E+05 -3.461208E+04  2.011441E+05  1.058791E-11  2.117582E-11
        65  17 -3.845194E+04 -2.524161E+05 -5.817361E+04  2.749900E+05  0.000000E+00  6.352747E-11
        65  18 -1.066025E+05 -1.323444E+05 -4.778939E+04  3.468313E+05  3.970467E-12 -2.646978E-11
        65  19 -2.484052E+04 -3.812703E+05 -8.122216E+04  6.879972E+04  5.293956E-11 -2.117582E-11
        65  20 -9.429353E+04 -3.764685E+05 -9.415240E+04  1.710780E+05 -1.111731E-10  2.646978E-10
        65  21 -1.013680E+05 -3.287567E+05 -8.602493E+04  2.331312E+05 -7.279189E-11  1.138201E-10
        65  22  6.201304E+04 -3.870765E+05 -6.501269E+04  1.277199E+05 -1.270549E-10  0.000000E+00
        65  23 -7.138260E+04 -3.239470E+05 -7.906591E+04  2.192983E+05  2.117582E-11 -4.235165E-11
        65  24 -1.011210E+05 -2.289396E+05 -6.601212E+04  2.913543E+05 -3.176374E-11  1.270549E-10
        65  25  1.665593E+05 -3.396197E+05 -3.461208E+04  2.011441E+05  1.694066E-10  3.388132E-10
        65  26 -3.845194E+04 -2.524161E+05 -5.817361E+04  2.749900E+05 -8.470329E-11  8.470329E-11
        65  27 -1.066025E+05 -1.323444E+05 -4.778939E+04  3.468313E+05  3.176374E-11  2.752857E-10
        66   1 -1.119366E+05 -2.951246E+05 -8.141224E+04  2.514230E+05  2.117582E-11  1.058791E-11
        66   2 -1.788130E+05 -2.776581E+05 -9.129422E+04  2.465125E+05 -1.191140E-11 -2.488159E-10
        66   3 -2.071609E+05 -2.576419E+05 -9.296056E+04  2.453372E+05  1.925676E-10  2.620508E-10
        66   4 -1.586394E+05 -2.244310E+05 -7.661408E+04  2.829308E+05  5.293956E-11  4.235165E-10
        66   5 -2.094665E+05 -2.127470E+05 -8.444269E+04  2.660040E+05  5.293956E-11 -2.117582E-10
        66   6 -2.307296E+05 -1.978565E+05 -8.571722E+04  2.549903E+05  6.749794E-11 -2.064643E-10
        66   7 -2.605415E+05 -1.853570E+05 -8.917969E+04  2.896515E+05  4.235165E-11 -2.541099E-10
        66   8 -2.909854E+05 -1.752287E+05 -9.324282E+04  2.646776E+05  1.058791E-11  4.235165E-11
        66   9 -3.000683E+05 -1.622072E+05 -9.245509E+04  2.465993E+05  5.029258E-11 -9.529121E-11
        66  10 -1.119366E+05 -2.951246E+05 -8.141224E+04  2.514230E+05  0.000000E+00 -6.352747E-11
        66  11 -1.788130E+05 -2.776581E+05 -9.129422E+04  2.465125E+05 -5.293956E-12  3.176374E-11
        66  12 -2.071609E+05 -2.576419E+05 -9.296056E+04  2.453372E+05  1.522012E-11 -5.293956E-12
        66  13 -1.586394E+05 -2.244310E+05 -7.661408E+04  2.829308E+05  0.000000E+00  8.470329E-11
        66  14 -2.094665E+05 -2.127470E+05 -8.444269E+04  2.660040E+05  4.235165E-11 -4.235165E-11
        66  15 -2.307296E+05 -1.978565E+05 -8.571722E+04  2.549903E+05 -3.705769E-11  6.352747E-11
        66  16 -2.605415E+05 -1.853570E+05 -8.917969E+04  2.896515E+05 -5.293956E-12  0.000000E+00
        66  17 -2.909854E+05 -1.752287E+05 -9.324282E+04  2.646776E+05  0.000000E+00  0.000000E+00
        66  18 -3.000683E+05 -1.622072E+05 -9.245509E+04  2.465993E+05  5.293956E-12  2.646978E-11
        66  19 -1.119366E+05 -2.951246E+05 -8.141224E+04  2.514230E+05 -2.117582E-11 -3.494011E-10
        66  20 -1.788130E+05 -2.776581E+05 -9.129422E+04  2.465125E+05 -1.151435E-10  5.876291E-10
        66  21 -2.071609E+05 -2.576419E+05 -9.296056E+04  2.453372E+05 -2.316106E-11  7.676236E-11
        66  22 -1.586394E+05 -2.244310E+05 -7.661408E+04  2.829308E+05 -9.529121E-11 -2.541099E-10
        66  23 -2.094665E+05 -2.127470E+05 -8.444269E+04  2.660040E+05 -1.058791E-11  2.117582E-10
        66  24 -2.307296E+05 -1.978565E+05 -8.571722E+04  2.549903E+05 -6.749794E-11 -3.017555E-10
        66  25 -2.605415E+05 -1.853570E+05 -8.917969E+04  2.896515E+05 -4.235165E-11 -8.470329E-11
        66  26 -2.909854E+05 -1.752287E+05 -9.324282E+04  2.646776E+05 -1.058791E-11 -2.117582E-10
        66  27 -3.000683E+05 -1.622072E+05 -9.245509E+04  2.465993E+05  3.441071E-11  9.529121E-11
        67   1 -2.255567E+05 -1.447719E+05 -7.406572E+04  2.957990E+05 -6.352747E-11  7.411538E-11
        67   2 -2.937164E+05 -1.465142E+05 -8.804612E+04  2.623206E+05  0.000000E+00  2.964615E-10
        67   3 -3.364642E+05 -1.443711E+05 -9.616707E+04  2.390205E+05  4.235165E-11  1.694066E-10
        67   4 -2.738908E+05 -1.069070E+05 -7.615956E+04  2.802900E+05  3.705769E-11  1.164670E-10
        67   5 -3.325808E+05 -1.149000E+05 -8.949617E+04  2.504636E+05 -4.235165E-11 -4.235165E-11
        67   6 -3.706458E+05 -1.186752E+05 -9.786419E+04  2.289648E+05 -2.117582E-11 -4.235165E-11
        67   7 -3.435313E+05 -9.243480E+04 -8.719323E+04  2.511404E+05  9.926167E-12 -1.720536E-11
        67   8 -3.918806E+05 -1.033437E+05 -9.904487E+04  2.258495E+05  1.058791E-11 -5.293956E-12
        67   9 -4.238272E+05 -1.102946E+05 -1.068244E+05  2.071645E+05  0.000000E+00 -1.058791E-11
        67  10 -2.255567E+05 -1.447719E+05 -7.406572E+04  2.957990E+05 -2.646978E-12 -5.293956E-12
        67  11 -2.937164E+05 -1.465142E+05 -8.804612E+04  2.623206E+05  1.323489E-12 -5.293956E-12
        67  12 -3.364642E+05 -1.443711E+05 -9.616707E+04  2.390205E+05 -8.271806E-12  2.646978E-12
        67  13 -2.738908E+05 -1.069070E+05 -7.615956E+04  2.802900E+05  0.000000E+00  0.000000E+00
        67  14 -3.325808E+05 -1.149000E+05 -8.949617E+04  2.504636E+05  5.293956E-12  0.000000E+00
        67  15 -3.706458E+05 -1.186752E+05 -9.786419E+04  2.289648E+05 -6.617445E-13  5.293956E-12
        67  16 -3.435313E+05 -9.243480E+04 -8.719323E+04  2.511404E+05  2.646978E-12  5.293956E-12
        67  17 -3.918806E+05 -1.033437E+05 -9.904487E+04  2.258495E+05  1.323489E-12 -5.293956E-12
        67  18 -4.238272E+05 -1.102946E+05 -1.068244E+05  2.071645E+05  1.654361E-12  4.632211E-12
        67  19 -2.255567E+05 -1.447719E+05 -7.406572E+04  2.957990E+05 -6.352747E-11 -1.588187E-10
        67  20 -2.937164E+05 -1.465142E+05 -8.804612E+04  2.623206E+05  0.000000E+00  1.270549E-10
        67  21 -3.364642E+05 -1.443711E+05 -9.616707E+04  2.390205E+05 -8.470329E-11  0.000000E+00
        67  22 -2.738908E+05 -1.069070E+05 -7.615956E+04  2.802900E+05  5.293956E-12 -3.176374E-11
        67  23 -3.325808E+05 -1.149000E+05 -8.949617E+04  2.504636E+05  0.000000E+00  4.235165E-11
        67  24 -3.706458E+05 -1.186752E+05 -9.786419E+04  2.289648E+05 -2.117582E-11  4.235165E-11
        67  25 -3.435313E+05 -9.243480E+04 -8.719323E+04  2.511404E+05  6.617445E-13  6.617445E-12
        67  26 -3.918806E+05 -1.033437E+05 -9.904487E+04  2.258495E+05  5.293956E-12 -5.293956E-12
        67  27 -4.238272E+05 -1.102946E+05 -1.068244E+05  2.071645E+05 -5.293956E-12  2.117582E-11
        68   1  3.523747E+05 -2.391874E+05  2.263747E+04  2.879268E+05  1.164670E-10  2.223461E-10
        68   2 -1.892445E+05 -2.323118E+05 -8.431128E+04  2.674123E+05  7.411538E-11 -1.270549E-10
        68   3 -1.488137E+05 -1.055621E+05 -5.087517E+04  3.420084E+05  6.352747E-11 -8.470329E-11
        68   4  4.014160E+05 -7.181821E+04  6.591956E+04  3.989955E+05  3.838118E-11 -5.293956E-11
        68   5 -1.639113E+05 -1.424763E+05 -6.127752E+04  3.058496E+05  1.058791E-11  4.235165E-11
        68   6 -2.396837E+05 -1.015437E+05 -6.824549E+04  3.044217E+05  1.058791E-11  4.235165E-11
        68   7  4.366081E+05  7.245591E+04  1.018128E+05  4.875821E+05  1.224227E-11 -1.191140E-11
        68   8 -1.515241E+05 -6.026818E+04 -4.235846E+04  3.358525E+05  1.323489E-12  4.235165E-11
        68   9 -3.255061E+05 -9.132705E+04 -8.336662E+04  2.701858E+05 -2.646978E-12  0.000000E+00
        68  10  3.523747E+05 -2.391874E+05  2.263747E+04  2.879268E+05  0.000000E+00  2.117582E-11
        68  11 -1.892445E+05 -2.323118E+05 -8.431128E+04  2.674123E+05  2.646978E-12  5.293956E-12
        68  12 -1.488137E+05 -1.055621E+05 -5.087517E+04  3.420084E+05 -5.293956E-12 -3.970467E-12
        68  13  4.014160E+05 -7.181821E+04  6.591956E+04  3.989955E+05  0.000000E+00  0.000000E+00
        68  14 -1.639113E+05 -1.424763E+05 -6.127752E+04  3.058496E+05  0.000000E+00 -4.235165E-11
        68  15 -2.396837E+05 -1.015437E+05 -6.824549E+04  3.044217E+05  0.000000E+00 -2.646978E-12
        68  16  4.366081E+05  7.245591E+04  1.018128E+05  4.875821E+05  0.000000E+00  0.000000E+00
        68  17 -1.515241E+05 -6.026818E+04 -4.235846E+04  3.358525E+05  2.646978E-12 -1.588187E-11
        68  18 -3.255061E+05 -9.132705E+04 -8.336662E+04  2.701858E+05  6.617445E-13  2.646978E-12
        68  19  3.523747E+05 -2.391874E+05  2.263747E+04  2.879268E+05 -3.176374E-11 -2.223461E-10
        68  20 -1.892445E+05 -2.323118E+05 -8.431128E+04  2.674123E+05 -5.293956E-11  1.270549E-10
        68  21 -1.488137E+05 -1.055621E+05 -5.087517E+04  3.420084E+05 -4.235165E-11  8.470329E-11
        68  22  4.014160E+05 -7.181821E+04  6.591956E+04  3.989955E+05  4.632211E-11 -3.176374E-11
        68  23 -1.639113E+05 -1.424763E+05 -6.127752E+04  3.058496E+05  1.058791E-11 -4.235165E-11
        68  24 -2.396837E+05 -1.015437E+05 -6.824549E+04  3.044217E+05 -1.058791E-11  1.270549E-10
        68  25  4.366081E+05  7.245591E+04  1.018128E+05  4.875821E+05 -1.654361E-12  1.191140E-11
        68  26 -1.515241E+05 -6.026818E+04 -4.235846E+04  3.358525E+05 -1.323489E-12  0.000000E+00
        68  27 -3.255061E+05 -9.132705E+04 -8.336662E+04  2.701858E+05  2.646978E-12 -2.117582E-11
        69   1 -1.453326E+05 -1.125814E+05 -5.158281E+04 -2.627656E+03  2.710505E-09 -5.082198E-09
        69   2 -1.358848E+05 -1.076471E+05 -4.870638E+04 -2.499473E+03  2.625802E-09 -2.032879E-09
        69   3 -1.272239E+05 -1.044039E+05 -4.632556E+04 -1.637996E+03  1.037615E-09  6.098637E-09
        69   4 -1.570285E+05 -1.130807E+05 -5.402184E+04 -3.364559E+02  4.065758E-09  8.131516E-09
        69   5 -1.456258E+05 -1.090637E+05 -5.093791E+04 -9.440643E+02 -1.694066E-09  0.000000E+00
        69   6 -1.346882E+05 -1.064979E+05 -4.823723E+04 -1.206548E+03  2.541099E-09 -2.371692E-09
        69   7 -1.665195E+05 -1.131426E+05 -5.593241E+04  2.386606E+03  0.000000E+00  2.710505E-09
        69   8 -1.533834E+05 -1.097659E+05 -5.262987E+04  1.168215E+03  0.000000E+00 -2.710505E-09
        69   9 -1.405305E+05 -1.075415E+05 -4.961439E+04  2.300810E+01 -2.032879E-09 -5.421011E-09
        69  10 -1.453326E+05 -1.125814E+05 -5.158281E+04 -2.627656E+03  0.000000E+00  0.000000E+00
        69  11 -1.358848E+05 -1.076471E+05 -4.870638E+04 -2.499473E+03 -5.082198E-10 -1.016440E-09
        69  12 -1.272239E+05 -1.044039E+05 -4.632556E+04 -1.637996E+03 -6.352747E-11  1.185846E-09
        69  13 -1.570285E+05 -1.130807E+05 -5.402184E+04 -3.364559E+02  3.388132E-10  0.000000E+00
        69  14 -1.456258E+05 -1.090637E+05 -5.093791E+04 -9.440643E+02  0.000000E+00 -2.032879E-09
        69  15 -1.346882E+05 -1.064979E+05 -4.823723E+04 -1.206548E+03  3.388132E-10  1.016440E-09
        69  16 -1.665195E+05 -1.131426E+05 -5.593241E+04  2.386606E+03  0.000000E+00  6.776264E-10
        69  17 -1.533834E+05 -1.097659E+05 -5.262987E+04  1.168215E+03 -3.388132E-10 -1.016440E-09
        69  18 -1.405305E+05 -1.075415E+05 -4.961439E+04  2.300810E+01  2.117582E-11  1.101143E-09
        69  19 -1.453326E+05 -1.125814E+05 -5.158281E+04 -2.627656E+03 -4.065758E-09 -3.388132E-10
        69  20 -1.358848E+05 -1.076471E+05 -4.870638E+04 -2.499473E+03  8.470329E-11  2.032879E-09
        69  21 -1.272239E+05 -1.044039E+05 -4.632556E+04 -1.637996E+03 -3.748121E-09  4.743385E-09
        69  22 -1.570285E+05 -1.130807E+05 -5.402184E+04 -3.364559E+02 -1.355253E-09 -8.131516E-09
        69  23 -1.456258E+05 -1.090637E+05 -5.093791E+04 -9.440643E+02 -1.016440E-09 -5.421011E-09
        69  24 -1.346882E+05 -1.064979E+05 -4.823723E+04 -1.206548E+03 -2.541099E-09 -3.049319E-09
        69  25 -1.665195E+05 -1.131426E+05 -5.593241E+04  2.386606E+03  0.000000E+00 -2.710505E-09
        69  26 -1.533834E+05 -1.097659E+05 -5.262987E+04  1.168215E+03  0.000000E+00  2.710505E-09
        69  27 -1.405305E+05 -1.075415E+05 -4.961439E+04  2.300810E+01 -2.032879E-09  5.421011E-09
        70   1 -1.215123E+05 -1.039718E+05 -4.509681E+04 -1.541980E+03 -1.016440E-09  3.388132E-09
        70   2 -1.123028E+05 -1.030057E+05 -4.306170E+04 -1.166125E+03  9.317362E-10 -5.421011E-09
        70   3 -1.042462E+05 -1.038072E+05 -4.161067E+04  8.068898E+01  8.470329E-11 -4.912791E-09
        70   4 -1.278014E+05 -1.053391E+05 -4.662811E+04 -8.889903E+02  1.355253E-09  2.710505E-09
        70   5 -1.162421E+05 -1.040608E+05 -4.406057E+04 -7.201579E+02  2.032879E-09 -2.710505E-09
        70   6 -1.048602E+05 -1.039270E+05 -4.175745E+04 -4.117763E+02 -1.609363E-09  1.355253E-09
        70   7 -1.325413E+05 -1.062146E+05 -4.775119E+04  1.046317E+02  4.065758E-09  5.421011E-09
        70   8 -1.192721E+05 -1.047297E+05 -4.480035E+04  3.923953E+01  0.000000E+00 -2.710505E-09
        70   9 -1.059689E+05 -1.040576E+05 -4.200531E+04 -3.745615E+02 -2.202286E-09 -2.710505E-09
        70  10 -1.215123E+05 -1.039718E+05 -4.509681E+04 -1.541980E+03 -1.694066E-10 -6.776264E-10
        70  11 -1.123028E+05 -1.030057E+05 -4.306170E+04 -1.166125E+03  3.388132E-10 -3.388132E-10
        70  12 -1.042462E+05 -1.038072E+05 -4.161067E+04  8.068898E+01 -2.117582E-11 -5.929231E-10
        70  13 -1.278014E+05 -1.053391E+05 -4.662811E+04 -8.889903E+02  3.388132E-10 -2.710505E-09
        70  14 -1.162421E+05 -1.040608E+05 -4.406057E+04 -7.201579E+02  3.388132E-10  2.710505E-09
        70  15 -1.048602E+05 -1.039270E+05 -4.175745E+04 -4.117763E+02  3.811648E-10  1.016440E-09
        70  16 -1.325413E+05 -1.062146E+05 -4.775119E+04  1.046317E+02 -1.694066E-10 -6.776264E-10
        70  17 -1.192721E+05 -1.047297E+05 -4.480035E+04  3.923953E+01  8.470329E-11 -3.388132E-10
        70  18 -1.059689E+05 -1.040576E+05 -4.200531E+04 -3.745615E+02  4.235165E-11 -1.101143E-09
        70  19 -1.215123E+05 -1.039718E+05 -4.509681E+04 -1.541980E+03 -3.388132E-10 -3.388132E-09
        70  20 -1.123028E+05 -1.030057E+05 -4.306170E+04 -1.166125E+03 -9.317362E-10  5.421011E-09
        70  21 -1.042462E+05 -1.038072E+05 -4.161067E+04  8.068898E+01 -8.470329E-11  1.033380E-08
        70  22 -1.278014E+05 -1.053391E+05 -4.662811E+04 -8.889903E+02 -1.355253E-09 -2.710505E-09
        70  23 -1.162421E+05 -1.040608E+05 -4.406057E+04 -7.201579E+02  6.776264E-10 -2.710505E-09
        70  24 -1.048602E+05 -1.039270E+05 -4.175745E+04 -4.117763E+02  2.541099E-10 -1.355253E-09
        70  25 -1.325413E+05 -1.062146E+05 -4.775119E+04  1.046317E+02 -1.355253E-09 -5.421011E-09
        70  26 -1.192721E+05 -1.047297E+05 -4.480035E+04  3.923953E+01  0.000000E+00  2.710505E-09
        70  27 -1.059689E+05 -1.040576E+05 -4.200531E+04 -3.745615E+02  8.470329E-10  8.131516E-09
        71   1 -1.355165E+05 -1.063574E+05 -4.837478E+04  1.264709E+03  2.541099E-09 -3.049319E-09
        71   2 -1.206441E+05 -1.045507E+05 -4.503897E+04  4.702834E+02  2.964615E-09 -9.147956E-09
        71   3 -1.063081E+05 -1.044012E+05 -4.214186E+04  1.205758E+02  1.037615E-09 -4.362220E-09
        71   4 -1.408843E+05 -1.051711E+05 -4.921109E+04  4.263960E+03  0.000000E+00  2.710505E-09
        71   5 -1.236008E+05 -1.034967E+05 -4.541950E+04  2.620911E+03 -3.726945E-09  1.355253E-09
        71   6 -1.068013E+05 -1.032979E+05 -4.201984E+04  5.307951E+02 -1.355253E-09 -5.082198E-09
        71   7 -1.453691E+05 -1.037007E+05 -4.981397E+04  7.461183E+03 -1.355253E-09  0.000000E+00
        71   8 -1.268287E+05 -1.024503E+05 -4.585581E+04  4.821481E+03  0.000000E+00 -2.710505E-09
        71   9 -1.091375E+05 -1.026247E+05 -4.235245E+04  1.028250E+03 -1.355253E-09 -4.743385E-09
        71  10 -1.355165E+05 -1.063574E+05 -4.837478E+04  1.264709E+03  0.000000E+00  0.000000E+00
        71  11 -1.206441E+05 -1.045507E+05 -4.503897E+04  4.702834E+02  1.694066E-10  1.694066E-09
        71  12 -1.063081E+05 -1.044012E+05 -4.214186E+04  1.205758E+02 -1.058791E-10 -2.541099E-10
        71  13 -1.408843E+05 -1.051711E+05 -4.921109E+04  4.263960E+03  0.000000E+00  0.000000E+00
        71  14 -1.236008E+05 -1.034967E+05 -4.541950E+04  2.620911E+03  6.776264E-10  2.032879E-09
        71  15 -1.068013E+05 -1.032979E+05 -4.201984E+04  5.307951E+02  2.541099E-10 -1.694066E-10
        71  16 -1.453691E+05 -1.037007E+05 -4.981397E+04  7.461183E+03  3.388132E-10  6.776264E-10
        71  17 -1.268287E+05 -1.024503E+05 -4.585581E+04  4.821481E+03  2.541099E-10 -3.388132E-10
        71  18 -1.091375E+05 -1.026247E+05 -4.235245E+04  1.028250E+03  1.058791E-10 -1.185846E-09
        71  19 -1.355165E+05 -1.063574E+05 -4.837478E+04  1.264709E+03 -3.896352E-09  3.049319E-09
        71  20 -1.206441E+05 -1.045507E+05 -4.503897E+04  4.702834E+02 -2.541099E-10 -1.694066E-09
        71  21 -1.063081E+05 -1.044012E+05 -4.214186E+04  1.205758E+02  1.672890E-09  4.362220E-09
        71  22 -1.408843E+05 -1.051711E+05 -4.921109E+04  4.263960E+03 -1.355253E-09  2.710505E-09
        71  23 -1.236008E+05 -1.034967E+05 -4.541950E+04  2.620911E+03  1.016440E-09  4.065758E-09
        71  24 -1.068013E+05 -1.032979E+05 -4.201984E+04  5.307951E+02  0.000000E+00  1.592422E-08
        71  25 -1.453691E+05 -1.037007E+05 -4.981397E+04  7.461183E+03  0.000000E+00  0.000000E+00
        71  26 -1.268287E+05 -1.024503E+05 -4.585581E+04  4.821481E+03  2.710505E-09 -2.710505E-09
        71  27 -1.091375E+05 -1.026247E+05 -4.235245E+04  1.028250E+03 -1.355253E-09 -6.776264E-10
        72   1 -1.718923E+05 -1.120059E+05 -5.677963E+04  6.195569E+03 -3.388132E-10 -4.743385E-09
        72   2 -1.575999E+05 -1.082922E+05 -5.317843E+04  3.978722E+03  2.117582E-09 -4.912791E-09
        72   3 -1.440025E+05 -1.073815E+05 -5.027681E+04  1.643160E+03 -8.046813E-10 -7.157428E-09
        72   4 -1.799020E+05 -1.113040E+05 -5.824120E+04  1.284647E+04  6.776264E-10  4.065758E-09
        72   5 -1.644277E+05 -1.079771E+05 -5.448097E+04  9.253020E+03 -2.371692E-09 -2.710505E-09
        72   6 -1.496552E+05 -1.066283E+05 -5.125669E+04  5.227670E+03 -5.929231E-10 -3.726945E-09
        72   7 -1.854899E+05 -1.095608E+05 -5.901015E+04  2.030942E+04 -1.355253E-09 -2.710505E-09
        72   8 -1.692298E+05 -1.063186E+05 -5.510967E+04  1.550477E+04 -2.032879E-09 -1.490778E-08
        72   9 -1.537544E+05 -1.042325E+05 -5.159738E+04  1.007160E+04  3.049319E-09  3.388132E-09
        72  10 -1.718923E+05 -1.120059E+05 -5.677963E+04  6.195569E+03 -1.694066E-10  6.776264E-10
        72  11 -1.575999E+05 -1.082922E+05 -5.317843E+04  3.978722E+03  8.470329E-11  6.776264E-10
        72  12 -1.440025E+05 -1.073815E+05 -5.027681E+04  1.643160E+03 -4.235165E-11  9.317362E-10
        72  13 -1.799020E+05 -1.113040E+05 -5.824120E+04  1.284647E+04  0.000000E+00 -1.355253E-09
        72  14 -1.644277E+05 -1.079771E+05 -5.448097E+04  9.253020E+03  6.776264E-10  2.032879E-09
        72  15 -1.496552E+05 -1.066283E+05 -5.125669E+04  5.227670E+03 -1.694066E-10  1.694066E-10
        72  16 -1.854899E+05 -1.095608E+05 -5.901015E+04  2.030942E+04 -1.694066E-10  1.355253E-09
        72  17 -1.692298E+05 -1.063186E+05 -5.510967E+04  1.550477E+04  8.470329E-11 -6.776264E-10
        72  18 -1.537544E+05 -1.042325E+05 -5.159738E+04  1.007160E+04  2.541099E-10 -4.235165E-10
        72  19 -1.718923E+05 -1.120059E+05 -5.677963E+04  6.195569E+03 -1.016440E-09  4.743385E-09
        72  20 -1.575999E+05 -1.082922E+05 -5.317843E+04  3.978722E+03  1.948176E-09 -5.929231E-09
        72  21 -1.440025E+05 -1.073815E+05 -5.027681E+04  1.643160E+03 -5.505714E-10  1.257844E-08
        72  22 -1.799020E+05 -1.113040E+05 -5.824120E+04  1.284647E+04 -3.388132E-09  6.776264E-09
        72  23 -1.644277E+05 -1.079771E+05 -5.448097E+04  9.253020E+03  1.016440E-09  2.710505E-09
        72  24 -1.496552E+05 -1.066283E+05 -5.125669E+04  5.227670E+03  5.929231E-10 -7.115077E-09
        72  25 -1.854899E+05 -1.095608E+05 -5.901015E+04  2.030942E+04 -1.355253E-09  2.710505E-09
        72  26 -1.692298E+05 -1.063186E+05 -5.510967E+04  1.550477E+04 -6.776264E-10  4.065758E-09
        72  27 -1.537544E+05 -1.042325E+05 -5.159738E+04  1.007160E+04 -1.694066E-09 -8.809143E-09
        73   1 -5.262797E+05 -3.407811E+05 -1.734122E+05  3.099903E+05  8.470329E-10 -1.270549E-09
        73   2 -5.109331E+05 -3.443171E+05 -1.710500E+05  3.084077E+05 -1.397604E-09 -9.740879E-10
        73   3 -4.931057E+05 -3.545657E+05 -1.695343E+05  3.045746E+05 -9.740879E-10  2.541099E-10
        73   4 -5.252443E+05 -3.089201E+05 -1.668329E+05  2.702941E+05 -3.388132E-10  0.000000E+00
        73   5 -5.127241E+05 -3.100765E+05 -1.645601E+05  2.709214E+05 -1.694066E-10  3.388132E-10
        73   6 -4.976053E+05 -3.134948E+05 -1.622200E+05  2.700701E+05 -1.355253E-09  4.235165E-10
        73   7 -5.271095E+05 -2.748009E+05 -1.603821E+05  2.334039E+05  0.000000E+00 -6.776264E-10
        73   8 -5.209198E+05 -2.806455E+05 -1.603131E+05  2.378391E+05 -1.355253E-09  0.000000E+00
        73   9 -5.138913E+05 -2.854871E+05 -1.598757E+05  2.430203E+05 -3.388132E-10  8.470329E-11
        73  10 -5.262797E+05 -3.407811E+05 -1.734122E+05  3.099903E+05  8.470329E-11  0.000000E+00
        73  11 -5.109331E+05 -3.443171E+05 -1.710500E+05  3.084077E+05  0.000000E+00 -3.388132E-10
        73  12 -4.931057E+05 -3.545657E+05 -1.695343E+05  3.045746E+05  3.176374E-11 -1.058791E-11
        73  13 -5.252443E+05 -3.089201E+05 -1.668329E+05  2.702941E+05 -3.388132E-10 -1.694066E-10
        73  14 -5.127241E+05 -3.100765E+05 -1.645601E+05  2.709214E+05  5.082198E-10  0.000000E+00
        73  15 -4.976053E+05 -3.134948E+05 -1.622200E+05  2.700701E+05  3.388132E-10  1.058791E-10
        73  16 -5.271095E+05 -2.748009E+05 -1.603821E+05  2.334039E+05 -8.470329E-11  0.000000E+00
        73  17 -5.209198E+05 -2.806455E+05 -1.603131E+05  2.378391E+05  3.388132E-10 -2.964615E-10
        73  18 -5.138913E+05 -2.854871E+05 -1.598757E+05  2.430203E+05 -2.117582E-11  5.293956E-11
        73  19 -5.262797E+05 -3.407811E+05 -1.734122E+05  3.099903E+05  3.218725E-09  1.270549E-09
        73  20 -5.109331E+05 -3.443171E+05 -1.710500E+05  3.084077E+05  2.075231E-09 -3.811648E-10
        73  21 -4.931057E+05 -3.545657E+05 -1.695343E+05  3.045746E+05  1.651714E-09  4.235165E-10
        73  22 -5.252443E+05 -3.089201E+05 -1.668329E+05  2.702941E+05 -3.388132E-10  1.355253E-09
        73  23 -5.127241E+05 -3.100765E+05 -1.645601E+05  2.709214E+05  1.694066E-10 -3.388132E-10
        73  24 -4.976053E+05 -3.134948E+05 -1.622200E+05  2.700701E+05  0.000000E+00 -4.235165E-10
        73  25 -5.271095E+05 -2.748009E+05 -1.603821E+05  2.334039E+05  0.000000E+00  6.776264E-10
        73  26 -5.209198E+05 -2.806455E+05 -1.603131E+05  2.378391E+05  0.000000E+00  0.000000E+00
        73  27 -5.138913E+05 -2.854871E+05 -1.598757E+05  2.430203E+05  1.016440E-09 -2.117582E-09
        74   1 -4.668244E+05 -3.401657E+05 -1.613980E+05  2.916015E+05 -1.439956E-09  4.658681E-10
        74   2 -4.532947E+05 -3.422868E+05 -1.591163E+05  2.868147E+05 -4.658681E-10  5.082198E-10
        74   3 -4.452742E+05 -3.460675E+05 -1.582683E+05  2.806532E+05 -1.312901E-09  3.388132E-10
        74   4 -4.871384E+05 -3.124813E+05 -1.599239E+05  2.659583E+05 -2.371692E-09  1.355253E-09
        74   5 -4.837428E+05 -3.072104E+05 -1.581906E+05  2.572456E+05 -6.776264E-10 -1.694066E-10
        74   6 -4.822692E+05 -3.051811E+05 -1.574901E+05  2.473919E+05 -8.470329E-11  5.505714E-10
        74   7 -5.122619E+05 -2.892655E+05 -1.603055E+05  2.430980E+05 -1.355253E-09 -3.388132E-10
        74   8 -5.124981E+05 -2.713593E+05 -1.567715E+05  2.270857E+05  6.776264E-10  3.388132E-10
        74   9 -5.139209E+05 -2.616000E+05 -1.551042E+05  2.120374E+05  8.470329E-11  3.811648E-10
        74  10 -4.668244E+05 -3.401657E+05 -1.613980E+05  2.916015E+05  8.470329E-11 -1.694066E-10
        74  11 -4.532947E+05 -3.422868E+05 -1.591163E+05  2.868147E+05 -4.235165E-11 -1.694066E-10
        74  12 -4.452742E+05 -3.460675E+05 -1.582683E+05  2.806532E+05  1.058791E-10 -8.470329E-11
        74  13 -4.871384E+05 -3.124813E+05 -1.599239E+05  2.659583E+05 -1.694066E-10  0.000000E+00
        74  14 -4.837428E+05 -3.072104E+05 -1.581906E+05  2.572456E+05  1.694066E-10 -3.388132E-10
        74  15 -4.822692E+05 -3.051811E+05 -1.574901E+05  2.473919E+05 -1.694066E-10 -6.352747E-11
        74  16 -5.122619E+05 -2.892655E+05 -1.603055E+05  2.430980E+05  1.694066E-10  8.470329E-11
        74  17 -5.124981E+05 -2.713593E+05 -1.567715E+05  2.270857E+05 -4.235165E-10  4.235165E-11
        74  18 -5.139209E+05 -2.616000E+05 -1.551042E+05  2.120374E+05 -4.235165E-11 -5.293956E-11
        74  19 -4.668244E+05 -3.401657E+05 -1.613980E+05  2.916015E+05  7.623297E-10 -1.821121E-09
        74  20 -4.532947E+05 -3.422868E+05 -1.591163E+05  2.868147E+05 -2.117582E-10 -5.082198E-10
        74  21 -4.452742E+05 -3.460675E+05 -1.582683E+05  2.806532E+05  6.352747E-10 -3.388132E-10
        74  22 -4.871384E+05 -3.124813E+05 -1.599239E+05  2.659583E+05  3.388132E-10 -1.355253E-09
        74  23 -4.837428E+05 -3.072104E+05 -1.581906E+05  2.572456E+05  0.000000E+00  1.694066E-10
        74  24 -4.822692E+05 -3.051811E+05 -1.574901E+05  2.473919E+05  8.470329E-11 -2.117582E-10
        74  25 -5.122619E+05 -2.892655E+05 -1.603055E+05  2.430980E+05  1.355253E-09  3.388132E-10
        74  26 -5.124981E+05 -2.713593E+05 -1.567715E+05  2.270857E+05  0.000000E+00 -3.388132E-10
        74  27 -5.139209E+05 -2.616000E+05 -1.551042E+05  2.120374E+05  5.929231E-10 -4.235165E-11
        75   1 -5.365061E+05 -2.547316E+05 -1.582475E+05  2.186943E+05  3.811648E-10  1.736418E-09
        75   2 -5.313929E+05 -2.665391E+05 -1.595864E+05  2.278717E+05 -1.270549E-09  6.352747E-10
        75   3 -5.229141E+05 -2.772464E+05 -1.600321E+05  2.381620E+05 -1.312901E-09  1.111731E-09
        75   4 -5.524912E+05 -2.246597E+05 -1.554302E+05  1.994053E+05  1.185846E-09 -3.388132E-10
        75   5 -5.457454E+05 -2.449469E+05 -1.581385E+05  2.114578E+05 -5.082198E-10 -8.470329E-11
        75   6 -5.285258E+05 -2.621226E+05 -1.581297E+05  2.216815E+05  1.164670E-09  5.929231E-10
        75   7 -5.717016E+05 -1.970399E+05 -1.537483E+05  1.832715E+05 -3.388132E-10  3.388132E-10
        75   8 -5.599087E+05 -2.208345E+05 -1.561486E+05  1.956301E+05 -1.524659E-09  1.694066E-10
        75   9 -5.319706E+05 -2.383588E+05 -1.540659E+05  2.033644E+05 -2.117582E-10  7.199780E-10
        75  10 -5.365061E+05 -2.547316E+05 -1.582475E+05  2.186943E+05  0.000000E+00 -8.470329E-11
        75  11 -5.313929E+05 -2.665391E+05 -1.595864E+05  2.278717E+05 -4.235165E-10 -2.117582E-10
        75  12 -5.229141E+05 -2.772464E+05 -1.600321E+05  2.381620E+05  3.176374E-11 -7.940934E-11
        75  13 -5.524912E+05 -2.246597E+05 -1.554302E+05  1.994053E+05 -1.694066E-10  0.000000E+00
        75  14 -5.457454E+05 -2.449469E+05 -1.581385E+05  2.114578E+05  4.235165E-10 -1.694066E-10
        75  15 -5.285258E+05 -2.621226E+05 -1.581297E+05  2.216815E+05  1.270549E-10  6.352747E-11
        75  16 -5.717016E+05 -1.970399E+05 -1.537483E+05  1.832715E+05  0.000000E+00  0.000000E+00
        75  17 -5.599087E+05 -2.208345E+05 -1.561486E+05  1.956301E+05  8.470329E-11  1.270549E-10
        75  18 -5.319706E+05 -2.383588E+05 -1.540659E+05  2.033644E+05 -4.235165E-11  3.176374E-11
        75  19 -5.365061E+05 -2.547316E+05 -1.582475E+05  2.186943E+05  2.964615E-10 -3.811648E-10
        75  20 -5.313929E+05 -2.665391E+05 -1.595864E+05  2.278717E+05  1.270549E-09  7.199780E-10
        75  21 -5.229141E+05 -2.772464E+05 -1.600321E+05  2.381620E+05  6.352747E-10  2.435220E-10
        75  22 -5.524912E+05 -2.246597E+05 -1.554302E+05  1.994053E+05  8.470329E-10 -3.388132E-10
        75  23 -5.457454E+05 -2.449469E+05 -1.581385E+05  2.114578E+05 -1.694066E-10  7.623297E-10
        75  24 -5.285258E+05 -2.621226E+05 -1.581297E+05  2.216815E+05  8.682088E-10  8.470329E-11
        75  25 -5.717016E+05 -1.970399E+05 -1.537483E+05  1.832715E+05  3.388132E-10  3.388132E-10
        75  26 -5.599087E+05 -2.208345E+05 -1.561486E+05  1.956301E+05  8.470329E-10 -8.470329E-10
        75  27 -5.319706E+05 -2.383588E+05 -1.540659E+05  2.033644E+05  2.117582E-10 -4.235165E-11
        76   1 -5.414802E+05 -2.806441E+05 -1.644249E+05  2.733933E+05 -2.032879E-09 -1.694066E-09
        76   2 -5.530593E+05 -2.934814E+05 -1.693081E+05  2.885602E+05  2.286989E-09  0.000000E+00
        76   3 -5.599040E+05 -3.116957E+05 -1.743199E+05  3.035042E+05 -1.079967E-09 -1.905824E-10
        76   4 -5.109485E+05 -2.832460E+05 -1.588389E+05  2.472417E+05  6.776264E-10 -6.776264E-10
        76   5 -5.231794E+05 -2.909281E+05 -1.628215E+05  2.603160E+05 -1.016440E-09 -3.388132E-10
        76   6 -5.308404E+05 -3.009333E+05 -1.663548E+05  2.732327E+05  3.134022E-09  1.694066E-10
        76   7 -4.833239E+05 -2.846968E+05 -1.536041E+05  2.212753E+05  0.000000E+00 -2.710505E-09
        76   8 -4.994051E+05 -2.905031E+05 -1.579816E+05  2.338089E+05 -6.776264E-10  0.000000E+00
        76   9 -5.126834E+05 -2.952527E+05 -1.615872E+05  2.470717E+05  2.371692E-09 -2.541099E-09
        76  10 -5.414802E+05 -2.806441E+05 -1.644249E+05  2.733933E+05 -1.694066E-10  0.000000E+00
        76  11 -5.530593E+05 -2.934814E+05 -1.693081E+05  2.885602E+05  3.388132E-10  8.470329E-11
        76  12 -5.599040E+05 -3.116957E+05 -1.743199E+05  3.035042E+05 -2.964615E-10  0.000000E+00
        76  13 -5.109485E+05 -2.832460E+05 -1.588389E+05  2.472417E+05  6.776264E-10  0.000000E+00
        76  14 -5.231794E+05 -2.909281E+05 -1.628215E+05  2.603160E+05  1.016440E-09  1.016440E-09
        76  15 -5.308404E+05 -3.009333E+05 -1.663548E+05  2.732327E+05  3.388132E-10 -2.117582E-10
        76  16 -4.833239E+05 -2.846968E+05 -1.536041E+05  2.212753E+05  1.694066E-10 -1.694066E-10
        76  17 -4.994051E+05 -2.905031E+05 -1.579816E+05  2.338089E+05  0.000000E+00 -1.694066E-10
        76  18 -5.126834E+05 -2.952527E+05 -1.615872E+05  2.470717E+05 -1.270549E-10 -2.329341E-10
        76  19 -5.414802E+05 -2.806441E+05 -1.644249E+05  2.733933E+05  6.776264E-10  3.388132E-10
        76  20 -5.530593E+05 -2.934814E+05 -1.693081E+05  2.885602E+05 -9.317362E-10  0.000000E+00
        76  21 -5.599040E+05 -3.116957E+05 -1.743199E+05  3.035042E+05 -2.752857E-10 -1.164670E-09
        76  22 -5.109485E+05 -2.832460E+05 -1.588389E+05  2.472417E+05  2.032879E-09  2.032879E-09
        76  23 -5.231794E+05 -2.909281E+05 -1.628215E+05  2.603160E+05 -3.388132E-10 -1.016440E-09
        76  24 -5.308404E+05 -3.009333E+05 -1.663548E+05  2.732327E+05 -3.134022E-09 -1.694066E-10
        76  25 -4.833239E+05 -2.846968E+05 -1.536041E+05  2.212753E+05  1.355253E-09  0.000000E+00
        76  26 -4.994051E+05 -2.905031E+05 -1.579816E+05  2.338089E+05 -6.776264E-10  1.355253E-09
        76  27 -5.126834E+05 -2.952527E+05 -1.615872E+05  2.470717E+05  3.388132E-10  1.185846E-09
        77   1 -5.618451E+05 -3.203454E+05 -1.764381E+05  3.082962E+05  5.082198E-10 -1.694066E-10
        77   2 -5.473105E+05 -3.271054E+05 -1.748832E+05  3.135413E+05  2.202286E-09 -1.694066E-09
        77   3 -5.398922E+05 -3.333191E+05 -1.746423E+05  3.131197E+05 -1.418780E-09  4.235165E-11
        77   4 -5.335090E+05 -3.061763E+05 -1.679371E+05  2.770540E+05 -6.776264E-10 -1.355253E-09
        77   5 -5.340296E+05 -3.104052E+05 -1.688870E+05  2.769775E+05  3.388132E-10  0.000000E+00
        77   6 -5.360951E+05 -3.131257E+05 -1.698442E+05  2.742875E+05  1.016440E-09  9.317362E-10
        77   7 -5.163955E+05 -2.958241E+05 -1.624439E+05  2.487989E+05  0.000000E+00  0.000000E+00
        77   8 -5.139872E+05 -2.920712E+05 -1.612117E+05  2.423139E+05  0.000000E+00 -1.355253E-09
        77   9 -5.111383E+05 -2.873147E+05 -1.596906E+05  2.376620E+05 -1.694066E-10 -1.694066E-10
        77  10 -5.618451E+05 -3.203454E+05 -1.764381E+05  3.082962E+05  1.694066E-10  0.000000E+00
        77  11 -5.473105E+05 -3.271054E+05 -1.748832E+05  3.135413E+05  0.000000E+00  0.000000E+00
        77  12 -5.398922E+05 -3.333191E+05 -1.746423E+05  3.131197E+05 -4.235165E-11 -1.058791E-10
        77  13 -5.335090E+05 -3.061763E+05 -1.679371E+05  2.770540E+05 -6.776264E-10  3.388132E-10
        77  14 -5.340296E+05 -3.104052E+05 -1.688870E+05  2.769775E+05 -1.694066E-10  1.694066E-10
        77  15 -5.360951E+05 -3.131257E+05 -1.698442E+05  2.742875E+05 -2.964615E-10 -1.270549E-10
        77  16 -5.163955E+05 -2.958241E+05 -1.624439E+05  2.487989E+05  1.694066E-10 -1.694066E-10
        77  17 -5.139872E+05 -2.920712E+05 -1.612117E+05  2.423139E+05  4.235165E-10  1.694066E-10
        77  18 -5.111383E+05 -2.873147E+05 -1.596906E+05  2.376620E+05  0.000000E+00  2.117582E-11
        77  19 -5.618451E+05 -3.203454E+05 -1.764381E+05  3.082962E+05  8.470329E-10  1.694066E-10
        77  20 -5.473105E+05 -3.271054E+05 -1.748832E+05  3.135413E+05 -8.470329E-10 -1.016440E-09
        77  21 -5.398922E+05 -3.333191E+05 -1.746423E+05  3.131197E+05  1.418780E-09 -4.235165E-11
        77  22 -5.335090E+05 -3.061763E+05 -1.679371E+05  2.770540E+05 -6.776264E-10  1.355253E-09
        77  23 -5.340296E+05 -3.104052E+05 -1.688870E+05  2.769775E+05  2.371692E-09  0.000000E+00
        77  24 -5.360951E+05 -3.131257E+05 -1.698442E+05  2.742875E+05  3.388132E-10  4.235165E-10
        77  25 -5.163955E+05 -2.958241E+05 -1.624439E+05  2.487989E+05  1.355253E-09  1.355253E-09
        77  26 -5.139872E+05 -2.920712E+05 -1.612117E+05  2.423139E+05 -1.355253E-09  1.355253E-09
        77  27 -5.111383E+05 -2.873147E+05 -1.596906E+05  2.376620E+05  1.694066E-10  1.694066E-10
        78   1 -4.724963E+05 -2.818095E+05 -1.508611E+05  2.097224E+05  2.625802E-09  1.355253E-09
        78   2 -4.903569E+05 -2.861406E+05 -1.552995E+05  2.258145E+05  1.058791E-09 -2.879912E-09
        78   3 -5.098496E+05 -2.924921E+05 -1.604683E+05  2.402185E+05  5.611593E-10 -1.185846E-09
        78   4 -4.551647E+05 -2.766578E+05 -1.463645E+05  1.932951E+05  6.776264E-10  0.000000E+00
        78   5 -4.832684E+05 -2.824513E+05 -1.531439E+05  2.130687E+05 -6.776264E-10  0.000000E+00
        78   6 -5.041688E+05 -2.872360E+05 -1.582810E+05  2.321817E+05  4.658681E-10  1.016440E-09
        78   7 -4.421939E+05 -2.713261E+05 -1.427040E+05  1.780846E+05  1.355253E-09  1.355253E-09
        78   8 -4.767434E+05 -2.778287E+05 -1.509144E+05  2.004932E+05 -3.388132E-10 -2.710505E-09
        78   9 -4.972051E+05 -2.811779E+05 -1.556766E+05  2.224567E+05  1.863472E-09 -2.541099E-09
        78  10 -4.724963E+05 -2.818095E+05 -1.508611E+05  2.097224E+05 -1.694066E-10  0.000000E+00
        78  11 -4.903569E+05 -2.861406E+05 -1.552995E+05  2.258145E+05 -1.694066E-10  2.541099E-10
        78  12 -5.098496E+05 -2.924921E+05 -1.604683E+05  2.402185E+05  1.058791E-10 -8.470329E-11
        78  13 -4.551647E+05 -2.766578E+05 -1.463645E+05  1.932951E+05  3.388132E-10  0.000000E+00
        78  14 -4.832684E+05 -2.824513E+05 -1.531439E+05  2.130687E+05 -1.694066E-10 -1.694066E-10
        78  15 -5.041688E+05 -2.872360E+05 -1.582810E+05  2.321817E+05 -4.658681E-10 -1.270549E-10
        78  16 -4.421939E+05 -2.713261E+05 -1.427040E+05  1.780846E+05  1.694066E-10 -3.388132E-10
        78  17 -4.767434E+05 -2.778287E+05 -1.509144E+05  2.004932E+05  2.541099E-10 -6.776264E-10
        78  18 -4.972051E+05 -2.811779E+05 -1.556766E+05  2.224567E+05 -1.058791E-10 -2.117582E-11
        78  19 -4.724963E+05 -2.818095E+05 -1.508611E+05  2.097224E+05 -2.625802E-09  1.355253E-09
        78  20 -4.903569E+05 -2.861406E+05 -1.552995E+05  2.258145E+05  2.964615E-10  2.879912E-09
        78  21 -5.098496E+05 -2.924921E+05 -1.604683E+05  2.402185E+05 -5.611593E-10  1.185846E-09
        78  22 -4.551647E+05 -2.766578E+05 -1.463645E+05  1.932951E+05 -6.776264E-10  1.355253E-09
        78  23 -4.832684E+05 -2.824513E+05 -1.531439E+05  2.130687E+05  6.776264E-10  0.000000E+00
        78  24 -5.041688E+05 -2.872360E+05 -1.582810E+05  2.321817E+05 -4.658681E-10 -1.016440E-09
        78  25 -4.421939E+05 -2.713261E+05 -1.427040E+05  1.780846E+05 -2.710505E-09  0.000000E+00
        78  26 -4.767434E+05 -2.778287E+05 -1.509144E+05  2.004932E+05  3.049319E-09  2.710505E-09
        78  27 -4.972051E+05 -2.811779E+05 -1.556766E+05  2.224567E+05 -1.863472E-09  1.185846E-09
        79   1 -1.292420E+05 -1.124112E+05 -4.833063E+04  1.444536E+04 -3.546950E-10  4.499863E-10
        79   2 -1.269223E+05 -1.053543E+05 -4.645531E+04  9.683729E+03 -2.620508E-10  3.705769E-10
        79   3 -1.255290E+05 -1.008029E+05 -4.526639E+04  4.012890E+03 -2.673448E-10  3.920836E-10
        79   4 -1.487793E+05 -1.021087E+05 -5.017760E+04  1.624443E+04 -1.482308E-10  2.964615E-10
        79   5 -1.462883E+05 -9.245591E+04 -4.774883E+04  1.170825E+04 -6.352747E-11  0.000000E+00
        79   6 -1.448448E+05 -8.470729E+04 -4.591041E+04  6.130223E+03 -1.535247E-10  2.461690E-10
        79   7 -1.780999E+05 -1.009703E+05 -5.581404E+04  2.426982E+04 -4.235165E-11  3.070494E-10
        79   8 -1.768577E+05 -8.875461E+04 -5.312247E+04  2.082723E+04 -4.235165E-11  2.117582E-10
        79   9 -1.777586E+05 -7.748241E+04 -5.104821E+04  1.667507E+04 -1.111731E-10  1.905824E-10
        79  10 -1.292420E+05 -1.124112E+05 -4.833063E+04  1.444536E+04 -1.058791E-11  0.000000E+00
        79  11 -1.269223E+05 -1.053543E+05 -4.645531E+04  9.683729E+03  1.058791E-11  0.000000E+00
        79  12 -1.255290E+05 -1.008029E+05 -4.526639E+04  4.012890E+03  2.646978E-12  4.963084E-13
        79  13 -1.487793E+05 -1.021087E+05 -5.017760E+04  1.624443E+04  0.000000E+00  0.000000E+00
        79  14 -1.462883E+05 -9.245591E+04 -4.774883E+04  1.170825E+04  2.117582E-11  1.323489E-12
        79  15 -1.448448E+05 -8.470729E+04 -4.591041E+04  6.130223E+03 -5.293956E-12  6.617445E-13
        79  16 -1.780999E+05 -1.009703E+05 -5.581404E+04  2.426982E+04 -1.058791E-11 -3.970467E-12
        79  17 -1.768577E+05 -8.875461E+04 -5.312247E+04  2.082723E+04 -5.293956E-12 -5.955700E-12
        79  18 -1.777586E+05 -7.748241E+04 -5.104821E+04  1.667507E+04 -2.646978E-12 -6.617445E-13
        79  19 -1.292420E+05 -1.124112E+05 -4.833063E+04  1.444536E+04  2.699918E-10 -4.499863E-10
        79  20 -1.269223E+05 -1.053543E+05 -4.645531E+04  9.683729E+03  2.620508E-10 -3.652830E-10
        79  21 -1.255290E+05 -1.008029E+05 -4.526639E+04  4.012890E+03  2.673448E-10 -3.814957E-10
        79  22 -1.487793E+05 -1.021087E+05 -5.017760E+04  1.624443E+04  2.329341E-10 -2.964615E-10
        79  23 -1.462883E+05 -9.245591E+04 -4.774883E+04  1.170825E+04  6.352747E-11  0.000000E+00
        79  24 -1.448448E+05 -8.470729E+04 -4.591041E+04  6.130223E+03  1.535247E-10 -2.408750E-10
        79  25 -1.780999E+05 -1.009703E+05 -5.581404E+04  2.426982E+04  1.270549E-10 -3.282253E-10
        79  26 -1.768577E+05 -8.875461E+04 -5.312247E+04  2.082723E+04  4.235165E-11 -1.905824E-10
        79  27 -1.777586E+05 -7.748241E+04 -5.104821E+04  1.667507E+04  6.882143E-11 -1.905824E-10
        80   1 -1.271041E+05 -9.324897E+04 -4.407062E+04  3.546877E+01 -2.223461E-10  3.302105E-10
        80   2 -1.270772E+05 -6.535410E+04 -3.848627E+04 -1.374054E+04 -1.191140E-10  1.790019E-10
        80   3 -1.262459E+05 -3.896006E+04 -3.304119E+04 -2.725189E+04 -2.547716E-11  4.144175E-11
        80   4 -1.593908E+05 -8.701391E+04 -4.928093E+04  1.104830E+04 -1.270549E-10  2.276401E-10
        80   5 -1.631971E+05 -6.888007E+04 -4.641544E+04  3.348547E+03 -2.646978E-11  3.970467E-12
        80   6 -1.666042E+05 -4.820928E+04 -4.296269E+04 -4.389038E+03 -2.249931E-11  3.341810E-11
        80   7 -1.710868E+05 -7.094247E+04 -4.840586E+04  1.169299E+04 -1.270549E-10  1.588187E-10
        80   8 -1.890693E+05 -6.906506E+04 -5.162687E+04  1.674920E+04 -5.293956E-11  1.032321E-10
        80   9 -2.032086E+05 -5.653348E+04 -5.194843E+04  1.876090E+04 -1.588187E-11  3.044025E-11
        80  10 -1.271041E+05 -9.324897E+04 -4.407062E+04  3.546877E+01  0.000000E+00  6.203855E-14
        80  11 -1.270772E+05 -6.535410E+04 -3.848627E+04 -1.374054E+04 -2.646978E-12 -1.313149E-12
        80  12 -1.262459E+05 -3.896006E+04 -3.304119E+04 -2.725189E+04 -3.308722E-13  5.066481E-13
        80  13 -1.593908E+05 -8.701391E+04 -4.928093E+04  1.104830E+04  0.000000E+00 -4.135903E-14
        80  14 -1.631971E+05 -6.888007E+04 -4.641544E+04  3.348547E+03  5.293956E-12  1.654361E-13
        80  15 -1.666042E+05 -4.820928E+04 -4.296269E+04 -4.389038E+03 -1.323489E-12  4.652891E-14
        80  16 -1.710868E+05 -7.094247E+04 -4.840586E+04  1.169299E+04  2.646978E-12  1.116694E-12
        80  17 -1.890693E+05 -6.906506E+04 -5.162687E+04  1.674920E+04  0.000000E+00 -3.101927E-13
        80  18 -2.032086E+05 -5.653348E+04 -5.194843E+04  1.876090E+04 -3.308722E-13 -7.754818E-14
        80  19 -1.271041E+05 -9.324897E+04 -4.407062E+04  3.546877E+01  2.646978E-10 -3.407984E-10
        80  20 -1.270772E+05 -6.535410E+04 -3.848627E+04 -1.374054E+04  9.793818E-11 -1.842958E-10
        80  21 -1.262459E+05 -3.896006E+04 -3.304119E+04 -2.725189E+04  2.547716E-11 -4.144175E-11
        80  22 -1.593908E+05 -8.701391E+04 -4.928093E+04  1.104830E+04  1.482308E-10 -2.249931E-10
        80  23 -1.631971E+05 -6.888007E+04 -4.641544E+04  3.348547E+03  5.293956E-12  1.323489E-12
        80  24 -1.666042E+05 -4.820928E+04 -4.296269E+04 -4.389038E+03  2.249931E-11 -3.374897E-11
        80  25 -1.710868E+05 -7.094247E+04 -4.840586E+04  1.169299E+04  1.058791E-10 -1.588187E-10
        80  26 -1.890693E+05 -6.906506E+04 -5.162687E+04  1.674920E+04  4.235165E-11 -1.032321E-10
        80  27 -2.032086E+05 -5.653348E+04 -5.194843E+04  1.876090E+04  2.117582E-11 -3.110199E-11
        81   1 -1.924079E+05 -9.298310E+04 -5.707819E+04  3.476330E+04 -8.205632E-11  2.249931E-10
        81   2 -1.857585E+05 -8.686291E+04 -5.452427E+04  2.464457E+04 -1.482308E-10  2.091113E-10
        81   3 -1.778620E+05 -7.935869E+04 -5.144413E+04  1.629703E+04 -8.470329E-11  1.852885E-10
        81   4 -2.202981E+05 -7.745900E+04 -5.955142E+04  4.624051E+04 -2.117582E-11  9.363685E-11
        81   5 -2.106449E+05 -7.364954E+04 -5.685888E+04  3.481259E+04 -4.235165E-11 -3.970467E-12
        81   6 -1.981735E+05 -6.921238E+04 -5.347718E+04  2.318720E+04 -3.176374E-11  9.793818E-11
        81   7 -2.533839E+05 -6.791930E+04 -6.426064E+04  6.145845E+04 -9.926167E-12  1.952146E-11
        81   8 -2.386056E+05 -6.410959E+04 -6.054303E+04  4.703540E+04 -1.455838E-11  2.051408E-11
        81   9 -2.192249E+05 -5.924057E+04 -5.569309E+04  3.055572E+04 -7.940934E-12  2.316106E-11
        81  10 -1.924079E+05 -9.298310E+04 -5.707819E+04  3.476330E+04  0.000000E+00  1.323489E-12
        81  11 -1.857585E+05 -8.686291E+04 -5.452427E+04  2.464457E+04 -1.323489E-12 -1.323489E-12
        81  12 -1.778620E+05 -7.935869E+04 -5.144413E+04  1.629703E+04  2.646978E-12 -8.271806E-13
        81  13 -2.202981E+05 -7.745900E+04 -5.955142E+04  4.624051E+04  5.293956E-12  0.000000E+00
        81  14 -2.106449E+05 -7.364954E+04 -5.685888E+04  3.481259E+04  1.058791E-11  0.000000E+00
        81  15 -1.981735E+05 -6.921238E+04 -5.347718E+04  2.318720E+04  2.646978E-12  1.323489E-12
        81  16 -2.533839E+05 -6.791930E+04 -6.426064E+04  6.145845E+04  0.000000E+00  0.000000E+00
        81  17 -2.386056E+05 -6.410959E+04 -6.054303E+04  4.703540E+04  3.970467E-12  1.323489E-12
        81  18 -2.192249E+05 -5.924057E+04 -5.569309E+04  3.055572E+04 -3.308722E-13  0.000000E+00
        81  19 -1.924079E+05 -9.298310E+04 -5.707819E+04  3.476330E+04  1.244080E-10 -2.249931E-10
        81  20 -1.857585E+05 -8.686291E+04 -5.452427E+04  2.464457E+04  1.058791E-10 -1.773475E-10
        81  21 -1.778620E+05 -7.935869E+04 -5.144413E+04  1.629703E+04  8.470329E-11 -1.852885E-10
        81  22 -2.202981E+05 -7.745900E+04 -5.955142E+04  4.624051E+04  0.000000E+00 -8.304893E-11
        81  23 -2.106449E+05 -7.364954E+04 -5.685888E+04  3.481259E+04  2.117582E-11  3.970467E-12
        81  24 -1.981735E+05 -6.921238E+04 -5.347718E+04  2.318720E+04  3.176374E-11 -9.529121E-11
        81  25 -2.533839E+05 -6.791930E+04 -6.426064E+04  6.145845E+04  9.926167E-12 -2.481542E-11
        81  26 -2.386056E+05 -6.410959E+04 -6.054303E+04  4.703540E+04  1.455838E-11 -2.183757E-11
        81  27 -2.192249E+05 -5.924057E+04 -5.569309E+04  3.055572E+04  7.940934E-12 -2.316106E-11
        82   1 -2.532692E+05 -8.596290E+04 -6.784643E+04  6.851303E+04 -1.588187E-11  1.032321E-10
        82   2 -2.095537E+05 -9.950969E+04 -6.181267E+04  4.983037E+04 -4.235165E-11  1.574952E-10
        82   3 -1.731408E+05 -1.271455E+05 -6.005726E+04  3.678195E+04 -1.991851E-10  3.692534E-10
        82   4 -2.237342E+05 -9.481277E+04 -6.370939E+04  5.349772E+04 -8.470329E-11  1.694066E-10
        82   5 -1.895844E+05 -1.074548E+05 -5.940783E+04  3.949442E+04 -2.117582E-11  3.705769E-11
        82   6 -1.543246E+05 -1.173585E+05 -5.433662E+04  2.463848E+04 -1.958764E-10  3.771944E-10
        82   7 -1.838849E+05 -9.373861E+04 -5.552470E+04  3.178575E+04 -1.694066E-10  2.329341E-10
        82   8 -1.710292E+05 -1.162852E+05 -5.746288E+04  2.983537E+04 -1.905824E-10  3.599890E-10
        82   9 -1.507466E+05 -1.154622E+05 -5.324176E+04  2.110598E+04 -1.535247E-10  3.732239E-10
        82  10 -2.532692E+05 -8.596290E+04 -6.784643E+04  6.851303E+04 -5.293956E-12  0.000000E+00
        82  11 -2.095537E+05 -9.950969E+04 -6.181267E+04  4.983037E+04 -1.588187E-11  6.617445E-12
        82  12 -1.731408E+05 -1.271455E+05 -6.005726E+04  3.678195E+04 -6.617445E-13 -1.488925E-12
        82  13 -2.237342E+05 -9.481277E+04 -6.370939E+04  5.349772E+04  5.293956E-12  0.000000E+00
        82  14 -1.895844E+05 -1.074548E+05 -5.940783E+04  3.949442E+04 -5.293956E-12 -2.646978E-12
        82  15 -1.543246E+05 -1.173585E+05 -5.433662E+04  2.463848E+04 -2.646978E-12  7.940934E-12
        82  16 -1.838849E+05 -9.373861E+04 -5.552470E+04  3.178575E+04  0.000000E+00 -1.323489E-12
        82  17 -1.710292E+05 -1.162852E+05 -5.746288E+04  2.983537E+04 -2.646978E-12 -1.323489E-12
        82  18 -1.507466E+05 -1.154622E+05 -5.324176E+04  2.110598E+04 -5.624828E-12 -7.610062E-12
        82  19 -2.532692E+05 -8.596290E+04 -6.784643E+04  6.851303E+04  2.646978E-11 -1.085261E-10
        82  20 -2.095537E+05 -9.950969E+04 -6.181267E+04  4.983037E+04 -4.235165E-11 -1.998468E-10
        82  21 -1.731408E+05 -1.271455E+05 -6.005726E+04  3.678195E+04  1.991851E-10 -3.692534E-10
        82  22 -2.237342E+05 -9.481277E+04 -6.370939E+04  5.349772E+04  1.058791E-10 -1.905824E-10
        82  23 -1.895844E+05 -1.074548E+05 -5.940783E+04  3.949442E+04 -2.117582E-11  5.293956E-12
        82  24 -1.543246E+05 -1.173585E+05 -5.433662E+04  2.463848E+04  1.111731E-10 -4.195460E-10
        82  25 -1.838849E+05 -9.373861E+04 -5.552470E+04  3.178575E+04  2.117582E-10 -2.329341E-10
        82  26 -1.710292E+05 -1.162852E+05 -5.746288E+04  2.983537E+04  2.329341E-10 -3.176374E-10
        82  27 -1.507466E+05 -1.154622E+05 -5.324176E+04  2.110598E+04  2.382280E-10 -3.943997E-10
        83   1 -1.500371E+05 -1.324307E+05 -5.649355E+04  2.718186E+04 -3.388132E-10  5.293956E-10
        83   2 -1.248033E+05 -1.214010E+05 -4.924088E+04  1.338499E+04 -2.805797E-10  4.314574E-10
        83   3 -1.043995E+05 -1.154692E+05 -4.397375E+04  3.311539E+03 -2.633743E-10  5.383291E-10
        83   4 -1.480318E+05 -1.228408E+05 -5.417452E+04  2.305889E+04 -1.270549E-10  4.341044E-10
        83   5 -1.275525E+05 -1.197724E+05 -4.946498E+04  1.462560E+04  2.117582E-11  4.235165E-11
        83   6 -1.103065E+05 -1.167873E+05 -4.541876E+04  8.204923E+03  1.588187E-11  4.314574E-10
        83   7 -1.408387E+05 -1.120731E+05 -5.058235E+04  1.552875E+04 -4.235165E-11  4.235165E-10
        83   8 -1.280519E+05 -1.188184E+05 -4.937405E+04  1.516845E+04 -8.470329E-11  4.129286E-10
        83   9 -1.151452E+05 -1.179731E+05 -4.662366E+04  1.339803E+04 -2.329341E-10  4.843970E-10
        83  10 -1.500371E+05 -1.324307E+05 -5.649355E+04  2.718186E+04  0.000000E+00 -1.588187E-11
        83  11 -1.248033E+05 -1.214010E+05 -4.924088E+04  1.338499E+04 -2.646978E-11  7.940934E-12
        83  12 -1.043995E+05 -1.154692E+05 -4.397375E+04  3.311539E+03 -1.323489E-12 -3.970467E-12
        83  13 -1.480318E+05 -1.228408E+05 -5.417452E+04  2.305889E+04  0.000000E+00  1.058791E-11
        83  14 -1.275525E+05 -1.197724E+05 -4.946498E+04  1.462560E+04 -2.117582E-11 -5.293956E-12
        83  15 -1.103065E+05 -1.167873E+05 -4.541876E+04  8.204923E+03 -5.293956E-11  2.646978E-12
        83  16 -1.408387E+05 -1.120731E+05 -5.058235E+04  1.552875E+04  1.058791E-11 -5.293956E-12
        83  17 -1.280519E+05 -1.188184E+05 -4.937405E+04  1.516845E+04 -1.588187E-11  7.940934E-12
        83  18 -1.151452E+05 -1.179731E+05 -4.662366E+04  1.339803E+04  5.293956E-12 -2.646978E-12
        83  19 -1.500371E+05 -1.324307E+05 -5.649355E+04  2.718186E+04  4.235165E-10 -5.717472E-10
        83  20 -1.248033E+05 -1.214010E+05 -4.924088E+04  1.338499E+04  1.958764E-10 -4.314574E-10
        83  21 -1.043995E+05 -1.154692E+05 -4.397375E+04  3.311539E+03  3.480776E-10 -5.171533E-10
        83  22 -1.480318E+05 -1.228408E+05 -5.417452E+04  2.305889E+04 -4.235165E-11 -4.341044E-10
        83  23 -1.275525E+05 -1.197724E+05 -4.946498E+04  1.462560E+04  1.482308E-10 -2.117582E-11
        83  24 -1.103065E+05 -1.167873E+05 -4.541876E+04  8.204923E+03  1.535247E-10 -4.102816E-10
        83  25 -1.408387E+05 -1.120731E+05 -5.058235E+04  1.552875E+04  4.235165E-11 -4.023406E-10
        83  26 -1.280519E+05 -1.188184E+05 -4.937405E+04  1.516845E+04  2.541099E-10 -4.129286E-10
        83  27 -1.151452E+05 -1.179731E+05 -4.662366E+04  1.339803E+04  2.329341E-10 -4.632211E-10
        84   1 -1.652509E+05 -1.000495E+05 -5.306009E+04  1.996334E+04  3.705769E-11  2.994394E-10
        84   2 -1.567541E+05 -1.087314E+05 -5.309710E+04  1.917210E+04 -2.144052E-10  3.159830E-10
        84   3 -1.486867E+05 -1.197854E+05 -5.369442E+04  1.904776E+04 -2.713152E-10  4.044913E-10
        84   4 -1.454255E+05 -1.064324E+05 -5.037157E+04  1.694495E+04 -6.352747E-11  3.308722E-10
        84   5 -1.377827E+05 -1.108219E+05 -4.972093E+04  1.602714E+04 -4.235165E-11  9.264423E-12
        84   6 -1.302675E+05 -1.146520E+05 -4.898391E+04  1.498918E+04 -2.832266E-10  3.857970E-10
        84   7 -1.270661E+05 -1.157912E+05 -4.857145E+04  1.565682E+04 -2.541099E-10  4.685151E-10
        84   8 -1.228417E+05 -1.186898E+05 -4.830629E+04  1.604579E+04 -3.388132E-10  4.446923E-10
        84   9 -1.195530E+05 -1.203176E+05 -4.797412E+04  1.638746E+04 -2.382280E-10  4.738091E-10
        84  10 -1.652509E+05 -1.000495E+05 -5.306009E+04  1.996334E+04  1.058791E-11  3.970467E-12
        84  11 -1.567541E+05 -1.087314E+05 -5.309710E+04  1.917210E+04  1.852885E-11 -7.940934E-12
        84  12 -1.486867E+05 -1.197854E+05 -5.369442E+04  1.904776E+04  1.720536E-11  6.617445E-13
        84  13 -1.454255E+05 -1.064324E+05 -5.037157E+04  1.694495E+04  0.000000E+00  0.000000E+00
        84  14 -1.377827E+05 -1.108219E+05 -4.972093E+04  1.602714E+04  0.000000E+00 -3.970467E-12
        84  15 -1.302675E+05 -1.146520E+05 -4.898391E+04  1.498918E+04  3.705769E-11 -1.654361E-12
        84  16 -1.270661E+05 -1.157912E+05 -4.857145E+04  1.565682E+04 -2.117582E-11  1.323489E-12
        84  17 -1.228417E+05 -1.186898E+05 -4.830629E+04  1.604579E+04 -1.588187E-11  2.646978E-12
        84  18 -1.195530E+05 -1.203176E+05 -4.797412E+04  1.638746E+04  7.940934E-12  1.819797E-12
        84  19 -1.652509E+05 -1.000495E+05 -5.306009E+04  1.996334E+04  5.293956E-12 -3.206152E-10
        84  20 -1.567541E+05 -1.087314E+05 -5.309710E+04  1.917210E+04  4.499863E-11 -3.371588E-10
        84  21 -1.486867E+05 -1.197854E+05 -5.369442E+04  1.904776E+04  2.713152E-10 -4.256671E-10
        84  22 -1.454255E+05 -1.064324E+05 -5.037157E+04  1.694495E+04  6.352747E-11 -3.308722E-10
        84  23 -1.377827E+05 -1.108219E+05 -4.972093E+04  1.602714E+04  1.270549E-10  2.249931E-11
        84  24 -1.302675E+05 -1.146520E+05 -4.898391E+04  1.498918E+04  1.138201E-10 -4.069729E-10
        84  25 -1.270661E+05 -1.157912E+05 -4.857145E+04  1.565682E+04  3.388132E-10 -4.711621E-10
        84  26 -1.228417E+05 -1.186898E+05 -4.830629E+04  1.604579E+04  3.388132E-10 -4.341044E-10
        84  27 -1.195530E+05 -1.203176E+05 -4.797412E+04  1.638746E+04  2.382280E-10 -4.949849E-10
        85   1 -5.973110E+05 -1.840663E+05 -1.562755E+05  1.797826E+05  2.541099E-10 -6.352747E-10
        85   2 -5.994450E+05 -1.763845E+05 -1.551659E+05  1.770124E+05  2.329341E-10 -6.035110E-10
        85   3 -6.013293E+05 -1.700029E+05 -1.542664E+05  1.736815E+05  4.711621E-10 -1.852885E-10
        85   4 -6.117746E+05 -1.754324E+05 -1.574414E+05  1.754112E+05  0.000000E+00 -4.235165E-10
        85   5 -6.156470E+05 -1.707820E+05 -1.572858E+05  1.725930E+05  3.388132E-10 -8.470329E-11
        85   6 -6.167577E+05 -1.636423E+05 -1.560800E+05  1.714607E+05  8.470329E-11 -3.917527E-10
        85   7 -6.258936E+05 -1.657685E+05 -1.583324E+05  1.730032E+05  5.082198E-10  3.388132E-10
        85   8 -6.332992E+05 -1.677153E+05 -1.602029E+05  1.697484E+05  6.776264E-10  0.000000E+00
        85   9 -6.349780E+05 -1.632419E+05 -1.596440E+05  1.716007E+05  2.117582E-11 -2.117582E-10
        85  10 -5.973110E+05 -1.840663E+05 -1.562755E+05  1.797826E+05  0.000000E+00 -4.235165E-11
        85  11 -5.994450E+05 -1.763845E+05 -1.551659E+05  1.770124E+05 -1.482308E-10  4.235165E-11
        85  12 -6.013293E+05 -1.700029E+05 -1.542664E+05  1.736815E+05 -1.058791E-11  4.235165E-11
        85  13 -6.117746E+05 -1.754324E+05 -1.574414E+05  1.754112E+05  1.694066E-10  0.000000E+00
        85  14 -6.156470E+05 -1.707820E+05 -1.572858E+05  1.725930E+05  0.000000E+00 -4.235165E-11
        85  15 -6.167577E+05 -1.636423E+05 -1.560800E+05  1.714607E+05 -3.176374E-11 -8.470329E-11
        85  16 -6.258936E+05 -1.657685E+05 -1.583324E+05  1.730032E+05  0.000000E+00  0.000000E+00
        85  17 -6.332992E+05 -1.677153E+05 -1.602029E+05  1.697484E+05  2.117582E-11  0.000000E+00
        85  18 -6.349780E+05 -1.632419E+05 -1.596440E+05  1.716007E+05 -1.588187E-11 -1.588187E-11
        85  19 -5.973110E+05 -1.840663E+05 -1.562755E+05  1.797826E+05 -2.541099E-10 -4.235165E-11
        85  20 -5.994450E+05 -1.763845E+05 -1.551659E+05  1.770124E+05 -2.329341E-10  2.646978E-10
        85  21 -6.013293E+05 -1.700029E+05 -1.542664E+05  1.736815E+05 -1.323489E-10 -1.535247E-10
        85  22 -6.117746E+05 -1.754324E+05 -1.574414E+05  1.754112E+05 -3.388132E-10  4.235165E-10
        85  23 -6.156470E+05 -1.707820E+05 -1.572858E+05  1.725930E+05  3.388132E-10  8.470329E-11
        85  24 -6.167577E+05 -1.636423E+05 -1.560800E+05  1.714607E+05  5.929231E-10  5.293956E-11
        85  25 -6.258936E+05 -1.657685E+05 -1.583324E+05  1.730032E+05 -1.694066E-10 -3.388132E-10
        85  26 -6.332992E+05 -1.677153E+05 -1.602029E+05  1.697484E+05 -3.388132E-10  1.694066E-10
        85  27 -6.349780E+05 -1.632419E+05 -1.596440E+05  1.716007E+05 -2.117582E-11  2.117582E-10
        86   1 -6.037254E+05 -1.662702E+05 -1.539991E+05  1.734672E+05 -3.811648E-10 -1.270549E-10
        86   2 -5.904073E+05 -1.565798E+05 -1.493974E+05  1.721474E+05 -1.905824E-10  6.352747E-11
        86   3 -5.762876E+05 -1.461499E+05 -1.444875E+05  1.712941E+05 -5.293956E-12  4.235165E-11
        86   4 -6.206343E+05 -1.637804E+05 -1.568830E+05  1.754553E+05 -2.541099E-10  0.000000E+00
        86   5 -6.106841E+05 -1.586407E+05 -1.538650E+05  1.755715E+05 -8.470329E-11 -8.470329E-11
        86   6 -6.047309E+05 -1.526975E+05 -1.514857E+05  1.748413E+05  0.000000E+00  2.117582E-11
        86   7 -6.302929E+05 -1.572201E+05 -1.575026E+05  1.744415E+05 -1.694066E-10  8.470329E-11
        86   8 -6.292093E+05 -1.596701E+05 -1.577759E+05  1.777239E+05 -8.470329E-11  4.235165E-11
        86   9 -6.366501E+05 -1.600507E+05 -1.593402E+05  1.776684E+05 -2.117582E-11  2.117582E-11
        86  10 -6.037254E+05 -1.662702E+05 -1.539991E+05  1.734672E+05 -4.235165E-11  0.000000E+00
        86  11 -5.904073E+05 -1.565798E+05 -1.493974E+05  1.721474E+05  2.117582E-11  1.058791E-11
        86  12 -5.762876E+05 -1.461499E+05 -1.444875E+05  1.712941E+05 -2.646978E-12  7.940934E-12
        86  13 -6.206343E+05 -1.637804E+05 -1.568830E+05  1.754553E+05  0.000000E+00 -4.235165E-11
        86  14 -6.106841E+05 -1.586407E+05 -1.538650E+05  1.755715E+05  0.000000E+00 -2.117582E-11
        86  15 -6.047309E+05 -1.526975E+05 -1.514857E+05  1.748413E+05 -1.058791E-11 -1.058791E-11
        86  16 -6.302929E+05 -1.572201E+05 -1.575026E+05  1.744415E+05 -2.117582E-11  0.000000E+00
        86  17 -6.292093E+05 -1.596701E+05 -1.577759E+05  1.777239E+05  1.058791E-11  2.117582E-11
        86  18 -6.366501E+05 -1.600507E+05 -1.593402E+05  1.776684E+05  7.940934E-12 -2.646978E-12
        86  19 -6.037254E+05 -1.662702E+05 -1.539991E+05  1.734672E+05  2.117582E-10  1.270549E-10
        86  20 -5.904073E+05 -1.565798E+05 -1.493974E+05  1.721474E+05  2.117582E-11  2.117582E-11
        86  21 -5.762876E+05 -1.461499E+05 -1.444875E+05  1.712941E+05 -1.588187E-11 -2.117582E-11
        86  22 -6.206343E+05 -1.637804E+05 -1.568830E+05  1.754553E+05 -8.470329E-11  0.000000E+00
        86  23 -6.106841E+05 -1.586407E+05 -1.538650E+05  1.755715E+05  8.470329E-11  0.000000E+00
        86  24 -6.047309E+05 -1.526975E+05 -1.514857E+05  1.748413E+05  0.000000E+00 -2.117582E-11
        86  25 -6.302929E+05 -1.572201E+05 -1.575026E+05  1.744415E+05  3.388132E-10  8.470329E-11
        86  26 -6.292093E+05 -1.596701E+05 -1.577759E+05  1.777239E+05  0.000000E+00  4.235165E-11
        86  27 -6.366501E+05 -1.600507E+05 -1.593402E+05  1.776684E+05  2.117582E-11  0.000000E+00
        87   1 -6.398859E+05 -1.628423E+05 -1.605456E+05  1.722939E+05  1.482308E-10  3.811648E-10
        87   2 -6.403041E+05 -1.635886E+05 -1.607785E+05  1.716719E+05  8.470329E-11 -1.694066E-10
        87   3 -6.360561E+05 -1.638367E+05 -1.599786E+05  1.708601E+05  1.694066E-10 -8.470329E-11
        87   4 -6.568489E+05 -1.631406E+05 -1.639979E+05  1.727625E+05  1.376429E-10 -1.164670E-10
        87   5 -6.527900E+05 -1.616308E+05 -1.628842E+05  1.735979E+05  8.470329E-11  0.000000E+00
        87   6 -6.433743E+05 -1.586565E+05 -1.604062E+05  1.750660E+05  0.000000E+00 -8.470329E-11
        87   7 -6.750558E+05 -1.680855E+05 -1.686283E+05  1.727454E+05 -4.499863E-11  5.029258E-11
        87   8 -6.672234E+05 -1.659128E+05 -1.666272E+05  1.743086E+05  0.000000E+00  1.588187E-11
        87   9 -6.538832E+05 -1.623005E+05 -1.632367E+05  1.767259E+05  2.117582E-11 -2.117582E-11
        87  10 -6.398859E+05 -1.628423E+05 -1.605456E+05  1.722939E+05 -2.117582E-11  1.058791E-11
        87  11 -6.403041E+05 -1.635886E+05 -1.607785E+05  1.716719E+05  1.058791E-11  5.293956E-12
        87  12 -6.360561E+05 -1.638367E+05 -1.599786E+05  1.708601E+05 -1.588187E-11 -5.293956E-12
        87  13 -6.568489E+05 -1.631406E+05 -1.639979E+05  1.727625E+05 -4.235165E-11  0.000000E+00
        87  14 -6.527900E+05 -1.616308E+05 -1.628842E+05  1.735979E+05  2.117582E-11 -2.117582E-11
        87  15 -6.433743E+05 -1.586565E+05 -1.604062E+05  1.750660E+05  1.588187E-11 -2.646978E-11
        87  16 -6.750558E+05 -1.680855E+05 -1.686283E+05  1.727454E+05  0.000000E+00  0.000000E+00
        87  17 -6.672234E+05 -1.659128E+05 -1.666272E+05  1.743086E+05  1.058791E-11 -5.293956E-12
        87  18 -6.538832E+05 -1.623005E+05 -1.632367E+05  1.767259E+05  5.293956E-12 -1.455838E-11
        87  19 -6.398859E+05 -1.628423E+05 -1.605456E+05  1.722939E+05 -1.482308E-10 -2.117582E-10
        87  20 -6.403041E+05 -1.635886E+05 -1.607785E+05  1.716719E+05 -2.541099E-10  1.694066E-10
        87  21 -6.360561E+05 -1.638367E+05 -1.599786E+05  1.708601E+05  0.000000E+00  8.470329E-11
        87  22 -6.568489E+05 -1.631406E+05 -1.639979E+05  1.727625E+05 -1.376429E-10  2.011703E-10
        87  23 -6.527900E+05 -1.616308E+05 -1.628842E+05  1.735979E+05  0.000000E+00  0.000000E+00
        87  24 -6.433743E+05 -1.586565E+05 -1.604062E+05  1.750660E+05  0.000000E+00  8.470329E-11
        87  25 -6.750558E+05 -1.680855E+05 -1.686283E+05  1.727454E+05  6.617445E-11 -7.940934E-12
        87  26 -6.672234E+05 -1.659128E+05 -1.666272E+05  1.743086E+05  0.000000E+00 -1.588187E-11
        87  27 -6.538832E+05 -1.623005E+05 -1.632367E+05  1.767259E+05 -4.235165E-11  2.117582E-11
        88   1 -6.772676E+05 -1.687883E+05 -1.692112E+05  1.717783E+05  6.352747E-11  0.000000E+00
        88   2 -6.773326E+05 -1.683689E+05 -1.691403E+05  1.703818E+05 -2.117582E-11  1.058791E-11
        88   3 -6.735195E+05 -1.668751E+05 -1.680789E+05  1.676235E+05  1.588187E-11  1.058791E-11
        88   4 -6.591327E+05 -1.640425E+05 -1.646350E+05  1.710690E+05  0.000000E+00 -8.470329E-11
        88   5 -6.619834E+05 -1.631487E+05 -1.650264E+05  1.704658E+05  8.470329E-11 -4.235165E-11
        88   6 -6.607982E+05 -1.608248E+05 -1.643246E+05  1.685989E+05 -8.470329E-11 -1.270549E-10
        88   7 -6.419379E+05 -1.631204E+05 -1.610117E+05  1.706490E+05  1.694066E-10  1.694066E-10
        88   8 -6.480575E+05 -1.629204E+05 -1.621956E+05  1.712738E+05 -3.388132E-10 -2.541099E-10
        88   9 -6.501887E+05 -1.614484E+05 -1.623274E+05  1.710701E+05 -3.388132E-10 -1.270549E-10
        88  10 -6.772676E+05 -1.687883E+05 -1.692112E+05  1.717783E+05  2.117582E-11  1.058791E-11
        88  11 -6.773326E+05 -1.683689E+05 -1.691403E+05  1.703818E+05  2.117582E-11 -1.058791E-11
        88  12 -6.735195E+05 -1.668751E+05 -1.680789E+05  1.676235E+05 -2.646978E-12  0.000000E+00
        88  13 -6.591327E+05 -1.640425E+05 -1.646350E+05  1.710690E+05  0.000000E+00  0.000000E+00
        88  14 -6.619834E+05 -1.631487E+05 -1.650264E+05  1.704658E+05  2.117582E-11  0.000000E+00
        88  15 -6.607982E+05 -1.608248E+05 -1.643246E+05  1.685989E+05  2.117582E-11 -1.852885E-11
        88  16 -6.419379E+05 -1.631204E+05 -1.610117E+05  1.706490E+05  0.000000E+00 -1.058791E-11
        88  17 -6.480575E+05 -1.629204E+05 -1.621956E+05  1.712738E+05 -3.176374E-11 -5.293956E-12
        88  18 -6.501887E+05 -1.614484E+05 -1.623274E+05  1.710701E+05 -3.705769E-11 -3.970467E-12
        88  19 -6.772676E+05 -1.687883E+05 -1.692112E+05  1.717783E+05 -2.117582E-11  0.000000E+00
        88  20 -6.773326E+05 -1.683689E+05 -1.691403E+05  1.703818E+05  2.117582E-11  1.058791E-11
        88  21 -6.735195E+05 -1.668751E+05 -1.680789E+05  1.676235E+05  2.646978E-11 -1.058791E-11
        88  22 -6.591327E+05 -1.640425E+05 -1.646350E+05  1.710690E+05  0.000000E+00  1.694066E-10
        88  23 -6.619834E+05 -1.631487E+05 -1.650264E+05  1.704658E+05  8.470329E-11  4.235165E-11
        88  24 -6.607982E+05 -1.608248E+05 -1.643246E+05  1.685989E+05  0.000000E+00  1.270549E-10
        88  25 -6.419379E+05 -1.631204E+05 -1.610117E+05  1.706490E+05  1.694066E-10 -1.694066E-10
        88  26 -6.480575E+05 -1.629204E+05 -1.621956E+05  1.712738E+05  0.000000E+00  8.470329E-11
        88  27 -6.501887E+05 -1.614484E+05 -1.623274E+05  1.710701E+05 -1.694066E-10  4.235165E-11
        89   1 -6.658461E+05 -1.659307E+05 -1.663554E+05  1.657694E+05  4.235165E-11 -1.058791E-11
        89   2 -6.499562E+05 -1.623740E+05 -1.624660E+05  1.653974E+05  3.176374E-11  5.823352E-11
        89   3 -6.351703E+05 -1.590278E+05 -1.588396E+05  1.658027E+05  7.940934E-12  1.323489E-12
        89   4 -6.545838E+05 -1.614788E+05 -1.632125E+05  1.664023E+05  8.470329E-11 -2.117582E-10
        89   5 -6.436048E+05 -1.605178E+05 -1.608245E+05  1.667704E+05 -2.117582E-10  1.694066E-10
        89   6 -6.314596E+05 -1.589476E+05 -1.580814E+05  1.678514E+05 -2.964615E-10  1.058791E-11
        89   7 -6.472485E+05 -1.585103E+05 -1.611518E+05  1.693757E+05  0.000000E+00  0.000000E+00
        89   8 -6.394128E+05 -1.595071E+05 -1.597840E+05  1.691085E+05 -2.541099E-10 -1.270549E-10
        89   9 -6.279461E+05 -1.590046E+05 -1.573901E+05  1.699978E+05 -2.329341E-10 -6.352747E-11
        89  10 -6.658461E+05 -1.659307E+05 -1.663554E+05  1.657694E+05  0.000000E+00  5.293956E-12
        89  11 -6.499562E+05 -1.623740E+05 -1.624660E+05  1.653974E+05  1.588187E-11  0.000000E+00
        89  12 -6.351703E+05 -1.590278E+05 -1.588396E+05  1.658027E+05 -1.455838E-11 -6.617445E-13
        89  13 -6.545838E+05 -1.614788E+05 -1.632125E+05  1.664023E+05  0.000000E+00  2.117582E-11
        89  14 -6.436048E+05 -1.605178E+05 -1.608245E+05  1.667704E+05 -4.235165E-11  1.058791E-11
        89  15 -6.314596E+05 -1.589476E+05 -1.580814E+05  1.678514E+05  1.323489E-11  3.176374E-11
        89  16 -6.472485E+05 -1.585103E+05 -1.611518E+05  1.693757E+05  0.000000E+00  1.058791E-11
        89  17 -6.394128E+05 -1.595071E+05 -1.597840E+05  1.691085E+05  8.999725E-11 -1.588187E-11
        89  18 -6.279461E+05 -1.590046E+05 -1.573901E+05  1.699978E+05 -2.779327E-11  5.955700E-12
        89  19 -6.658461E+05 -1.659307E+05 -1.663554E+05  1.657694E+05 -4.235165E-11  1.058791E-11
        89  20 -6.499562E+05 -1.623740E+05 -1.624660E+05  1.653974E+05  1.058791E-11  5.293956E-12
        89  21 -6.351703E+05 -1.590278E+05 -1.588396E+05  1.658027E+05  1.323489E-11 -1.323489E-12
        89  22 -6.545838E+05 -1.614788E+05 -1.632125E+05  1.664023E+05 -8.470329E-11  1.270549E-10
        89  23 -6.436048E+05 -1.605178E+05 -1.608245E+05  1.667704E+05  1.270549E-10  8.470329E-11
        89  24 -6.314596E+05 -1.589476E+05 -1.580814E+05  1.678514E+05 -4.235165E-11  7.411538E-11
        89  25 -6.472485E+05 -1.585103E+05 -1.611518E+05  1.693757E+05 -1.694066E-10  1.694066E-10
        89  26 -6.394128E+05 -1.595071E+05 -1.597840E+05  1.691085E+05 -2.541099E-10  1.270549E-10
        89  27 -6.279461E+05 -1.590046E+05 -1.573901E+05  1.699978E+05 -4.446923E-10  6.352747E-11
        90   1 -6.276281E+05 -1.657871E+05 -1.586830E+05  1.721033E+05 -8.470329E-11 -2.964615E-10
        90   2 -6.389480E+05 -1.653199E+05 -1.608536E+05  1.727917E+05 -4.023406E-10 -1.058791E-10
        90   3 -6.459863E+05 -1.619946E+05 -1.615962E+05  1.713197E+05 -4.235165E-11 -7.305659E-10
        90   4 -6.129547E+05 -1.718920E+05 -1.569694E+05  1.746236E+05  6.776264E-10  1.694066E-10
        90   5 -6.236747E+05 -1.670968E+05 -1.581543E+05  1.732548E+05  0.000000E+00 -2.541099E-10
        90   6 -6.336934E+05 -1.613400E+05 -1.590067E+05  1.712997E+05 -1.482308E-10  0.000000E+00
        90   7 -5.986276E+05 -1.772566E+05 -1.551769E+05  1.753722E+05  6.776264E-10  0.000000E+00
        90   8 -6.094890E+05 -1.694195E+05 -1.557817E+05  1.726596E+05 -1.694066E-10 -3.388132E-10
        90   9 -6.221302E+05 -1.622809E+05 -1.568822E+05  1.706012E+05  8.470329E-11 -6.776264E-10
        90  10 -6.276281E+05 -1.657871E+05 -1.586830E+05  1.721033E+05  4.235165E-11  0.000000E+00
        90  11 -6.389480E+05 -1.653199E+05 -1.608536E+05  1.727917E+05 -1.058791E-10  8.470329E-11
        90  12 -6.459863E+05 -1.619946E+05 -1.615962E+05  1.713197E+05 -5.293956E-12 -4.235165E-11
        90  13 -6.129547E+05 -1.718920E+05 -1.569694E+05  1.746236E+05  1.694066E-10  0.000000E+00
        90  14 -6.236747E+05 -1.670968E+05 -1.581543E+05  1.732548E+05 -1.694066E-10  0.000000E+00
        90  15 -6.336934E+05 -1.613400E+05 -1.590067E+05  1.712997E+05  6.352747E-11  5.293956E-11
        90  16 -5.986276E+05 -1.772566E+05 -1.551769E+05  1.753722E+05  1.270549E-10  4.235165E-11
        90  17 -6.094890E+05 -1.694195E+05 -1.557817E+05  1.726596E+05 -1.482308E-10  0.000000E+00
        90  18 -6.221302E+05 -1.622809E+05 -1.568822E+05  1.706012E+05  6.882143E-11  2.646978E-11
        90  19 -6.276281E+05 -1.657871E+05 -1.586830E+05  1.721033E+05 -2.541099E-10  2.964615E-10
        90  20 -6.389480E+05 -1.653199E+05 -1.608536E+05  1.727917E+05  6.352747E-11 -6.352747E-11
        90  21 -6.459863E+05 -1.619946E+05 -1.615962E+05  1.713197E+05  2.117582E-10  3.917527E-10
        90  22 -6.129547E+05 -1.718920E+05 -1.569694E+05  1.746236E+05  6.776264E-10  1.694066E-10
        90  23 -6.236747E+05 -1.670968E+05 -1.581543E+05  1.732548E+05  3.388132E-10  8.470329E-11
        90  24 -6.336934E+05 -1.613400E+05 -1.590067E+05  1.712997E+05 -1.905824E-10 -3.388132E-10
        90  25 -5.986276E+05 -1.772566E+05 -1.551769E+05  1.753722E+05 -6.776264E-10  0.000000E+00
        90  26 -6.094890E+05 -1.694195E+05 -1.557817E+05  1.726596E+05  1.694066E-10  0.000000E+00
        90  27 -6.221302E+05 -1.622809E+05 -1.568822E+05  1.706012E+05 -7.623297E-10  3.388132E-10
        91   1 -1.186835E+05 -1.015018E+05 -4.403704E+04 -6.553277E+01  2.202286E-09 -2.710505E-09
        91   2 -1.150758E+05 -1.013291E+05 -4.328097E+04  6.083924E+01 -8.470329E-11 -3.726945E-09
        91   3 -1.114983E+05 -1.012865E+05 -4.255696E+04  1.953569E+02 -6.352747E-11  5.082198E-10
        91   4 -1.165167E+05 -1.018644E+05 -4.367622E+04 -1.521003E+02  6.776264E-10 -2.710505E-09
        91   5 -1.136585E+05 -1.016091E+05 -4.305353E+04  2.026991E+01  1.016440E-09 -4.065758E-09
        91   6 -1.108667E+05 -1.014556E+05 -4.246447E+04  1.444397E+02  2.117582E-09  1.694066E-09
        91   7 -1.129316E+05 -1.018176E+05 -4.294984E+04 -5.076340E+02  1.355253E-09  0.000000E+00
        91   8 -1.110389E+05 -1.015639E+05 -4.252055E+04 -2.021733E+02 -2.710505E-09 -1.626303E-08
        91   9 -1.094080E+05 -1.014189E+05 -4.216538E+04  1.817672E+01  2.202286E-09 -2.710505E-09
        91  10 -1.186835E+05 -1.015018E+05 -4.403704E+04 -6.553277E+01 -1.694066E-10  0.000000E+00
        91  11 -1.150758E+05 -1.013291E+05 -4.328097E+04  6.083924E+01  4.235165E-10 -6.776264E-10
        91  12 -1.114983E+05 -1.012865E+05 -4.255696E+04  1.953569E+02  6.352747E-11 -5.929231E-10
        91  13 -1.165167E+05 -1.018644E+05 -4.367622E+04 -1.521003E+02  3.388132E-10  1.355253E-09
        91  14 -1.136585E+05 -1.016091E+05 -4.305353E+04  2.026991E+01  5.082198E-10 -2.032879E-09
        91  15 -1.108667E+05 -1.014556E+05 -4.246447E+04  1.444397E+02  1.270549E-10  3.388132E-10
        91  16 -1.129316E+05 -1.018176E+05 -4.294984E+04 -5.076340E+02  5.082198E-10 -6.776264E-10
        91  17 -1.110389E+05 -1.015639E+05 -4.252055E+04 -2.021733E+02  1.694066E-10 -1.355253E-09
        91  18 -1.094080E+05 -1.014189E+05 -4.216538E+04  1.817672E+01 -6.352747E-11 -8.470329E-11
        91  19 -1.186835E+05 -1.015018E+05 -4.403704E+04 -6.553277E+01 -2.202286E-09  8.131516E-09
        91  20 -1.150758E+05 -1.013291E+05 -4.328097E+04  6.083924E+01  8.470329E-11  3.726945E-09
        91  21 -1.114983E+05 -1.012865E+05 -4.255696E+04  1.953569E+02 -1.291725E-09  1.033380E-08
        91  22 -1.165167E+05 -1.018644E+05 -4.367622E+04 -1.521003E+02  2.032879E-09  1.355253E-08
        91  23 -1.136585E+05 -1.016091E+05 -4.305353E+04  2.026991E+01  3.388132E-10 -1.355253E-09
        91  24 -1.108667E+05 -1.014556E+05 -4.246447E+04  1.444397E+02 -2.117582E-09 -1.694066E-09
        91  25 -1.129316E+05 -1.018176E+05 -4.294984E+04 -5.076340E+02  0.000000E+00  5.421011E-09
        91  26 -1.110389E+05 -1.015639E+05 -4.252055E+04 -2.021733E+02  1.355253E-09  5.421011E-09
        91  27 -1.094080E+05 -1.014189E+05 -4.216538E+04  1.817672E+01 -8.470329E-10 -2.710505E-09
        92   1 -1.097583E+05 -1.014417E+05 -4.224001E+04  2.757892E+02 -1.694066E-10 -5.421011E-09
        92   2 -1.061394E+05 -1.013423E+05 -4.149633E+04  1.696012E+02  1.185846E-09  3.388132E-10
        92   3 -1.024870E+05 -1.010670E+05 -4.071082E+04  9.520459E+01 -8.470329E-11 -1.101143E-09
        92   4 -1.088385E+05 -1.013292E+05 -4.203355E+04  7.525688E+01 -6.776264E-10  2.710505E-09
        92   5 -1.055331E+05 -1.011593E+05 -4.133849E+04  6.311492E+01  0.000000E+00  1.355253E-09
        92   6 -1.022063E+05 -1.008398E+05 -4.060924E+04  3.630147E+01  7.623297E-10 -6.776264E-09
        92   7 -1.080560E+05 -1.012957E+05 -4.187033E+04 -1.737047E+01 -1.355253E-09 -1.626303E-08
        92   8 -1.052828E+05 -1.010773E+05 -4.127203E+04  2.370638E+01  6.776264E-10 -8.131516E-09
        92   9 -1.024202E+05 -1.007372E+05 -4.063148E+04  1.465533E+00  3.388132E-10 -6.776264E-10
        92  10 -1.097583E+05 -1.014417E+05 -4.224001E+04  2.757892E+02 -1.694066E-10  0.000000E+00
        92  11 -1.061394E+05 -1.013423E+05 -4.149633E+04  1.696012E+02  3.388132E-10 -6.776264E-10
        92  12 -1.024870E+05 -1.010670E+05 -4.071082E+04  9.520459E+01 -1.905824E-10 -1.101143E-09
        92  13 -1.088385E+05 -1.013292E+05 -4.203355E+04  7.525688E+01  0.000000E+00  0.000000E+00
        92  14 -1.055331E+05 -1.011593E+05 -4.133849E+04  6.311492E+01 -3.388132E-10  0.000000E+00
        92  15 -1.022063E+05 -1.008398E+05 -4.060924E+04  3.630147E+01  2.541099E-10  2.710505E-09
        92  16 -1.080560E+05 -1.012957E+05 -4.187033E+04 -1.737047E+01  1.694066E-10  6.776264E-10
        92  17 -1.052828E+05 -1.010773E+05 -4.127203E+04  2.370638E+01  2.541099E-10  6.776264E-10
        92  18 -1.024202E+05 -1.007372E+05 -4.063148E+04  1.465533E+00  1.482308E-10  2.541099E-10
        92  19 -1.097583E+05 -1.014417E+05 -4.224001E+04  2.757892E+02  1.694066E-10 -5.421011E-09
        92  20 -1.061394E+05 -1.013423E+05 -4.149633E+04  1.696012E+02 -2.541099E-09 -3.388132E-10
        92  21 -1.024870E+05 -1.010670E+05 -4.071082E+04  9.520459E+01  8.470329E-11  1.194316E-08
        92  22 -1.088385E+05 -1.013292E+05 -4.203355E+04  7.525688E+01 -6.776264E-10  2.710505E-09
        92  23 -1.055331E+05 -1.011593E+05 -4.133849E+04  6.311492E+01  0.000000E+00 -1.355253E-09
        92  24 -1.022063E+05 -1.008398E+05 -4.060924E+04  3.630147E+01 -7.623297E-10  6.776264E-09
        92  25 -1.080560E+05 -1.012957E+05 -4.187033E+04 -1.737047E+01  1.355253E-09  0.000000E+00
        92  26 -1.052828E+05 -1.010773E+05 -4.127203E+04  2.370638E+01 -2.032879E-09  8.131516E-09
        92  27 -1.024202E+05 -1.007372E+05 -4.063148E+04  1.465533E+00 -3.388132E-10  6.776264E-10
        93   1 -1.099802E+05 -1.020819E+05 -4.241243E+04 -6.988938E+02 -1.694066E-10 -4.743385E-09
        93   2 -1.092122E+05 -1.017308E+05 -4.218859E+04 -4.189795E+02 -3.726945E-09  1.016440E-09
        93   3 -1.080134E+05 -1.013439E+05 -4.187146E+04 -1.787156E+02  2.138758E-09 -6.860967E-09
        93   4 -1.064738E+05 -1.023840E+05 -4.177155E+04 -2.833113E+02  1.355253E-09 -2.710505E-09
        93   5 -1.057013E+05 -1.017680E+05 -4.149387E+04 -2.360465E+02 -1.355253E-09 -1.355253E-09
        93   6 -1.049075E+05 -1.011441E+05 -4.121032E+04 -1.777996E+02 -3.388132E-10  0.000000E+00
        93   7 -1.023726E+05 -1.023116E+05 -4.093685E+04 -1.604411E+02  1.355253E-09  0.000000E+00
        93   8 -1.020801E+05 -1.016639E+05 -4.074881E+04 -1.548012E+02  0.000000E+00 -2.710505E-09
        93   9 -1.022047E+05 -1.011154E+05 -4.066401E+04 -3.317544E+01 -6.776264E-10  2.032879E-09
        93  10 -1.099802E+05 -1.020819E+05 -4.241243E+04 -6.988938E+02 -1.694066E-10  0.000000E+00
        93  11 -1.092122E+05 -1.017308E+05 -4.218859E+04 -4.189795E+02 -8.470329E-11  1.016440E-09
        93  12 -1.080134E+05 -1.013439E+05 -4.187146E+04 -1.787156E+02  1.270549E-10 -1.948176E-09
        93  13 -1.064738E+05 -1.023840E+05 -4.177155E+04 -2.833113E+02  0.000000E+00  0.000000E+00
        93  14 -1.057013E+05 -1.017680E+05 -4.149387E+04 -2.360465E+02  3.388132E-10  6.776264E-10
        93  15 -1.049075E+05 -1.011441E+05 -4.121032E+04 -1.777996E+02 -2.964615E-10  2.202286E-09
        93  16 -1.023726E+05 -1.023116E+05 -4.093685E+04 -1.604411E+02 -3.388132E-10  1.355253E-09
        93  17 -1.020801E+05 -1.016639E+05 -4.074881E+04 -1.548012E+02  7.623297E-10 -1.016440E-09
        93  18 -1.022047E+05 -1.011154E+05 -4.066401E+04 -3.317544E+01  0.000000E+00  1.694066E-10
        93  19 -1.099802E+05 -1.020819E+05 -4.241243E+04 -6.988938E+02  1.524659E-09  4.743385E-09
        93  20 -1.092122E+05 -1.017308E+05 -4.218859E+04 -4.189795E+02  1.016440E-09  4.404571E-09
        93  21 -1.080134E+05 -1.013439E+05 -4.187146E+04 -1.787156E+02 -2.138758E-09  6.860967E-09
        93  22 -1.064738E+05 -1.023840E+05 -4.177155E+04 -2.833113E+02 -1.355253E-09  2.710505E-09
        93  23 -1.057013E+05 -1.017680E+05 -4.149387E+04 -2.360465E+02  0.000000E+00 -9.486769E-09
        93  24 -1.049075E+05 -1.011441E+05 -4.121032E+04 -1.777996E+02 -2.371692E-09  0.000000E+00
        93  25 -1.023726E+05 -1.023116E+05 -4.093685E+04 -1.604411E+02  0.000000E+00  0.000000E+00
        93  26 -1.020801E+05 -1.016639E+05 -4.074881E+04 -1.548012E+02 -5.421011E-09  2.710505E-09
        93  27 -1.022047E+05 -1.011154E+05 -4.066401E+04 -3.317544E+01  2.032879E-09 -2.032879E-09
        94   1 -1.041188E+05 -1.025159E+05 -4.132695E+04 -3.982346E+02 -1.016440E-09 -4.743385E-09
        94   2 -1.129185E+05 -1.035871E+05 -4.330113E+04 -5.685797E+02  8.470329E-11 -8.131516E-09
        94   3 -1.194790E+05 -1.035949E+05 -4.461477E+04 -1.652745E+03 -6.352747E-10 -3.388132E-10
        94   4 -1.075166E+05 -1.022716E+05 -4.195764E+04 -7.105985E+02 -1.355253E-09  2.710505E-09
        94   5 -1.148508E+05 -1.028429E+05 -4.353876E+04 -9.621465E+02 -1.355253E-09  2.710505E-09
        94   6 -1.218779E+05 -1.029892E+05 -4.497343E+04 -1.436788E+03 -5.929231E-10 -4.743385E-09
        94   7 -1.125411E+05 -1.028743E+05 -4.308307E+04 -3.604527E+02  1.355253E-09  0.000000E+00
        94   8 -1.165473E+05 -1.022981E+05 -4.376907E+04 -1.068959E+03  2.032879E-09  0.000000E+00
        94   9 -1.222223E+05 -1.019295E+05 -4.483036E+04 -1.110733E+03  3.726945E-09 -8.470329E-09
        94  10 -1.041188E+05 -1.025159E+05 -4.132695E+04 -3.982346E+02 -1.694066E-10 -6.776264E-10
        94  11 -1.129185E+05 -1.035871E+05 -4.330113E+04 -5.685797E+02  8.470329E-11  0.000000E+00
        94  12 -1.194790E+05 -1.035949E+05 -4.461477E+04 -1.652745E+03  1.905824E-10 -2.541099E-10
        94  13 -1.075166E+05 -1.022716E+05 -4.195764E+04 -7.105985E+02  0.000000E+00  0.000000E+00
        94  14 -1.148508E+05 -1.028429E+05 -4.353876E+04 -9.621465E+02  6.776264E-10 -6.776264E-10
        94  15 -1.218779E+05 -1.029892E+05 -4.497343E+04 -1.436788E+03  9.740879E-10  1.185846E-09
        94  16 -1.125411E+05 -1.028743E+05 -4.308307E+04 -3.604527E+02 -1.694066E-10 -6.776264E-10
        94  17 -1.165473E+05 -1.022981E+05 -4.376907E+04 -1.068959E+03  7.623297E-10  1.694066E-09
        94  18 -1.222223E+05 -1.019295E+05 -4.483036E+04 -1.110733E+03  0.000000E+00 -5.082198E-10
        94  19 -1.041188E+05 -1.025159E+05 -4.132695E+04 -3.982346E+02 -3.388132E-10  4.743385E-09
        94  20 -1.129185E+05 -1.035871E+05 -4.330113E+04 -5.685797E+02 -4.150461E-09  8.131516E-09
        94  21 -1.194790E+05 -1.035949E+05 -4.461477E+04 -1.652745E+03 -7.199780E-10 -5.082198E-09
        94  22 -1.075166E+05 -1.022716E+05 -4.195764E+04 -7.105985E+02  0.000000E+00 -8.131516E-09
        94  23 -1.148508E+05 -1.028429E+05 -4.353876E+04 -9.621465E+02  1.355253E-09 -2.710505E-09
        94  24 -1.218779E+05 -1.029892E+05 -4.497343E+04 -1.436788E+03  5.929231E-10  4.743385E-09
        94  25 -1.125411E+05 -1.028743E+05 -4.308307E+04 -3.604527E+02  1.355253E-09  0.000000E+00
        94  26 -1.165473E+05 -1.022981E+05 -4.376907E+04 -1.068959E+03  6.776264E-10  0.000000E+00
        94  27 -1.222223E+05 -1.019295E+05 -4.483036E+04 -1.110733E+03 -3.726945E-09  3.049319E-09
        95   1 -1.243773E+05 -1.036776E+05 -4.561098E+04 -1.272218E+03  1.355253E-09  2.032879E-09
        95   2 -1.344087E+05 -1.041311E+05 -4.770795E+04 -2.993130E+03 -8.470329E-11  2.371692E-09
        95   3 -1.438869E+05 -1.041926E+05 -4.961590E+04 -4.987340E+03 -1.058791E-10 -7.623297E-10
        95   4 -1.241355E+05 -1.031304E+05 -4.545320E+04 -8.747636E+02  1.355253E-09  0.000000E+00
        95   5 -1.307529E+05 -1.037052E+05 -4.689162E+04 -1.973868E+03 -4.404571E-09 -6.776264E-09
        95   6 -1.385651E+05 -1.030277E+05 -4.831855E+04 -3.428917E+03  1.101143E-09 -3.726945E-09
        95   7 -1.254103E+05 -1.031553E+05 -4.571312E+04 -1.038438E+03 -1.355253E-09  2.710505E-09
        95   8 -1.271135E+05 -1.032841E+05 -4.607952E+04 -9.628179E+02  0.000000E+00  0.000000E+00
        95   9 -1.330175E+05 -1.011867E+05 -4.684085E+04 -1.571941E+03  3.218725E-09  4.404571E-09
        95  10 -1.243773E+05 -1.036776E+05 -4.561098E+04 -1.272218E+03  0.000000E+00 -6.776264E-10
        95  11 -1.344087E+05 -1.041311E+05 -4.770795E+04 -2.993130E+03 -1.694066E-10 -3.388132E-10
        95  12 -1.438869E+05 -1.041926E+05 -4.961590E+04 -4.987340E+03  6.352747E-11  1.863472E-09
        95  13 -1.241355E+05 -1.031304E+05 -4.545320E+04 -8.747636E+02  6.776264E-10  1.355253E-09
        95  14 -1.307529E+05 -1.037052E+05 -4.689162E+04 -1.973868E+03 -1.694066E-10  0.000000E+00
        95  15 -1.385651E+05 -1.030277E+05 -4.831855E+04 -3.428917E+03 -4.235165E-11 -1.524659E-09
        95  16 -1.254103E+05 -1.031553E+05 -4.571312E+04 -1.038438E+03  0.000000E+00  0.000000E+00
        95  17 -1.271135E+05 -1.032841E+05 -4.607952E+04 -9.628179E+02 -5.929231E-10  1.355253E-09
        95  18 -1.330175E+05 -1.011867E+05 -4.684085E+04 -1.571941E+03 -4.235165E-11  1.270549E-09
        95  19 -1.243773E+05 -1.036776E+05 -4.561098E+04 -1.272218E+03 -1.355253E-09 -2.032879E-09
        95  20 -1.344087E+05 -1.041311E+05 -4.770795E+04 -2.993130E+03 -1.270549E-09 -2.371692E-09
        95  21 -1.438869E+05 -1.041926E+05 -4.961590E+04 -4.987340E+03 -1.249374E-09 -4.658681E-09
        95  22 -1.241355E+05 -1.031304E+05 -4.545320E+04 -8.747636E+02  0.000000E+00  1.084202E-08
        95  23 -1.307529E+05 -1.037052E+05 -4.689162E+04 -1.973868E+03  1.694066E-09 -4.065758E-09
        95  24 -1.385651E+05 -1.030277E+05 -4.831855E+04 -3.428917E+03 -1.101143E-09  3.726945E-09
        95  25 -1.254103E+05 -1.031553E+05 -4.571312E+04 -1.038438E+03  1.355253E-09 -8.131516E-09
        95  26 -1.271135E+05 -1.032841E+05 -4.607952E+04 -9.628179E+02  0.000000E+00  5.421011E-09
        95  27 -1.330175E+05 -1.011867E+05 -4.684085E+04 -1.571941E+03 -1.863472E-09  1.016440E-09
        96   1 -1.149720E+05 -1.020704E+05 -4.340848E+04 -6.041178E+02 -1.016440E-09 -7.453890E-09
        96   2 -1.185480E+05 -1.023782E+05 -4.418523E+04 -9.500874E+02  5.929231E-10  2.371692E-09
        96   3 -1.220741E+05 -1.033784E+05 -4.509051E+04 -1.222599E+03  7.199780E-10 -7.538593E-09
        96   4 -1.187317E+05 -1.020223E+05 -4.415081E+04 -2.352001E+02  3.388132E-09 -1.084202E-08
        96   5 -1.228534E+05 -1.020589E+05 -4.498247E+04 -5.463349E+02 -1.355253E-09  1.355253E-09
        96   6 -1.271912E+05 -1.024894E+05 -4.593613E+04 -6.864552E+02  0.000000E+00  3.388132E-10
        96   7 -1.206580E+05 -1.015545E+05 -4.444250E+04 -1.368668E+02  2.710505E-09 -8.131516E-09
        96   8 -1.246007E+05 -1.012773E+05 -4.517561E+04 -5.015926E+02  1.355253E-09  8.131516E-09
        96   9 -1.286419E+05 -1.011945E+05 -4.596728E+04 -6.697783E+02  2.710505E-09 -4.743385E-09
        96  10 -1.149720E+05 -1.020704E+05 -4.340848E+04 -6.041178E+02  1.694066E-10 -6.776264E-10
        96  11 -1.185480E+05 -1.023782E+05 -4.418523E+04 -9.500874E+02 -3.388132E-10  0.000000E+00
        96  12 -1.220741E+05 -1.033784E+05 -4.509051E+04 -1.222599E+03  4.235165E-11  5.929231E-10
        96  13 -1.187317E+05 -1.020223E+05 -4.415081E+04 -2.352001E+02 -3.388132E-10 -1.355253E-09
        96  14 -1.228534E+05 -1.020589E+05 -4.498247E+04 -5.463349E+02  5.082198E-10  3.388132E-09
        96  15 -1.271912E+05 -1.024894E+05 -4.593613E+04 -6.864552E+02 -2.964615E-10 -2.032879E-09
        96  16 -1.206580E+05 -1.015545E+05 -4.444250E+04 -1.368668E+02  0.000000E+00  6.776264E-10
        96  17 -1.246007E+05 -1.012773E+05 -4.517561E+04 -5.015926E+02  1.694066E-10 -1.355253E-09
        96  18 -1.286419E+05 -1.011945E+05 -4.596728E+04 -6.697783E+02 -6.352747E-11  5.929231E-10
        96  19 -1.149720E+05 -1.020704E+05 -4.340848E+04 -6.041178E+02  1.016440E-09  2.032879E-09
        96  20 -1.185480E+05 -1.023782E+05 -4.418523E+04 -9.500874E+02  7.623297E-10  8.470329E-09
        96  21 -1.220741E+05 -1.033784E+05 -4.509051E+04 -1.222599E+03 -7.199780E-10  7.538593E-09
        96  22 -1.187317E+05 -1.020223E+05 -4.415081E+04 -2.352001E+02  6.776264E-10  5.421011E-09
        96  23 -1.228534E+05 -1.020589E+05 -4.498247E+04 -5.463349E+02  0.000000E+00  4.065758E-09
        96  24 -1.271912E+05 -1.024894E+05 -4.593613E+04 -6.864552E+02  2.710505E-09 -5.759824E-09
        96  25 -1.206580E+05 -1.015545E+05 -4.444250E+04 -1.368668E+02 -1.355253E-09  8.131516E-09
        96  26 -1.246007E+05 -1.012773E+05 -4.517561E+04 -5.015926E+02 -1.355253E-09  8.131516E-09
        96  27 -1.286419E+05 -1.011945E+05 -4.596728E+04 -6.697783E+02 -1.355253E-09 -6.776264E-10
        97   1 -1.164722E+05 -1.163193E+05 -4.655830E+04  1.753324E+04 -4.288104E-10  4.910144E-10
        97   2 -1.120138E+05 -1.061241E+05 -4.362759E+04  1.515402E+04 -2.805797E-10  3.937380E-10
        97   3 -1.075839E+05 -1.124889E+05 -4.401457E+04  7.741995E+03 -4.076346E-10  4.792684E-10
        97   4 -1.173601E+05 -1.196844E+05 -4.740890E+04  8.991919E+03 -2.964615E-10  4.605742E-10
        97   5 -1.124173E+05 -1.102929E+05 -4.454204E+04  7.707691E+03  2.117582E-11  1.852885E-11
        97   6 -1.103231E+05 -1.091572E+05 -4.389607E+04  2.974015E+03 -3.705769E-10  4.374131E-10
        97   7 -1.181421E+05 -1.000830E+05 -4.364502E+04  5.625111E+03 -3.599890E-10  4.023406E-10
        97   8 -1.100702E+05 -1.011475E+05 -4.224353E+04  4.161859E+03 -2.541099E-10  3.599890E-10
        97   9 -1.077778E+05 -1.030158E+05 -4.215872E+04  1.028065E+03 -2.991085E-10  4.446923E-10
        97  10 -1.164722E+05 -1.163193E+05 -4.655830E+04  1.753324E+04  5.293956E-12  0.000000E+00
        97  11 -1.120138E+05 -1.061241E+05 -4.362759E+04  1.515402E+04  2.646978E-12 -3.308722E-12
        97  12 -1.075839E+05 -1.124889E+05 -4.401457E+04  7.741995E+03  3.308722E-12 -4.963084E-13
        97  13 -1.173601E+05 -1.196844E+05 -4.740890E+04  8.991919E+03  0.000000E+00  2.646978E-12
        97  14 -1.124173E+05 -1.102929E+05 -4.454204E+04  7.707691E+03  5.293956E-12  2.646978E-12
        97  15 -1.103231E+05 -1.091572E+05 -4.389607E+04  2.974015E+03 -1.323489E-12 -5.955700E-12
        97  16 -1.181421E+05 -1.000830E+05 -4.364502E+04  5.625111E+03 -5.293956E-12 -2.646978E-12
        97  17 -1.100702E+05 -1.011475E+05 -4.224353E+04  4.161859E+03  2.646978E-12 -4.632211E-12
        97  18 -1.077778E+05 -1.030158E+05 -4.215872E+04  1.028065E+03  3.308722E-12  6.617445E-13
        97  19 -1.164722E+05 -1.163193E+05 -4.655830E+04  1.753324E+04  4.288104E-10 -5.016023E-10
        97  20 -1.120138E+05 -1.061241E+05 -4.362759E+04  1.515402E+04  3.652830E-10 -3.937380E-10
        97  21 -1.075839E+05 -1.124889E+05 -4.401457E+04  7.741995E+03  4.076346E-10 -4.792684E-10
        97  22 -1.173601E+05 -1.196844E+05 -4.740890E+04  8.991919E+03  3.388132E-10 -4.605742E-10
        97  23 -1.124173E+05 -1.102929E+05 -4.454204E+04  7.707691E+03  6.352747E-11 -7.940934E-12
        97  24 -1.103231E+05 -1.091572E+05 -4.389607E+04  2.974015E+03  2.858736E-10 -4.480010E-10
        97  25 -1.181421E+05 -1.000830E+05 -4.364502E+04  5.625111E+03  2.752857E-10 -4.023406E-10
        97  26 -1.100702E+05 -1.011475E+05 -4.224353E+04  4.161859E+03  2.752857E-10 -3.811648E-10
        97  27 -1.077778E+05 -1.030158E+05 -4.215872E+04  1.028065E+03  3.202843E-10 -4.446923E-10
        98   1 -1.115236E+05 -1.082131E+05 -4.394732E+04  1.545470E+03 -3.308722E-10  4.804265E-10
        98   2 -1.007947E+05 -9.992734E+04 -4.014441E+04  1.220277E+03 -4.023406E-10  3.910910E-10
        98   3 -9.831635E+04 -9.832948E+04 -3.932917E+04 -3.591578E+03 -4.774486E-10  3.833155E-10
        98   4 -1.089356E+05 -1.028847E+05 -4.236407E+04  7.013082E+02 -3.070494E-10  3.494011E-10
        98   5 -9.973454E+04 -9.933804E+04 -3.981452E+04 -6.297141E+02  5.293956E-12  2.646978E-12
        98   6 -9.813432E+04 -9.853360E+04 -3.933358E+04 -5.145003E+03 -4.261635E-10  3.791796E-10
        98   7 -1.042094E+05 -9.107082E+04 -3.905605E+04  1.850061E+03 -3.599890E-10  4.023406E-10
        98   8 -9.800469E+04 -9.730475E+04 -3.906189E+04 -1.974818E+03 -3.599890E-10  3.599890E-10
        98   9 -9.793082E+04 -9.885456E+04 -3.935708E+04 -6.600840E+03 -4.711621E-10  4.393983E-10
        98  10 -1.115236E+05 -1.082131E+05 -4.394732E+04  1.545470E+03  2.646978E-12  2.646978E-12
        98  11 -1.007947E+05 -9.992734E+04 -4.014441E+04  1.220277E+03 -2.646978E-12 -2.646978E-12
        98  12 -9.831635E+04 -9.832948E+04 -3.932917E+04 -3.591578E+03 -1.985233E-12  1.488925E-12
        98  13 -1.089356E+05 -1.028847E+05 -4.236407E+04  7.013082E+02  1.058791E-11  0.000000E+00
        98  14 -9.973454E+04 -9.933804E+04 -3.981452E+04 -6.297141E+02  5.293956E-12 -2.646978E-12
        98  15 -9.813432E+04 -9.853360E+04 -3.933358E+04 -5.145003E+03  0.000000E+00 -5.293956E-12
        98  16 -1.042094E+05 -9.107082E+04 -3.905605E+04  1.850061E+03  2.646978E-12  2.646978E-12
        98  17 -9.800469E+04 -9.730475E+04 -3.906189E+04 -1.974818E+03  2.646978E-12  2.646978E-12
        98  18 -9.793082E+04 -9.885456E+04 -3.935708E+04 -6.600840E+03 -3.308722E-13  2.481542E-12
        98  19 -1.115236E+05 -1.082131E+05 -4.394732E+04  1.545470E+03  3.520481E-10 -4.486628E-10
        98  20 -1.007947E+05 -9.992734E+04 -4.014441E+04  1.220277E+03  3.811648E-10 -4.122668E-10
        98  21 -9.831635E+04 -9.832948E+04 -3.932917E+04 -3.591578E+03  4.774486E-10 -4.256671E-10
        98  22 -1.089356E+05 -1.028847E+05 -4.236407E+04  7.013082E+02  3.070494E-10 -3.917527E-10
        98  23 -9.973454E+04 -9.933804E+04 -3.981452E+04 -6.297141E+02 -5.293956E-12 -2.646978E-12
        98  24 -9.813432E+04 -9.853360E+04 -3.933358E+04 -5.145003E+03  4.049876E-10 -4.003554E-10
        98  25 -1.042094E+05 -9.107082E+04 -3.905605E+04  1.850061E+03  3.599890E-10 -3.811648E-10
        98  26 -9.800469E+04 -9.730475E+04 -3.906189E+04 -1.974818E+03  3.917527E-10 -3.811648E-10
        98  27 -9.793082E+04 -9.885456E+04 -3.935708E+04 -6.600840E+03  4.764560E-10 -4.499863E-10
        99   1 -1.066324E+05 -9.512614E+04 -4.035170E+04  3.403290E+03 -3.467541E-10  3.791796E-10
        99   2 -1.058370E+05 -9.587428E+04 -4.034226E+04  1.854971E+03 -2.723079E-10  3.646212E-10
        99   3 -1.062301E+05 -1.007037E+05 -4.138677E+04 -1.711379E+03 -3.755814E-10  4.458504E-10
        99   4 -1.027985E+05 -9.945224E+04 -4.045015E+04 -5.887238E+03 -3.599890E-10  3.970467E-10
        99   5 -1.024690E+05 -9.626806E+04 -3.974741E+04 -4.782457E+03  1.654361E-11  1.852885E-11
        99   6 -1.028080E+05 -9.304227E+04 -3.917005E+04 -3.517707E+03 -3.679299E-10  3.222696E-10
        99   7 -9.049086E+04 -9.363161E+04 -3.682449E+04 -9.654560E+03 -4.843970E-10  4.076346E-10
        99   8 -9.122452E+04 -9.725482E+04 -3.769587E+04 -8.686276E+03 -4.420453E-10  3.811648E-10
        99   9 -9.253946E+04 -1.024697E+05 -3.900184E+04 -7.303963E+03 -5.035876E-10  4.791030E-10
        99  10 -1.066324E+05 -9.512614E+04 -4.035170E+04  3.403290E+03  2.646978E-12  1.323489E-12
        99  11 -1.058370E+05 -9.587428E+04 -4.034226E+04  1.854971E+03 -7.940934E-12 -2.646978E-12
        99  12 -1.062301E+05 -1.007037E+05 -4.138677E+04 -1.711379E+03 -3.639595E-12 -2.977850E-12
        99  13 -1.027985E+05 -9.945224E+04 -4.045015E+04 -5.887238E+03  0.000000E+00  0.000000E+00
        99  14 -1.024690E+05 -9.626806E+04 -3.974741E+04 -4.782457E+03 -5.293956E-12 -2.646978E-12
        99  15 -1.028080E+05 -9.304227E+04 -3.917005E+04 -3.517707E+03 -1.985233E-12 -1.985233E-12
        99  16 -9.049086E+04 -9.363161E+04 -3.682449E+04 -9.654560E+03  0.000000E+00  0.000000E+00
        99  17 -9.122452E+04 -9.725482E+04 -3.769587E+04 -8.686276E+03  0.000000E+00 -3.970467E-12
        99  18 -9.253946E+04 -1.024697E+05 -3.900184E+04 -7.303963E+03 -9.926167E-13 -9.926167E-13
        99  19 -1.066324E+05 -9.512614E+04 -4.035170E+04  3.403290E+03  3.467541E-10 -4.109433E-10
        99  20 -1.058370E+05 -9.587428E+04 -4.034226E+04  1.854971E+03  3.358353E-10 -3.540333E-10
        99  21 -1.062301E+05 -1.007037E+05 -4.138677E+04 -1.711379E+03  3.544055E-10 -4.458504E-10
        99  22 -1.027985E+05 -9.945224E+04 -4.045015E+04 -5.887238E+03  3.811648E-10 -3.970467E-10
        99  23 -1.024690E+05 -9.626806E+04 -3.974741E+04 -4.782457E+03  4.632211E-12  2.646978E-12
        99  24 -1.028080E+05 -9.304227E+04 -3.917005E+04 -3.517707E+03  3.467541E-10 -3.646212E-10
        99  25 -9.049086E+04 -9.363161E+04 -3.682449E+04 -9.654560E+03  4.791030E-10 -4.076346E-10
        99  26 -9.122452E+04 -9.725482E+04 -3.769587E+04 -8.686276E+03  4.473393E-10 -3.811648E-10
        99  27 -9.253946E+04 -1.024697E+05 -3.900184E+04 -7.303963E+03  5.035876E-10 -4.791030E-10
       100   1 -8.891269E+04 -9.741889E+04 -3.726632E+04 -1.128566E+04 -4.764560E-10  4.539567E-10
       100   2 -8.494808E+04 -9.919326E+04 -3.682827E+04 -1.329857E+04 -4.499863E-10  3.977084E-10
       100   3 -8.095769E+04 -1.008485E+05 -3.636124E+04 -1.531190E+04 -5.333661E-10  4.767869E-10
       100   4 -1.001636E+05 -9.219883E+04 -3.847248E+04 -4.443588E+03 -3.388132E-10  3.599890E-10
       100   5 -9.572790E+04 -9.306192E+04 -3.775796E+04 -7.165627E+03 -2.117582E-11  7.940934E-12
       100   6 -9.079453E+04 -9.119776E+04 -3.639846E+04 -9.514413E+03 -3.785178E-10  3.507246E-10
       100   7 -1.215510E+05 -9.915918E+04 -4.414204E+04 -4.218260E+03 -2.964615E-10  3.811648E-10
       100   8 -1.164202E+05 -9.287952E+04 -4.185995E+04 -6.233758E+03 -1.799945E-10  3.599890E-10
       100   9 -1.098800E+05 -7.567684E+04 -3.711137E+04 -6.371256E+03 -2.249931E-10  2.832266E-10
       100  10 -8.891269E+04 -9.741889E+04 -3.726632E+04 -1.128566E+04  0.000000E+00 -1.323489E-12
       100  11 -8.494808E+04 -9.919326E+04 -3.682827E+04 -1.329857E+04  0.000000E+00  6.617445E-13
       100  12 -8.095769E+04 -1.008485E+05 -3.636124E+04 -1.531190E+04 -3.308722E-13 -1.488925E-12
       100  13 -1.001636E+05 -9.219883E+04 -3.847248E+04 -4.443588E+03  0.000000E+00  5.293956E-12
       100  14 -9.572790E+04 -9.306192E+04 -3.775796E+04 -7.165627E+03 -2.646978E-12 -5.293956E-12
       100  15 -9.079453E+04 -9.119776E+04 -3.639846E+04 -9.514413E+03  6.617445E-13  6.617445E-13
       100  16 -1.215510E+05 -9.915918E+04 -4.414204E+04 -4.218260E+03  0.000000E+00 -1.323489E-12
       100  17 -1.164202E+05 -9.287952E+04 -4.185995E+04 -6.233758E+03  6.617445E-12 -1.323489E-12
       100  18 -1.098800E+05 -7.567684E+04 -3.711137E+04 -6.371256E+03 -1.985233E-12  1.488925E-12
       100  19 -8.891269E+04 -9.741889E+04 -3.726632E+04 -1.128566E+04  4.764560E-10 -4.433688E-10
       100  20 -8.494808E+04 -9.919326E+04 -3.682827E+04 -1.329857E+04  4.552802E-10 -4.030024E-10
       100  21 -8.095769E+04 -1.008485E+05 -3.636124E+04 -1.531190E+04  5.307191E-10 -4.661990E-10
       100  22 -1.001636E+05 -9.219883E+04 -3.847248E+04 -4.443588E+03  3.388132E-10 -3.599890E-10
       100  23 -9.572790E+04 -9.306192E+04 -3.775796E+04 -7.165627E+03 -2.117582E-11  1.323489E-11
       100  24 -9.079453E+04 -9.119776E+04 -3.639846E+04 -9.514413E+03  3.679299E-10 -3.507246E-10
       100  25 -1.215510E+05 -9.915918E+04 -4.414204E+04 -4.218260E+03  2.541099E-10 -3.811648E-10
       100  26 -1.164202E+05 -9.287952E+04 -4.185995E+04 -6.233758E+03  2.011703E-10 -3.494011E-10
       100  27 -1.098800E+05 -7.567684E+04 -3.711137E+04 -6.371256E+03  2.038173E-10 -2.832266E-10
       101   1 -6.913511E+04 -1.070212E+05 -3.523125E+04 -1.485199E+04 -5.982170E-10  5.280721E-10
       101   2 -6.727649E+04 -9.713708E+04 -3.288271E+04 -1.810884E+04 -4.949849E-10  4.182225E-10
       101   3 -6.669101E+04 -8.998602E+04 -3.133541E+04 -2.034387E+04 -5.145063E-10  4.279832E-10
       101   4 -9.905642E+04 -8.434524E+04 -3.668033E+04 -1.370628E+04 -2.858736E-10  2.964615E-10
       101   5 -9.636367E+04 -9.069292E+04 -3.741132E+04 -1.476534E+04  0.000000E+00 -2.646978E-12
       101   6 -9.551023E+04 -9.675139E+04 -3.845232E+04 -1.560749E+04 -3.110199E-10  3.738856E-10
       101   7 -1.094741E+05 -9.098252E+04 -4.009133E+04 -9.826496E+03 -2.541099E-10  3.811648E-10
       101   8 -1.100380E+05 -8.564479E+04 -3.913656E+04 -4.840831E+03 -2.541099E-10  2.858736E-10
       101   9 -1.116423E+05 -8.663741E+04 -3.965594E+04 -2.244827E+03 -2.408750E-10  3.573420E-10
       101  10 -6.913511E+04 -1.070212E+05 -3.523125E+04 -1.485199E+04  0.000000E+00  0.000000E+00
       101  11 -6.727649E+04 -9.713708E+04 -3.288271E+04 -1.810884E+04 -6.617445E-13  1.985233E-12
       101  12 -6.669101E+04 -8.998602E+04 -3.133541E+04 -2.034387E+04 -4.963084E-13 -6.617445E-13
       101  13 -9.905642E+04 -8.434524E+04 -3.668033E+04 -1.370628E+04  0.000000E+00  2.646978E-12
       101  14 -9.636367E+04 -9.069292E+04 -3.741132E+04 -1.476534E+04 -7.940934E-12  0.000000E+00
       101  15 -9.551023E+04 -9.675139E+04 -3.845232E+04 -1.560749E+04  6.617445E-13  0.000000E+00
       101  16 -1.094741E+05 -9.098252E+04 -4.009133E+04 -9.826496E+03  5.293956E-12  1.323489E-12
       101  17 -1.100380E+05 -8.564479E+04 -3.913656E+04 -4.840831E+03 -8.602678E-12  3.308722E-12
       101  18 -1.116423E+05 -8.663741E+04 -3.965594E+04 -2.244827E+03  5.128520E-12  3.308722E-13
       101  19 -6.913511E+04 -1.070212E+05 -3.523125E+04 -1.485199E+04  6.035110E-10 -5.333661E-10
       101  20 -6.727649E+04 -9.713708E+04 -3.288271E+04 -1.810884E+04  4.923379E-10 -4.235165E-10
       101  21 -6.669101E+04 -8.998602E+04 -3.133541E+04 -2.034387E+04  5.092124E-10 -4.293067E-10
       101  22 -9.905642E+04 -8.434524E+04 -3.668033E+04 -1.370628E+04  2.964615E-10 -3.070494E-10
       101  23 -9.636367E+04 -9.069292E+04 -3.741132E+04 -1.476534E+04  0.000000E+00  2.646978E-12
       101  24 -9.551023E+04 -9.675139E+04 -3.845232E+04 -1.560749E+04  3.216078E-10 -3.791796E-10
       101  25 -1.094741E+05 -9.098252E+04 -4.009133E+04 -9.826496E+03  2.541099E-10 -3.917527E-10
       101  26 -1.100380E+05 -8.564479E+04 -3.913656E+04 -4.840831E+03  2.541099E-10 -2.858736E-10
       101  27 -1.116423E+05 -8.663741E+04 -3.965594E+04 -2.244827E+03  2.620508E-10 -3.361662E-10
       102   1 -1.153209E+05 -1.080562E+05 -4.467541E+04  4.793887E+03 -3.970467E-10  4.582581E-10
       102   2 -1.140374E+05 -1.090888E+05 -4.462524E+04 -4.849110E+02 -3.044025E-10  3.907601E-10
       102   3 -1.141229E+05 -9.490153E+04 -4.180489E+04 -4.491790E+03 -2.891823E-10  3.923318E-10
       102   4 -1.125153E+05 -9.990458E+04 -4.248398E+04  1.521369E+04 -2.964615E-10  3.652830E-10
       102   5 -1.165270E+05 -1.073284E+05 -4.477109E+04  5.698666E+03  4.235165E-11 -1.323489E-11
       102   6 -1.218102E+05 -8.717807E+04 -4.179764E+04 -1.930373E+02 -1.905824E-10  3.047333E-10
       102   7 -1.116065E+05 -1.178852E+05 -4.589833E+04  1.893617E+04 -5.505714E-10  5.188077E-10
       102   8 -1.202721E+05 -1.214017E+05 -4.833476E+04  7.580443E+03 -2.752857E-10  4.552802E-10
       102   9 -1.299008E+05 -8.578604E+04 -4.313737E+04  2.216526E+03 -1.905824E-10  3.186300E-10
       102  10 -1.153209E+05 -1.080562E+05 -4.467541E+04  4.793887E+03  0.000000E+00  0.000000E+00
       102  11 -1.140374E+05 -1.090888E+05 -4.462524E+04 -4.849110E+02 -2.646978E-12 -6.617445E-13
       102  12 -1.141229E+05 -9.490153E+04 -4.180489E+04 -4.491790E+03  3.970467E-12 -1.654361E-13
       102  13 -1.125153E+05 -9.990458E+04 -4.248398E+04  1.521369E+04 -1.058791E-11  2.646978E-12
       102  14 -1.165270E+05 -1.073284E+05 -4.477109E+04  5.698666E+03  2.646978E-11 -3.970467E-12
       102  15 -1.218102E+05 -8.717807E+04 -4.179764E+04 -1.930373E+02  1.323489E-11 -9.926167E-13
       102  16 -1.116065E+05 -1.178852E+05 -4.589833E+04  1.893617E+04 -5.293956E-12 -1.323489E-12
       102  17 -1.202721E+05 -1.214017E+05 -4.833476E+04  7.580443E+03 -5.293956E-12 -3.970467E-12
       102  18 -1.299008E+05 -8.578604E+04 -4.313737E+04  2.216526E+03 -3.970467E-12 -4.963084E-13
       102  19 -1.153209E+05 -1.080562E+05 -4.467541E+04  4.793887E+03  3.123434E-10 -4.582581E-10
       102  20 -1.140374E+05 -1.090888E+05 -4.462524E+04 -4.849110E+02  2.832266E-10 -4.013480E-10
       102  21 -1.141229E+05 -9.490153E+04 -4.180489E+04 -4.491790E+03  2.891823E-10 -3.923318E-10
       102  22 -1.125153E+05 -9.990458E+04 -4.248398E+04  1.521369E+04  3.388132E-10 -3.652830E-10
       102  23 -1.165270E+05 -1.073284E+05 -4.477109E+04  5.698666E+03 -4.235165E-11  2.646978E-12
       102  24 -1.218102E+05 -8.717807E+04 -4.179764E+04 -1.930373E+02  2.117582E-10 -2.835575E-10
       102  25 -1.116065E+05 -1.178852E+05 -4.589833E+04  1.893617E+04  4.658681E-10 -5.082198E-10
       102  26 -1.202721E+05 -1.214017E+05 -4.833476E+04  7.580443E+03  2.752857E-10 -4.552802E-10
       102  27 -1.299008E+05 -8.578604E+04 -4.313737E+04  2.216526E+03  1.905824E-10 -3.186300E-10
