    1C
    1UUSER                                                              
    1UDATE              03.april.2020                                   
    1UTIME              21:10:22                                        
    1UHOST                                                              
    1UPGM               CalculiX                                        
    1UVERSION           Version 2.16                             
    1UCOMPILETIME       Mo 25. Nov 18:56:47 CET 2019                    
    1UDIR                                                               
    1UDBN                                                               
    1UMAT    1CONCRETE                                                  
    2C                           367                                     1
 -1         1 0.00000E+00 0.00000E+00 0.00000E+00
 -1         2 2.43840E+00 0.00000E+00 0.00000E+00
 -1         3 6.70560E+00 3.65760E+00 0.00000E+00
 -1         4 3.32232E+01 4.12047E+00 0.00000E+00
 -1         5 3.50520E+01 4.15239E+00 0.00000E+00
 -1         6 3.50520E+01 8.41959E+00 0.00000E+00
 -1         8 6.70560E+00 2.22504E+01 0.00000E+00
 -1        10 4.26720E+00 2.98704E+01 0.00000E+00
 -1        11 6.09600E-01 3.35280E+01 0.00000E+00
 -1        12 0.00000E+00 3.35280E+01 0.00000E+00
 -1        13 6.09600E-01 0.00000E+00 0.00000E+00
 -1        14 1.21920E+00 0.00000E+00 0.00000E+00
 -1        15 1.82880E+00 0.00000E+00 0.00000E+00
 -1        16 3.04800E-01 0.00000E+00 0.00000E+00
 -1        17 9.14400E-01 0.00000E+00 0.00000E+00
 -1        18 1.52400E+00 0.00000E+00 0.00000E+00
 -1        19 2.13360E+00 0.00000E+00 0.00000E+00
 -1        20 3.50520E+00 9.14400E-01 0.00000E+00
 -1        21 4.57200E+00 1.82880E+00 0.00000E+00
 -1        22 5.63880E+00 2.74320E+00 0.00000E+00
 -1        23 2.97180E+00 4.57200E-01 0.00000E+00
 -1        24 4.03860E+00 1.37160E+00 0.00000E+00
 -1        25 5.10540E+00 2.28600E+00 0.00000E+00
 -1        26 6.17220E+00 3.20040E+00 0.00000E+00
 -1        27 1.00203E+01 3.71546E+00 0.00000E+00
 -1        28 1.33350E+01 3.77332E+00 0.00000E+00
 -1        29 1.66497E+01 3.83118E+00 0.00000E+00
 -1        30 1.99644E+01 3.88903E+00 0.00000E+00
 -1        31 2.32791E+01 3.94689E+00 0.00000E+00
 -1        32 2.65938E+01 4.00475E+00 0.00000E+00
 -1        33 2.99085E+01 4.06261E+00 0.00000E+00
 -1        34 8.36295E+00 3.68653E+00 0.00000E+00
 -1        35 1.16777E+01 3.74439E+00 0.00000E+00
 -1        36 1.49923E+01 3.80225E+00 0.00000E+00
 -1        37 1.83071E+01 3.86010E+00 0.00000E+00
 -1        38 2.16217E+01 3.91796E+00 0.00000E+00
 -1        39 2.49364E+01 3.97582E+00 0.00000E+00
 -1        40 2.82512E+01 4.03368E+00 0.00000E+00
 -1        41 3.15658E+01 4.09154E+00 0.00000E+00
 -1        42 3.36804E+01 4.12845E+00 0.00000E+00
 -1        43 3.41376E+01 4.13643E+00 0.00000E+00
 -1        44 3.45948E+01 4.14441E+00 0.00000E+00
 -1        45 3.34518E+01 4.12446E+00 0.00000E+00
 -1        46 3.39090E+01 4.13244E+00 0.00000E+00
 -1        47 3.43662E+01 4.14042E+00 0.00000E+00
 -1        48 3.48234E+01 4.14840E+00 0.00000E+00
 -1        49 3.50520E+01 5.21919E+00 0.00000E+00
 -1        50 3.50520E+01 6.28599E+00 0.00000E+00
 -1        51 3.50520E+01 7.35279E+00 0.00000E+00
 -1        52 3.50520E+01 4.68579E+00 0.00000E+00
 -1        53 3.50520E+01 5.75259E+00 0.00000E+00
 -1        54 3.50520E+01 6.81939E+00 0.00000E+00
 -1        55 3.50520E+01 7.88619E+00 0.00000E+00
 -1        56 3.24397E+01 8.93301E+00 0.00000E+00
 -1        57 2.98548E+01 9.57049E+00 0.00000E+00
 -1        58 2.73033E+01 1.03306E+01 0.00000E+00
 -1        59 2.47909E+01 1.12115E+01 0.00000E+00
 -1        60 2.23235E+01 1.22113E+01 0.00000E+00
 -1        61 1.99065E+01 1.33277E+01 0.00000E+00
 -1        62 1.75456E+01 1.45582E+01 0.00000E+00
 -1        63 1.52460E+01 1.58999E+01 0.00000E+00
 -1        64 1.30132E+01 1.73498E+01 0.00000E+00
 -1        65 1.08520E+01 1.89045E+01 0.00000E+00
 -1        66 8.76743E+00 2.05606E+01 0.00000E+00
 -1        67 3.37428E+01 8.66071E+00 0.00000E+00
 -1        68 3.11434E+01 9.23633E+00 0.00000E+00
 -1        69 2.85745E+01 9.93531E+00 0.00000E+00
 -1        70 2.60418E+01 1.07561E+01 0.00000E+00
 -1        71 2.35512E+01 1.16967E+01 0.00000E+00
 -1        72 2.11083E+01 1.27551E+01 0.00000E+00
 -1        73 1.87187E+01 1.39289E+01 0.00000E+00
 -1        74 1.63878E+01 1.52153E+01 0.00000E+00
 -1        75 1.41209E+01 1.66115E+01 0.00000E+00
 -1        76 1.19233E+01 1.81142E+01 0.00000E+00
 -1        77 9.79982E+00 1.97201E+01 0.00000E+00
 -1        78 7.75539E+00 2.14255E+01 0.00000E+00
 -1        79 5.38402E+00 2.38623E+01 0.00000E+00
 -1        80 4.49953E+00 2.57497E+01 0.00000E+00
 -1        81 4.10651E+00 2.77967E+01 0.00000E+00
 -1        82 5.99467E+00 2.30152E+01 0.00000E+00
 -1        83 4.88306E+00 2.47785E+01 0.00000E+00
 -1        84 4.23934E+00 2.67610E+01 0.00000E+00
 -1        85 4.10307E+00 2.88409E+01 0.00000E+00
 -1        86 3.35280E+00 3.07848E+01 0.00000E+00
 -1        87 2.43840E+00 3.16992E+01 0.00000E+00
 -1        88 1.52400E+00 3.26136E+01 0.00000E+00
 -1        89 3.81000E+00 3.03276E+01 0.00000E+00
 -1        90 2.89560E+00 3.12420E+01 0.00000E+00
 -1        91 1.98120E+00 3.21564E+01 0.00000E+00
 -1        92 1.06680E+00 3.30708E+01 0.00000E+00
 -1        93 4.57200E-01 3.35280E+01 0.00000E+00
 -1        94 3.04800E-01 3.35280E+01 0.00000E+00
 -1        95 1.52400E-01 3.35280E+01 0.00000E+00
 -1        96 5.33400E-01 3.35280E+01 0.00000E+00
 -1        97 3.81000E-01 3.35280E+01 0.00000E+00
 -1        98 2.28600E-01 3.35280E+01 0.00000E+00
 -1        99 7.62000E-02 3.35280E+01 0.00000E+00
 -1       100 0.00000E+00 3.07340E+01 0.00000E+00
 -1       101 0.00000E+00 2.79400E+01 0.00000E+00
 -1       102 0.00000E+00 2.51460E+01 0.00000E+00
 -1       103 0.00000E+00 2.23520E+01 0.00000E+00
 -1       104 0.00000E+00 1.95580E+01 0.00000E+00
 -1       105 0.00000E+00 1.67640E+01 0.00000E+00
 -1       106 0.00000E+00 1.39700E+01 0.00000E+00
 -1       107 0.00000E+00 1.11760E+01 0.00000E+00
 -1       108 0.00000E+00 8.38200E+00 0.00000E+00
 -1       109 0.00000E+00 5.58800E+00 0.00000E+00
 -1       110 0.00000E+00 2.79400E+00 0.00000E+00
 -1       111 0.00000E+00 3.21310E+01 0.00000E+00
 -1       112 0.00000E+00 2.93370E+01 0.00000E+00
 -1       113 0.00000E+00 2.65430E+01 0.00000E+00
 -1       114 0.00000E+00 2.37490E+01 0.00000E+00
 -1       115 0.00000E+00 2.09550E+01 0.00000E+00
 -1       116 0.00000E+00 1.81610E+01 0.00000E+00
 -1       117 0.00000E+00 1.53670E+01 0.00000E+00
 -1       118 0.00000E+00 1.25730E+01 0.00000E+00
 -1       119 0.00000E+00 9.77900E+00 0.00000E+00
 -1       120 0.00000E+00 6.98500E+00 0.00000E+00
 -1       121 0.00000E+00 4.19100E+00 0.00000E+00
 -1       122 0.00000E+00 1.39700E+00 0.00000E+00
 -1       123 1.15984E+01 1.18873E+01 0.00000E+00
 -1       124 4.55946E+00 1.64557E+01 0.00000E+00
 -1       125 2.03979E+00 2.18097E+00 0.00000E+00
 -1       126 1.03627E+01 7.67683E+00 0.00000E+00
 -1       127 1.66168E+01 9.45417E+00 0.00000E+00
 -1       128 4.25844E+00 4.95116E+00 0.00000E+00
 -1       129 2.02474E+01 7.84832E+00 0.00000E+00
 -1       130 6.00355E+00 1.03587E+01 0.00000E+00
 -1       131 7.16934E+00 6.80677E+00 0.00000E+00
 -1       132 5.63253E+00 1.93531E+01 0.00000E+00
 -1       133 7.70572E+00 1.76801E+01 0.00000E+00
 -1       134 1.12252E+01 1.53959E+01 0.00000E+00
 -1       135 1.34222E+01 1.38936E+01 0.00000E+00
 -1       136 1.21920E+00 3.26136E+01 0.00000E+00
 -1       137 1.21920E+00 2.98196E+01 0.00000E+00
 -1       138 2.13360E+00 2.89052E+01 0.00000E+00
 -1       139 2.27973E+00 1.94039E+01 0.00000E+00
 -1       140 2.27973E+00 1.66099E+01 0.00000E+00
 -1       141 2.27973E+00 1.38159E+01 0.00000E+00
 -1       142 3.45948E+01 5.21121E+00 0.00000E+00
 -1       143 3.41376E+01 5.20323E+00 0.00000E+00
 -1       144 1.37160E+00 3.26136E+01 0.00000E+00
 -1       145 3.15390E+01 6.84548E+00 0.00000E+00
 -1       146 2.56924E+01 7.60814E+00 0.00000E+00
 -1       147 2.86059E+01 7.19659E+00 0.00000E+00
 -1       148 8.80100E+00 1.11230E+01 0.00000E+00
 -1       149 5.28150E+00 1.34072E+01 0.00000E+00
 -1       150 8.25336E+00 1.44016E+01 0.00000E+00
 -1       151 2.24977E+00 2.40508E+01 0.00000E+00
 -1       152 3.83187E+00 2.16331E+01 0.00000E+00
 -1       153 2.05325E+00 2.64713E+01 0.00000E+00
 -1       154 1.01989E+00 3.88449E+00 0.00000E+00
 -1       155 3.30589E+00 2.00488E+00 0.00000E+00
 -1       156 4.41522E+00 3.38998E+00 0.00000E+00
 -1       157 2.12922E+00 5.26958E+00 0.00000E+00
 -1       158 2.71756E+00 3.63723E+00 0.00000E+00
 -1       159 2.25191E+01 9.52993E+00 0.00000E+00
 -1       160 2.01059E+01 5.86868E+00 0.00000E+00
 -1       161 2.28991E+01 6.73841E+00 0.00000E+00
 -1       162 1.84321E+01 8.65124E+00 0.00000E+00
 -1       163 1.49759E+01 6.61374E+00 0.00000E+00
 -1       164 1.75409E+01 6.24121E+00 0.00000E+00
 -1       165 3.00177E+00 7.97337E+00 0.00000E+00
 -1       166 2.64075E+00 1.08946E+01 0.00000E+00
 -1       167 5.71389E+00 5.87897E+00 0.00000E+00
 -1       168 6.58645E+00 8.58276E+00 0.00000E+00
 -1       169 4.35783E+00 6.92617E+00 0.00000E+00
 -1       170 1.18489E+01 5.72507E+00 0.00000E+00
 -1       171 8.76604E+00 7.24180E+00 0.00000E+00
 -1       172 6.93747E+00 5.23218E+00 0.00000E+00
 -1       173 9.39317E+00 5.47863E+00 0.00000E+00
 -1       174 1.41076E+01 1.06707E+01 0.00000E+00
 -1       175 1.82617E+01 1.13910E+01 0.00000E+00
 -1       176 1.58266E+01 1.26145E+01 0.00000E+00
 -1       177 2.03778E+01 1.04313E+01 0.00000E+00
 -1       178 1.09806E+01 9.78206E+00 0.00000E+00
 -1       179 8.78352E+00 9.18241E+00 0.00000E+00
 -1       180 1.29783E+01 8.19790E+00 0.00000E+00
 -1       181 5.67635E+00 4.31108E+00 0.00000E+00
 -1       182 1.62949E+00 1.09048E+00 0.00000E+00
 -1       183 2.56735E+00 1.00244E+00 0.00000E+00
 -1       184 8.14747E-01 1.94224E+00 0.00000E+00
 -1       185 3.32886E+01 7.06812E+00 0.00000E+00
 -1       186 7.37045E+00 1.92007E+01 0.00000E+00
 -1       187 1.25595E+01 1.55552E+01 0.00000E+00
 -1       188 8.12800E-01 3.10557E+01 0.00000E+00
 -1       189 2.23520E+00 2.98365E+01 0.00000E+00
 -1       190 1.51982E+00 1.85239E+01 0.00000E+00
 -1       191 1.51982E+00 1.47986E+01 0.00000E+00
 -1       192 3.47472E+01 4.85827E+00 0.00000E+00
 -1       193 3.41376E+01 4.84763E+00 0.00000E+00
 -1       194 1.11760E+00 3.29184E+01 0.00000E+00
 -1       195 9.14400E-01 3.29184E+01 0.00000E+00
 -1       196 3.23811E+01 5.48297E+00 0.00000E+00
 -1       197 3.00724E+01 7.02104E+00 0.00000E+00
 -1       198 2.92572E+01 5.62960E+00 0.00000E+00
 -1       199 3.06969E+01 8.20799E+00 0.00000E+00
 -1       200 2.79546E+01 8.76358E+00 0.00000E+00
 -1       201 2.52416E+01 9.40983E+00 0.00000E+00
 -1       202 2.71491E+01 7.40237E+00 0.00000E+00
 -1       203 2.61431E+01 5.80644E+00 0.00000E+00
 -1       204 7.40227E+00 1.07409E+01 0.00000E+00
 -1       205 8.52718E+00 1.27623E+01 0.00000E+00
 -1       206 6.76743E+00 1.39044E+01 0.00000E+00
 -1       207 5.64253E+00 1.18830E+01 0.00000E+00
 -1       208 1.01997E+01 1.15051E+01 0.00000E+00
 -1       209 1.14118E+01 1.36416E+01 0.00000E+00
 -1       210 9.73928E+00 1.48987E+01 0.00000E+00
 -1       211 1.10386E+01 1.71502E+01 0.00000E+00
 -1       212 9.27884E+00 1.82923E+01 0.00000E+00
 -1       213 7.97954E+00 1.60408E+01 0.00000E+00
 -1       214 6.13259E+00 1.70679E+01 0.00000E+00
 -1       215 4.92048E+00 1.49315E+01 0.00000E+00
 -1       216 5.09599E+00 1.79044E+01 0.00000E+00
 -1       217 4.73220E+00 2.04931E+01 0.00000E+00
 -1       218 3.05580E+00 2.05185E+01 0.00000E+00
 -1       219 3.41960E+00 1.79298E+01 0.00000E+00
 -1       220 6.16906E+00 2.08017E+01 0.00000E+00
 -1       221 4.60794E+00 2.27477E+01 0.00000E+00
 -1       222 3.37465E+00 2.49003E+01 0.00000E+00
 -1       223 3.04082E+00 2.28419E+01 0.00000E+00
 -1       224 1.12488E+00 2.32014E+01 0.00000E+00
 -1       225 1.13987E+00 2.08779E+01 0.00000E+00
 -1       226 3.20040E+00 2.93878E+01 0.00000E+00
 -1       227 2.09343E+00 2.76883E+01 0.00000E+00
 -1       228 3.07988E+00 2.71340E+01 0.00000E+00
 -1       229 1.06680E+00 2.84226E+01 0.00000E+00
 -1       230 1.02663E+00 2.58087E+01 0.00000E+00
 -1       231 2.15151E+00 2.52611E+01 0.00000E+00
 -1       232 5.09947E-01 4.73624E+00 0.00000E+00
 -1       233 1.86873E+00 3.76086E+00 0.00000E+00
 -1       234 2.42339E+00 4.45341E+00 0.00000E+00
 -1       235 1.06461E+00 5.42879E+00 0.00000E+00
 -1       236 1.52984E+00 3.03273E+00 0.00000E+00
 -1       237 2.67284E+00 2.09293E+00 0.00000E+00
 -1       238 3.01173E+00 2.82106E+00 0.00000E+00
 -1       239 3.93895E+00 1.91684E+00 0.00000E+00
 -1       240 4.49361E+00 2.60939E+00 0.00000E+00
 -1       241 3.56639E+00 3.51361E+00 0.00000E+00
 -1       242 4.33683E+00 4.17057E+00 0.00000E+00
 -1       243 3.19383E+00 5.11037E+00 0.00000E+00
 -1       244 2.42957E+01 7.17327E+00 0.00000E+00
 -1       245 2.30891E+01 5.34265E+00 0.00000E+00
 -1       246 2.36550E+01 1.03707E+01 0.00000E+00
 -1       247 2.27091E+01 8.13417E+00 0.00000E+00
 -1       248 2.13833E+01 8.68912E+00 0.00000E+00
 -1       249 2.01766E+01 6.85850E+00 0.00000E+00
 -1       250 2.15025E+01 6.30354E+00 0.00000E+00
 -1       251 2.00351E+01 4.87886E+00 0.00000E+00
 -1       252 1.93397E+01 8.24978E+00 0.00000E+00
 -1       253 1.79865E+01 7.44623E+00 0.00000E+00
 -1       254 1.88234E+01 6.05494E+00 0.00000E+00
 -1       255 1.75245E+01 9.05270E+00 0.00000E+00
 -1       256 1.57964E+01 8.03395E+00 0.00000E+00
 -1       257 1.62584E+01 6.42747E+00 0.00000E+00
 -1       258 1.41555E+01 5.19353E+00 0.00000E+00
 -1       259 1.70953E+01 5.03619E+00 0.00000E+00
 -1       260 3.41960E+00 1.51358E+01 0.00000E+00
 -1       261 2.46024E+00 1.23552E+01 0.00000E+00
 -1       262 3.96113E+00 1.21509E+01 0.00000E+00
 -1       263 1.13987E+00 1.24959E+01 0.00000E+00
 -1       264 1.32038E+00 9.63831E+00 0.00000E+00
 -1       265 1.50089E+00 6.78069E+00 0.00000E+00
 -1       266 2.82126E+00 9.43400E+00 0.00000E+00
 -1       267 4.50266E+00 9.16606E+00 0.00000E+00
 -1       268 3.24353E+00 6.09788E+00 0.00000E+00
 -1       269 3.67980E+00 7.44977E+00 0.00000E+00
 -1       270 4.98617E+00 5.41506E+00 0.00000E+00
 -1       271 5.03586E+00 6.40257E+00 0.00000E+00
 -1       272 6.44162E+00 6.34287E+00 0.00000E+00
 -1       273 6.87789E+00 7.69477E+00 0.00000E+00
 -1       274 5.47214E+00 7.75447E+00 0.00000E+00
 -1       275 6.29500E+00 9.47075E+00 0.00000E+00
 -1       276 9.70673E+00 4.59704E+00 0.00000E+00
 -1       277 8.16532E+00 5.35541E+00 0.00000E+00
 -1       278 6.82154E+00 4.44489E+00 0.00000E+00
 -1       279 1.25919E+01 4.74920E+00 0.00000E+00
 -1       280 1.06210E+01 5.60185E+00 0.00000E+00
 -1       281 1.11058E+01 6.70095E+00 0.00000E+00
 -1       282 9.56439E+00 7.45932E+00 0.00000E+00
 -1       283 9.07961E+00 6.36022E+00 0.00000E+00
 -1       284 7.96769E+00 7.02429E+00 0.00000E+00
 -1       285 7.05341E+00 6.01948E+00 0.00000E+00
 -1       286 1.28530E+01 1.12790E+01 0.00000E+00
 -1       287 1.49671E+01 1.16426E+01 0.00000E+00
 -1       288 1.46244E+01 1.32540E+01 0.00000E+00
 -1       289 1.25103E+01 1.28904E+01 0.00000E+00
 -1       290 1.53622E+01 1.00624E+01 0.00000E+00
 -1       291 1.74392E+01 1.04226E+01 0.00000E+00
 -1       292 1.70441E+01 1.20027E+01 0.00000E+00
 -1       293 1.90841E+01 1.23594E+01 0.00000E+00
 -1       294 1.66861E+01 1.35863E+01 0.00000E+00
 -1       295 1.43341E+01 1.48967E+01 0.00000E+00
 -1       296 2.13506E+01 1.13213E+01 0.00000E+00
 -1       297 2.14485E+01 9.98061E+00 0.00000E+00
 -1       298 1.93197E+01 1.09111E+01 0.00000E+00
 -1       299 1.94049E+01 9.54127E+00 0.00000E+00
 -1       300 7.68498E+00 8.88258E+00 0.00000E+00
 -1       301 8.79226E+00 1.01527E+01 0.00000E+00
 -1       302 8.77478E+00 8.21211E+00 0.00000E+00
 -1       303 1.06717E+01 8.72945E+00 0.00000E+00
 -1       304 9.88206E+00 9.48223E+00 0.00000E+00
 -1       305 1.12895E+01 1.08347E+01 0.00000E+00
 -1       306 1.39771E+01 7.40582E+00 0.00000E+00
 -1       307 1.24136E+01 6.96149E+00 0.00000E+00
 -1       308 1.35429E+01 9.43431E+00 0.00000E+00
 -1       309 1.19794E+01 8.98998E+00 0.00000E+00
 -1       310 5.69512E+00 5.09503E+00 0.00000E+00
 -1       311 6.30691E+00 4.77163E+00 0.00000E+00
 -1       312 5.04578E+00 3.85053E+00 0.00000E+00
 -1       313 5.65757E+00 3.52714E+00 0.00000E+00
 -1       314 2.93662E+00 1.50366E+00 0.00000E+00
 -1       315 3.03627E+00 9.58421E-01 0.00000E+00
 -1       316 1.83464E+00 1.63573E+00 0.00000E+00
 -1       317 2.09842E+00 1.04646E+00 0.00000E+00
 -1       318 1.42435E+00 5.45242E-01 0.00000E+00
 -1       319 2.19807E+00 5.01221E-01 0.00000E+00
 -1       320 1.22212E+00 1.51636E+00 0.00000E+00
 -1       321 7.12174E-01 9.71121E-01 0.00000E+00
 -1       322 9.17321E-01 2.91336E+00 0.00000E+00
 -1       323 4.07374E-01 2.36812E+00 0.00000E+00
 -1       324 3.36804E+01 4.66185E+00 0.00000E+00
 -1       325 3.37131E+01 6.13567E+00 0.00000E+00
 -1       326 3.24138E+01 6.95680E+00 0.00000E+00
 -1       327 3.45948E+01 5.74461E+00 0.00000E+00
 -1       328 3.41703E+01 7.21045E+00 0.00000E+00
 -1       329 3.28641E+01 8.00057E+00 0.00000E+00
 -1       330 8.06894E+00 1.98807E+01 0.00000E+00
 -1       331 7.53808E+00 1.84404E+01 0.00000E+00
 -1       332 6.50149E+00 1.92769E+01 0.00000E+00
 -1       333 1.27863E+01 1.64525E+01 0.00000E+00
 -1       334 1.29909E+01 1.47244E+01 0.00000E+00
 -1       335 1.18924E+01 1.54755E+01 0.00000E+00
 -1       336 1.82880E+00 3.21564E+01 0.00000E+00
 -1       337 1.01600E+00 3.18347E+01 0.00000E+00
 -1       338 1.01600E+00 3.04377E+01 0.00000E+00
 -1       339 1.82880E+00 3.07594E+01 0.00000E+00
 -1       340 6.09600E-01 3.30708E+01 0.00000E+00
 -1       341 4.06400E-01 3.08949E+01 0.00000E+00
 -1       342 6.09600E-01 2.88798E+01 0.00000E+00
 -1       343 2.18440E+00 2.93709E+01 0.00000E+00
 -1       344 1.72720E+00 2.98281E+01 0.00000E+00
 -1       345 2.79400E+00 3.03107E+01 0.00000E+00
 -1       346 1.89978E+00 1.89639E+01 0.00000E+00
 -1       347 1.89978E+00 1.75669E+01 0.00000E+00
 -1       348 3.41960E+00 1.65328E+01 0.00000E+00
 -1       349 7.59910E-01 1.90410E+01 0.00000E+00
 -1       350 1.13987E+00 1.66869E+01 0.00000E+00
 -1       351 7.59910E-01 1.43843E+01 0.00000E+00
 -1       352 1.89978E+00 1.57042E+01 0.00000E+00
 -1       353 1.89978E+00 1.43072E+01 0.00000E+00
 -1       354 3.46710E+01 4.50134E+00 0.00000E+00
 -1       355 3.46710E+01 5.03474E+00 0.00000E+00
 -1       356 3.43662E+01 4.67382E+00 0.00000E+00
 -1       357 3.48996E+01 5.03873E+00 0.00000E+00
 -1       358 3.48234E+01 5.74860E+00 0.00000E+00
 -1       359 3.41376E+01 5.02543E+00 0.00000E+00
 -1       360 3.43662E+01 5.02942E+00 0.00000E+00
 -1       361 3.39090E+01 4.48804E+00 0.00000E+00
 -1       362 1.32080E+00 3.27660E+01 0.00000E+00
 -1       363 1.24460E+00 3.27660E+01 0.00000E+00
 -1       364 1.90500E+00 3.21564E+01 0.00000E+00
 -1       365 7.87400E-01 3.32232E+01 0.00000E+00
 -1       366 8.38200E-01 3.30708E+01 0.00000E+00
 -1       367 5.33400E-01 3.32232E+01 0.00000E+00
 -1       368 1.14300E+00 3.27660E+01 0.00000E+00
 -1       369 1.06680E+00 3.27660E+01 0.00000E+00
 -3
    3C                           102                                     1
 -1         1   10    0    1
 -2         4       145       147        33       196       197       198        41
 -1         2   10    0    1
 -2       145        57        58       147       199        69       200       197
 -1         3   10    0    1
 -2       147        58        59       146       200        70       201       202
 -1         4   10    0    1
 -2        33       147       146        32       198       202       203        40
 -1         5   10    0    1
 -2       130       148       150       149       204       205       206       207
 -1         6   10    0    1
 -2       148       123       134       150       208       209       210       205
 -1         7   10    0    1
 -2       150       134        65       133       210       211       212       213
 -1         8   10    0    1
 -2       149       150       133       124       206       213       214       215
 -1         9   10    0    1
 -2       124       132       152       139       216       217       218       219
 -1        10   10    0    1
 -2       132         8        79       152       220        82       221       217
 -1        11   10    0    1
 -2       152        79        80       151       221        83       222       223
 -1        12   10    0    1
 -2       139       152       151       103       218       223       224       225
 -1        13   10    0    1
 -2        10       138       153        81       226       227       228        85
 -1        14   10    0    1
 -2       138       101       102       153       229       113       230       227
 -1        15   10    0    1
 -2       153       102       103       151       230       114       224       231
 -1        16   10    0    1
 -2        81       153       151        80       228       231       222        84
 -1        17   10    0    1
 -2       109       154       158       157       232       233       234       235
 -1        18   10    0    1
 -2       154       125       155       158       236       237       238       233
 -1        19   10    0    1
 -2       158       155        21       156       238       239       240       241
 -1        20   10    0    1
 -2       157       158       156       128       234       241       242       243
 -1        21   10    0    1
 -2        32       146       161        31       203       244       245        39
 -1        22   10    0    1
 -2       146        59       159       161       201       246       247       244
 -1        23   10    0    1
 -2       161       159       129       160       247       248       249       250
 -1        24   10    0    1
 -2        31       161       160        30       245       250       251        38
 -1        25   10    0    1
 -2       129       162       164       160       252       253       254       249
 -1        26   10    0    1
 -2       162       127       163       164       255       256       257       253
 -1        27   10    0    1
 -2       164       163        28        29       257       258        36       259
 -1        28   10    0    1
 -2       160       164        29        30       254       259        37       251
 -1        29   10    0    1
 -2       124       141       166       149       260       261       262       215
 -1        30   10    0    1
 -2       141       107       108       166       263       119       264       261
 -1        31   10    0    1
 -2       166       108       109       165       264       120       265       266
 -1        32   10    0    1
 -2       149       166       165       130       262       266       267       207
 -1        33   10    0    1
 -2       109       157       169       165       235       268       269       265
 -1        34   10    0    1
 -2       157       128       167       169       243       270       271       268
 -1        35   10    0    1
 -2       169       167       131       168       271       272       273       274
 -1        36   10    0    1
 -2       165       169       168       130       269       274       275       267
 -1        37   10    0    1
 -2         3        27       173       172        34       276       277       278
 -1        38   10    0    1
 -2        27        28       170       173        35       279       280       276
 -1        39   10    0    1
 -2       173       170       126       171       280       281       282       283
 -1        40   10    0    1
 -2       172       173       171       131       277       283       284       285
 -1        41   10    0    1
 -2       123       174       176       135       286       287       288       289
 -1        42   10    0    1
 -2       174       127       175       176       290       291       292       287
 -1        43   10    0    1
 -2       176       175        61        62       292       293        73       294
 -1        44   10    0    1
 -2       135       176        62        63       288       294        74       295
 -1        45   10    0    1
 -2        59        60       177       159        71       296       297       246
 -1        46   10    0    1
 -2        60        61       175       177        72       293       298       296
 -1        47   10    0    1
 -2       177       175       127       162       298       291       255       299
 -1        48   10    0    1
 -2       159       177       162       129       297       299       252       248
 -1        49   10    0    1
 -2       130       168       179       148       275       300       301       204
 -1        50   10    0    1
 -2       168       131       171       179       273       284       302       300
 -1        51   10    0    1
 -2       179       171       126       178       302       282       303       304
 -1        52   10    0    1
 -2       148       179       178       123       301       304       305       208
 -1        53   10    0    1
 -2        28       163       180       170       258       306       307       279
 -1        54   10    0    1
 -2       163       127       174       180       256       290       308       306
 -1        55   10    0    1
 -2       180       174       123       178       308       286       305       309
 -1        56   10    0    1
 -2       170       180       178       126       307       309       303       281
 -1        57   10    0    1
 -2       131       167       181       172       272       310       311       285
 -1        58   10    0    1
 -2       167       128       156       181       270       242       312       310
 -1        59   10    0    1
 -2       181       156        21        22       312       240        25       313
 -1        60   10    0    1
 -2       172       181        22         3       311       313        26       278
 -1        61   10    0    1
 -2        21       155       183        20       239       314       315        24
 -1        62   10    0    1
 -2       155       125       182       183       237       316       317       314
 -1        63   10    0    1
 -2       183       182        14        15       317       318        18       319
 -1        64   10    0    1
 -2        20       183        15         2       315       319        19        23
 -1        65   10    0    1
 -2        14       182       184        13       318       320       321        17
 -1        66   10    0    1
 -2       182       125       154       184       316       236       322       320
 -1        67   10    0    1
 -2       184       154       109       110       322       232       121       323
 -1        68   10    0    1
 -2        13       184       110         1       321       323       122        16
 -1        69   10    0    1
 -2         4       143       185       145       324       325       326       196
 -1        70   10    0    1
 -2       143        50        51       185       327        54       328       325
 -1        71   10    0    1
 -2       185        51         6        56       328        55        67       329
 -1        72   10    0    1
 -2       145       185        56        57       326       329        68       199
 -1        73   10    0    1
 -2        65        66       186       133        77       330       331       212
 -1        74   10    0    1
 -2        66         8       132       186        78       220       332       330
 -1        75   10    0    1
 -2       133       186       132       124       331       332       216       214
 -1        76   10    0    1
 -2        63        64       187       135        75       333       334       295
 -1        77   10    0    1
 -2        64        65       134       187        76       211       335       333
 -1        78   10    0    1
 -2       135       187       134       123       334       335       209       289
 -1        79   10    0    1
 -2        87       136       188       137       336       337       338       339
 -1        80   10    0    1
 -2       136        12       100       188       340       111       341       337
 -1        81   10    0    1
 -2       137       188       100       101       338       341       112       342
 -1        82   10    0    1
 -2       101       138       189       137       229       343       344       342
 -1        83   10    0    1
 -2       138        10        86       189       226        89       345       343
 -1        84   10    0    1
 -2       137       189        86        87       344       345        90       339
 -1        85   10    0    1
 -2       124       139       190       140       219       346       347       348
 -1        86   10    0    1
 -2       139       103       104       190       225       115       349       346
 -1        87   10    0    1
 -2       140       190       104       105       347       349       116       350
 -1        88   10    0    1
 -2       105       106       191       140       117       351       352       350
 -1        89   10    0    1
 -2       106       107       141       191       118       263       353       351
 -1        90   10    0    1
 -2       140       191       141       124       352       353       260       348
 -1        91   10    0    1
 -2        43        44       192       142        47       354       355       356
 -1        92   10    0    1
 -2        44         5        49       192        48        52       357       354
 -1        93   10    0    1
 -2       142       192        49        50       355       357        53       358
 -1        94   10    0    1
 -2        50       143       193       142       327       359       360       358
 -1        95   10    0    1
 -2       143         4        42       193       324        45       361       359
 -1        96   10    0    1
 -2       142       193        42        43       360       361        46       356
 -1        97   10    0    1
 -2        87        88       194       144        91       362       363       364
 -1        98   10    0    1
 -2        88        11        93       194        92        96       365       362
 -1        99   10    0    1
 -2       144       194        93        94       363       365        97       366
 -1       100   10    0    1
 -2        94        95       195       144        98       367       368       366
 -1       101   10    0    1
 -2        95        12       136       195        99       340       369       367
 -1       102   10    0    1
 -2       144       195       136        87       368       369       336       364
 -3
    1PSTEP                         1           1           1          
  100CL  101 1.000000000         367                     0    1           1
 -4  DISP        4    1
 -5  D1          1    2    1    0
 -5  D2          1    2    2    0
 -5  D3          1    2    3    0
 -5  ALL         1    2    0    0    1ALL
 -1         1 0.00000E+00 0.00000E+00 0.00000E+00
 -1         2 1.22605E-05 8.08152E-05 0.00000E+00
 -1         3-3.66157E-05 1.42164E-04 0.00000E+00
 -1         4-2.05092E-04 7.59402E-04 0.00000E+00
 -1         5-2.11430E-04 7.98859E-04 0.00000E+00
 -1         6-3.03308E-04 7.88316E-04 0.00000E+00
 -1         8-8.81656E-05 6.50388E-05 0.00000E+00
 -1        10-1.77293E-05 3.34934E-06 0.00000E+00
 -1        11-1.10344E-06-2.41312E-06 0.00000E+00
 -1        12 0.00000E+00 0.00000E+00 0.00000E+00
 -1        13 1.35771E-05 2.79011E-05 0.00000E+00
 -1        14 1.80648E-05 4.86218E-05 0.00000E+00
 -1        15 1.66408E-05 6.65415E-05 0.00000E+00
 -1        16 6.65995E-06 1.40386E-05 0.00000E+00
 -1        17 1.65922E-05 3.89549E-05 0.00000E+00
 -1        18 1.78290E-05 5.80750E-05 0.00000E+00
 -1        19 1.47888E-05 7.41825E-05 0.00000E+00
 -1        20-7.44397E-06 9.30066E-05 0.00000E+00
 -1        21-1.95516E-05 1.06727E-04 0.00000E+00
 -1        22-2.93443E-05 1.21966E-04 0.00000E+00
 -1        23 6.38248E-07 8.70534E-05 0.00000E+00
 -1        24-1.39128E-05 9.96005E-05 0.00000E+00
 -1        25-2.48153E-05 1.14117E-04 0.00000E+00
 -1        26-3.26316E-05 1.31246E-04 0.00000E+00
 -1        27-4.63697E-05 2.21519E-04 0.00000E+00
 -1        28-6.78502E-05 2.94149E-04 0.00000E+00
 -1        29-8.98007E-05 3.68877E-04 0.00000E+00
 -1        30-1.12937E-04 4.48052E-04 0.00000E+00
 -1        31-1.37879E-04 5.29878E-04 0.00000E+00
 -1        32-1.63714E-04 6.10507E-04 0.00000E+00
 -1        33-1.87442E-04 6.86799E-04 0.00000E+00
 -1        34-3.81686E-05 1.83659E-04 0.00000E+00
 -1        35-5.67796E-05 2.58042E-04 0.00000E+00
 -1        36-7.86940E-05 3.30975E-04 0.00000E+00
 -1        37-1.01182E-04 4.07961E-04 0.00000E+00
 -1        38-1.25239E-04 4.88855E-04 0.00000E+00
 -1        39-1.50902E-04 5.70597E-04 0.00000E+00
 -1        40-1.76022E-04 6.49321E-04 0.00000E+00
 -1        41-1.97101E-04 7.23267E-04 0.00000E+00
 -1        42-2.06951E-04 7.69101E-04 0.00000E+00
 -1        43-2.08580E-04 7.78975E-04 0.00000E+00
 -1        44-2.10071E-04 7.88908E-04 0.00000E+00
 -1        45-2.06046E-04 7.64232E-04 0.00000E+00
 -1        46-2.07784E-04 7.74027E-04 0.00000E+00
 -1        47-2.09343E-04 7.83936E-04 0.00000E+00
 -1        48-2.10768E-04 7.93885E-04 0.00000E+00
 -1        49-2.34617E-04 7.96285E-04 0.00000E+00
 -1        50-2.57723E-04 7.93678E-04 0.00000E+00
 -1        51-2.80649E-04 7.90984E-04 0.00000E+00
 -1        52-2.23037E-04 7.97570E-04 0.00000E+00
 -1        53-2.46179E-04 7.94988E-04 0.00000E+00
 -1        54-2.69211E-04 7.92327E-04 0.00000E+00
 -1        55-2.92001E-04 7.89637E-04 0.00000E+00
 -1        56-3.05488E-04 7.31428E-04 0.00000E+00
 -1        57-3.06836E-04 6.72797E-04 0.00000E+00
 -1        58-3.07286E-04 6.10753E-04 0.00000E+00
 -1        59-3.05552E-04 5.44921E-04 0.00000E+00
 -1        60-3.00233E-04 4.76140E-04 0.00000E+00
 -1        61-2.89647E-04 4.05835E-04 0.00000E+00
 -1        62-2.72411E-04 3.35675E-04 0.00000E+00
 -1        63-2.47250E-04 2.67843E-04 0.00000E+00
 -1        64-2.14147E-04 2.04836E-04 0.00000E+00
 -1        65-1.74234E-04 1.49635E-04 0.00000E+00
 -1        66-1.30945E-04 1.03277E-04 0.00000E+00
 -1        67-3.04571E-04 7.59960E-04 0.00000E+00
 -1        68-3.06226E-04 7.02441E-04 0.00000E+00
 -1        69-3.07218E-04 6.42283E-04 0.00000E+00
 -1        70-3.06769E-04 5.78284E-04 0.00000E+00
 -1        71-3.03437E-04 5.10806E-04 0.00000E+00
 -1        72-2.95659E-04 4.41065E-04 0.00000E+00
 -1        73-2.81928E-04 3.70599E-04 0.00000E+00
 -1        74-2.60842E-04 3.01266E-04 0.00000E+00
 -1        75-2.31752E-04 2.35660E-04 0.00000E+00
 -1        76-1.94645E-04 1.76180E-04 0.00000E+00
 -1        77-1.52863E-04 1.25552E-04 0.00000E+00
 -1        78-1.09544E-04 8.37398E-05 0.00000E+00
 -1        79-5.40864E-05 3.78165E-05 0.00000E+00
 -1        80-3.13400E-05 2.06999E-05 0.00000E+00
 -1        81-2.08007E-05 1.02828E-05 0.00000E+00
 -1        82-7.05178E-05 5.01581E-05 0.00000E+00
 -1        83-4.08811E-05 2.82248E-05 0.00000E+00
 -1        84-2.45035E-05 1.46769E-05 0.00000E+00
 -1        85-1.86332E-05 6.38471E-06 0.00000E+00
 -1        86-1.42144E-05 1.51945E-06 0.00000E+00
 -1        87-9.96287E-06-7.12662E-07 0.00000E+00
 -1        88-5.45717E-06-2.22384E-06 0.00000E+00
 -1        89-1.60590E-05 2.53963E-06 0.00000E+00
 -1        90-1.21415E-05 3.29762E-07 0.00000E+00
 -1        91-7.66078E-06-1.58442E-06 0.00000E+00
 -1        92-3.32791E-06-2.51328E-06 0.00000E+00
 -1        93-7.42891E-07-1.93099E-06 0.00000E+00
 -1        94-4.37630E-07-1.37689E-06 0.00000E+00
 -1        95-1.56786E-07-7.44463E-07 0.00000E+00
 -1        96-9.23082E-07-2.17763E-06 0.00000E+00
 -1        97-5.91139E-07-1.65076E-06 0.00000E+00
 -1        98-2.90535E-07-1.07231E-06 0.00000E+00
 -1        99-8.31927E-08-3.64799E-07 0.00000E+00
 -1       100 0.00000E+00 0.00000E+00 0.00000E+00
 -1       101 0.00000E+00 0.00000E+00 0.00000E+00
 -1       102 0.00000E+00 0.00000E+00 0.00000E+00
 -1       103 0.00000E+00 0.00000E+00 0.00000E+00
 -1       104 0.00000E+00 0.00000E+00 0.00000E+00
 -1       105 0.00000E+00 0.00000E+00 0.00000E+00
 -1       106 0.00000E+00 0.00000E+00 0.00000E+00
 -1       107 0.00000E+00 0.00000E+00 0.00000E+00
 -1       108 0.00000E+00 0.00000E+00 0.00000E+00
 -1       109 0.00000E+00 0.00000E+00 0.00000E+00
 -1       110 0.00000E+00 0.00000E+00 0.00000E+00
 -1       111 0.00000E+00 0.00000E+00 0.00000E+00
 -1       112 0.00000E+00 0.00000E+00 0.00000E+00
 -1       113 0.00000E+00 0.00000E+00 0.00000E+00
 -1       114 0.00000E+00 0.00000E+00 0.00000E+00
 -1       115 0.00000E+00 0.00000E+00 0.00000E+00
 -1       116 0.00000E+00 0.00000E+00 0.00000E+00
 -1       117 0.00000E+00 0.00000E+00 0.00000E+00
 -1       118 0.00000E+00 0.00000E+00 0.00000E+00
 -1       119 0.00000E+00 0.00000E+00 0.00000E+00
 -1       120 0.00000E+00 0.00000E+00 0.00000E+00
 -1       121 0.00000E+00 0.00000E+00 0.00000E+00
 -1       122 0.00000E+00 0.00000E+00 0.00000E+00
 -1       123-1.74658E-04 2.02574E-04 0.00000E+00
 -1       124-8.63687E-05 6.24743E-05 0.00000E+00
 -1       125-1.20702E-05 5.07671E-05 0.00000E+00
 -1       126-1.17628E-04 1.99300E-04 0.00000E+00
 -1       127-1.97619E-04 3.34488E-04 0.00000E+00
 -1       128-4.01226E-05 8.10003E-05 0.00000E+00
 -1       129-2.01195E-04 4.35500E-04 0.00000E+00
 -1       130-9.50036E-05 9.66284E-05 0.00000E+00
 -1       131-8.04594E-05 1.33293E-04 0.00000E+00
 -1       132-9.73789E-05 6.97399E-05 0.00000E+00
 -1       133-1.34928E-04 1.04376E-04 0.00000E+00
 -1       134-1.87924E-04 1.77070E-04 0.00000E+00
 -1       135-2.11329E-04 2.32754E-04 0.00000E+00
 -1       136-4.57700E-06-1.77687E-06 0.00000E+00
 -1       137-7.39565E-06 3.11709E-06 0.00000E+00
 -1       138-1.25310E-05 6.53370E-06 0.00000E+00
 -1       139-4.25433E-05 2.99742E-05 0.00000E+00
 -1       140-4.50038E-05 3.10730E-05 0.00000E+00
 -1       141-4.41630E-05 3.16447E-05 0.00000E+00
 -1       142-2.33257E-04 7.86395E-04 0.00000E+00
 -1       143-2.31742E-04 7.76526E-04 0.00000E+00
 -1       144-5.04230E-06-1.99167E-06 0.00000E+00
 -1       145-2.57287E-04 7.16286E-04 0.00000E+00
 -1       146-2.38699E-04 5.76963E-04 0.00000E+00
 -1       147-2.49183E-04 6.48955E-04 0.00000E+00
 -1       148-1.35681E-04 1.48059E-04 0.00000E+00
 -1       149-9.56661E-05 7.77986E-05 0.00000E+00
 -1       150-1.43603E-04 1.25471E-04 0.00000E+00
 -1       151-2.76555E-05 2.25869E-05 0.00000E+00
 -1       152-5.97734E-05 4.27476E-05 0.00000E+00
 -1       153-1.69259E-05 1.37696E-05 0.00000E+00
 -1       154-1.05756E-05 2.00927E-05 0.00000E+00
 -1       155-1.55311E-05 8.05184E-05 0.00000E+00
 -1       156-2.93760E-05 9.32107E-05 0.00000E+00
 -1       157-2.41656E-05 3.80622E-05 0.00000E+00
 -1       158-2.24545E-05 5.67936E-05 0.00000E+00
 -1       159-2.52605E-04 4.88591E-04 0.00000E+00
 -1       160-1.59634E-04 4.41442E-04 0.00000E+00
 -1       161-1.99394E-04 5.08824E-04 0.00000E+00
 -1       162-2.00668E-04 3.84771E-04 0.00000E+00
 -1       163-1.36296E-04 3.11844E-04 0.00000E+00
 -1       164-1.48315E-04 3.75606E-04 0.00000E+00
 -1       165-4.37309E-05 4.74983E-05 0.00000E+00
 -1       166-4.64546E-05 3.81703E-05 0.00000E+00
 -1       167-5.87995E-05 1.06185E-04 0.00000E+00
 -1       168-9.07851E-05 1.13402E-04 0.00000E+00
 -1       169-5.46122E-05 7.50126E-05 0.00000E+00
 -1       170-9.77789E-05 2.46511E-04 0.00000E+00
 -1       171-9.88493E-05 1.66285E-04 0.00000E+00
 -1       172-5.99182E-05 1.36463E-04 0.00000E+00
 -1       173-7.76978E-05 1.92839E-04 0.00000E+00
 -1       174-1.89879E-04 2.66368E-04 0.00000E+00
 -1       175-2.42511E-04 3.67256E-04 0.00000E+00
 -1       176-2.30299E-04 2.97968E-04 0.00000E+00
 -1       177-2.49112E-04 4.27943E-04 0.00000E+00
 -1       178-1.48337E-04 2.00456E-04 0.00000E+00
 -1       179-1.19775E-04 1.56341E-04 0.00000E+00
 -1       180-1.46744E-04 2.55069E-04 0.00000E+00
 -1       181-4.27716E-05 1.13318E-04 0.00000E+00
 -1       182-2.85574E-06 4.90796E-05 0.00000E+00
 -1       183-3.89386E-06 7.36626E-05 0.00000E+00
 -1       184-5.05557E-06 2.08711E-05 0.00000E+00
 -1       185-2.69258E-04 7.53857E-04 0.00000E+00
 -1       186-1.23389E-04 9.27635E-05 0.00000E+00
 -1       187-2.06883E-04 2.04476E-04 0.00000E+00
 -1       188-4.49285E-06 8.20304E-07 0.00000E+00
 -1       189-1.18062E-05 4.08910E-06 0.00000E+00
 -1       190-2.95970E-05 2.06470E-05 0.00000E+00
 -1       191-3.02683E-05 2.07943E-05 0.00000E+00
 -1       192-2.26008E-04 7.90535E-04 0.00000E+00
 -1       193-2.24018E-04 7.77345E-04 0.00000E+00
 -1       194-3.78557E-06-2.26406E-06 0.00000E+00
 -1       195-3.23224E-06-1.85163E-06 0.00000E+00
 -1       196-2.31389E-04 7.37878E-04 0.00000E+00
 -1       197-2.53727E-04 6.83192E-04 0.00000E+00
 -1       198-2.18573E-04 6.68083E-04 0.00000E+00
 -1       199-2.82445E-04 6.94617E-04 0.00000E+00
 -1       200-2.78654E-04 6.29794E-04 0.00000E+00
 -1       201-2.72896E-04 5.60545E-04 0.00000E+00
 -1       202-2.44337E-04 6.13591E-04 0.00000E+00
 -1       203-2.02407E-04 5.93802E-04 0.00000E+00
 -1       204-1.15613E-04 1.21985E-04 0.00000E+00
 -1       205-1.41628E-04 1.36330E-04 0.00000E+00
 -1       206-1.20164E-04 1.01327E-04 0.00000E+00
 -1       207-9.67500E-05 8.66319E-05 0.00000E+00
 -1       208-1.55294E-04 1.74848E-04 0.00000E+00
 -1       209-1.83998E-04 1.89685E-04 0.00000E+00
 -1       210-1.65987E-04 1.50480E-04 0.00000E+00
 -1       211-1.85061E-04 1.64061E-04 0.00000E+00
 -1       212-1.55526E-04 1.26056E-04 0.00000E+00
 -1       213-1.41448E-04 1.14980E-04 0.00000E+00
 -1       214-1.11884E-04 8.34182E-05 0.00000E+00
 -1       215-9.21038E-05 6.98316E-05 0.00000E+00
 -1       216-9.35488E-05 6.71373E-05 0.00000E+00
 -1       217-7.86874E-05 5.54141E-05 0.00000E+00
 -1       218-5.30252E-05 3.76945E-05 0.00000E+00
 -1       219-6.49796E-05 4.54626E-05 0.00000E+00
 -1       220-9.62433E-05 6.90793E-05 0.00000E+00
 -1       221-6.11769E-05 4.38045E-05 0.00000E+00
 -1       222-3.26014E-05 2.55865E-05 0.00000E+00
 -1       223-4.27972E-05 3.22363E-05 0.00000E+00
 -1       224-1.64420E-05 1.36368E-05 0.00000E+00
 -1       225-2.02718E-05 1.52457E-05 0.00000E+00
 -1       226-1.55650E-05 5.54542E-06 0.00000E+00
 -1       227-1.41531E-05 9.99033E-06 0.00000E+00
 -1       228-1.97910E-05 1.38365E-05 0.00000E+00
 -1       229-7.46423E-06 4.85559E-06 0.00000E+00
 -1       230-1.04433E-05 9.23595E-06 0.00000E+00
 -1       231-2.17535E-05 1.83295E-05 0.00000E+00
 -1       232-6.07573E-06 8.99595E-06 0.00000E+00
 -1       233-1.73504E-05 3.82155E-05 0.00000E+00
 -1       234-2.39441E-05 4.67498E-05 0.00000E+00
 -1       235-1.31845E-05 1.81242E-05 0.00000E+00
 -1       236-1.26785E-05 3.39134E-05 0.00000E+00
 -1       237-1.38955E-05 6.62098E-05 0.00000E+00
 -1       238-1.96799E-05 6.82325E-05 0.00000E+00
 -1       239-1.73793E-05 9.39011E-05 0.00000E+00
 -1       240-2.44089E-05 1.00054E-04 0.00000E+00
 -1       241-2.63916E-05 7.51907E-05 0.00000E+00
 -1       242-3.48107E-05 8.67728E-05 0.00000E+00
 -1       243-3.30739E-05 5.92282E-05 0.00000E+00
 -1       244-2.19248E-04 5.42983E-04 0.00000E+00
 -1       245-1.69901E-04 5.19335E-04 0.00000E+00
 -1       246-2.78847E-04 5.16474E-04 0.00000E+00
 -1       247-2.26890E-04 4.98528E-04 0.00000E+00
 -1       248-2.26795E-04 4.61549E-04 0.00000E+00
 -1       249-1.80983E-04 4.38380E-04 0.00000E+00
 -1       250-1.79509E-04 4.74864E-04 0.00000E+00
 -1       251-1.37017E-04 4.44678E-04 0.00000E+00
 -1       252-2.01224E-04 4.10116E-04 0.00000E+00
 -1       253-1.75175E-04 3.79874E-04 0.00000E+00
 -1       254-1.54061E-04 4.08329E-04 0.00000E+00
 -1       255-1.99475E-04 3.59531E-04 0.00000E+00
 -1       256-1.67712E-04 3.22512E-04 0.00000E+00
 -1       257-1.42401E-04 3.43439E-04 0.00000E+00
 -1       258-1.03065E-04 3.02387E-04 0.00000E+00
 -1       259-1.19897E-04 3.71962E-04 0.00000E+00
 -1       260-6.59834E-05 4.75438E-05 0.00000E+00
 -1       261-4.58458E-05 3.46560E-05 0.00000E+00
 -1       262-7.11442E-05 5.81130E-05 0.00000E+00
 -1       263-2.18450E-05 1.54507E-05 0.00000E+00
 -1       264-2.25596E-05 1.85741E-05 0.00000E+00
 -1       265-2.08320E-05 2.37113E-05 0.00000E+00
 -1       266-4.58167E-05 4.22772E-05 0.00000E+00
 -1       267-6.87358E-05 7.18953E-05 0.00000E+00
 -1       268-3.85182E-05 5.65839E-05 0.00000E+00
 -1       269-4.99389E-05 6.08193E-05 0.00000E+00
 -1       270-4.90162E-05 9.33374E-05 0.00000E+00
 -1       271-5.75773E-05 9.01098E-05 0.00000E+00
 -1       272-6.94257E-05 1.19573E-04 0.00000E+00
 -1       273-8.64735E-05 1.22909E-04 0.00000E+00
 -1       274-7.22309E-05 9.40150E-05 0.00000E+00
 -1       275-9.35659E-05 1.04665E-04 0.00000E+00
 -1       276-6.36194E-05 2.07099E-04 0.00000E+00
 -1       277-6.90858E-05 1.64739E-04 0.00000E+00
 -1       278-4.88071E-05 1.38532E-04 0.00000E+00
 -1       279-8.37553E-05 2.70475E-04 0.00000E+00
 -1       280-8.74556E-05 2.19770E-04 0.00000E+00
 -1       281-1.09206E-04 2.22668E-04 0.00000E+00
 -1       282-1.08186E-04 1.82828E-04 0.00000E+00
 -1       283-8.95616E-05 1.79018E-04 0.00000E+00
 -1       284-8.95777E-05 1.49747E-04 0.00000E+00
 -1       285-7.06502E-05 1.34723E-04 0.00000E+00
 -1       286-1.83283E-04 2.33774E-04 0.00000E+00
 -1       287-2.10054E-04 2.81588E-04 0.00000E+00
 -1       288-2.21781E-04 2.64718E-04 0.00000E+00
 -1       289-1.93131E-04 2.17322E-04 0.00000E+00
 -1       290-1.94581E-04 3.00039E-04 0.00000E+00
 -1       291-2.19983E-04 3.50251E-04 0.00000E+00
 -1       292-2.37313E-04 3.32325E-04 0.00000E+00
 -1       293-2.65537E-04 3.85693E-04 0.00000E+00
 -1       294-2.50884E-04 3.15815E-04 0.00000E+00
 -1       295-2.29232E-04 2.49349E-04 0.00000E+00
 -1       296-2.74125E-04 4.51412E-04 0.00000E+00
 -1       297-2.51341E-04 4.58393E-04 0.00000E+00
 -1       298-2.46368E-04 3.97578E-04 0.00000E+00
 -1       299-2.24712E-04 4.05741E-04 0.00000E+00
 -1       300-1.05360E-04 1.34700E-04 0.00000E+00
 -1       301-1.28305E-04 1.52052E-04 0.00000E+00
 -1       302-1.10001E-04 1.61067E-04 0.00000E+00
 -1       303-1.33551E-04 1.99718E-04 0.00000E+00
 -1       304-1.34065E-04 1.78250E-04 0.00000E+00
 -1       305-1.62051E-04 2.01456E-04 0.00000E+00
 -1       306-1.42518E-04 2.83334E-04 0.00000E+00
 -1       307-1.23133E-04 2.50411E-04 0.00000E+00
 -1       308-1.68944E-04 2.60410E-04 0.00000E+00
 -1       309-1.48761E-04 2.27346E-04 0.00000E+00
 -1       310-5.08416E-05 1.09521E-04 0.00000E+00
 -1       311-5.06469E-05 1.24677E-04 0.00000E+00
 -1       312-3.55859E-05 1.03014E-04 0.00000E+00
 -1       313-3.46664E-05 1.17829E-04 0.00000E+00
 -1       314-1.01751E-05 7.70005E-05 0.00000E+00
 -1       315-5.35586E-06 8.38914E-05 0.00000E+00
 -1       316-7.90040E-06 4.97821E-05 0.00000E+00
 -1       317-3.08527E-06 6.20920E-05 0.00000E+00
 -1       318 5.27675E-06 4.88217E-05 0.00000E+00
 -1       319 4.42987E-06 7.03480E-05 0.00000E+00
 -1       320-5.55724E-06 3.40144E-05 0.00000E+00
 -1       321-1.18946E-06 2.17088E-05 0.00000E+00
 -1       322-8.01644E-06 2.03271E-05 0.00000E+00
 -1       323-3.40460E-06 9.27456E-06 0.00000E+00
 -1       324-2.18483E-04 7.67917E-04 0.00000E+00
 -1       325-2.50605E-04 7.65179E-04 0.00000E+00
 -1       326-2.63510E-04 7.35179E-04 0.00000E+00
 -1       327-2.44823E-04 7.85117E-04 0.00000E+00
 -1       328-2.75202E-04 7.72471E-04 0.00000E+00
 -1       329-2.87581E-04 7.42589E-04 0.00000E+00
 -1       330-1.28365E-04 9.84423E-05 0.00000E+00
 -1       331-1.29672E-04 9.86631E-05 0.00000E+00
 -1       332-1.10435E-04 8.07914E-05 0.00000E+00
 -1       333-2.11411E-04 2.04676E-04 0.00000E+00
 -1       334-2.10016E-04 2.18534E-04 0.00000E+00
 -1       335-1.97305E-04 1.90469E-04 0.00000E+00
 -1       336-7.23746E-06-1.41687E-06 0.00000E+00
 -1       337-4.91186E-06-3.01953E-08 0.00000E+00
 -1       338-5.92350E-06 1.78908E-06 0.00000E+00
 -1       339-9.29784E-06 1.76032E-06 0.00000E+00
 -1       340-2.18188E-06-1.37390E-06 0.00000E+00
 -1       341-2.45053E-06 6.40654E-07 0.00000E+00
 -1       342-4.29799E-06 2.49969E-06 0.00000E+00
 -1       343-1.20826E-05 5.19920E-06 0.00000E+00
 -1       344-9.71386E-06 3.68228E-06 0.00000E+00
 -1       345-1.32335E-05 2.94229E-06 0.00000E+00
 -1       346-3.63375E-05 2.55151E-05 0.00000E+00
 -1       347-3.73914E-05 2.58330E-05 0.00000E+00
 -1       348-6.60570E-05 4.66531E-05 0.00000E+00
 -1       349-1.48267E-05 1.05697E-05 0.00000E+00
 -1       350-2.29180E-05 1.56242E-05 0.00000E+00
 -1       351-1.52623E-05 1.02528E-05 0.00000E+00
 -1       352-3.77793E-05 2.60179E-05 0.00000E+00
 -1       353-3.73800E-05 2.61266E-05 0.00000E+00
 -1       354-2.18049E-04 7.89725E-04 0.00000E+00
 -1       355-2.29634E-04 7.88464E-04 0.00000E+00
 -1       356-2.20935E-04 7.82699E-04 0.00000E+00
 -1       357-2.30321E-04 7.93412E-04 0.00000E+00
 -1       358-2.45519E-04 7.90050E-04 0.00000E+00
 -1       359-2.27874E-04 7.76940E-04 0.00000E+00
 -1       360-2.28656E-04 7.81871E-04 0.00000E+00
 -1       361-2.15483E-04 7.73231E-04 0.00000E+00
 -1       362-4.61992E-06-2.27293E-06 0.00000E+00
 -1       363-4.41726E-06-2.13915E-06 0.00000E+00
 -1       364-7.44967E-06-1.50126E-06 0.00000E+00
 -1       365-2.29632E-06-2.19855E-06 0.00000E+00
 -1       366-2.75567E-06-1.98406E-06 0.00000E+00
 -1       367-1.70595E-06-1.46057E-06 0.00000E+00
 -1       368-4.12559E-06-1.96852E-06 0.00000E+00
 -1       369-3.90037E-06-1.83653E-06 0.00000E+00
 -3
    1PSTEP                         2           1           1          
  100CL  101 1.000000000         367                     0    1           1
 -4  STRESS      6    1
 -5  SXX         1    4    1    1
 -5  SYY         1    4    2    2
 -5  SZZ         1    4    3    3
 -5  SXY         1    4    1    2
 -5  SYZ         1    4    2    3
 -5  SZX         1    4    3    1
 -1         1 6.87276E+05 1.72039E+05 1.71863E+05 5.73833E+05 3.84834E-11-9.40148E-12
 -1         2-3.90928E+05-3.93123E+05-1.56810E+05 2.07860E+04 1.86114E-11 3.13631E-11
 -1         3 4.82642E+04-2.94188E+05-4.91848E+04 1.45955E+05 4.58504E-10-5.58617E-11
 -1         4-1.47554E+05-1.09688E+05-5.14484E+04-3.61116E+03 9.57918E-10 3.28509E-10
 -1         5-1.01591E+05-1.01049E+05-4.05280E+04 9.78178E+01 7.04480E-09-2.50484E-10
 -1         6-1.05118E+05-1.02854E+05-4.15944E+04-3.51643E+02-6.93144E-09-1.10205E-09
 -1         8-4.54364E+05-3.74812E+05-1.65835E+05 3.02615E+05 4.17654E-12-1.12346E-10
 -1        10-9.03375E+04-1.01306E+05-3.83288E+04-5.72064E+03 2.10601E-11-1.01839E-10
 -1        11-9.93685E+04-1.00066E+05-3.98870E+04-5.71483E+03-2.42527E-11 1.16802E-11
 -1        12-8.53165E+04-5.43500E+04-2.79333E+04-2.87717E+04 6.32524E-13 4.20000E-12
 -1        13 4.48737E+05-3.08015E+05 2.81444E+04 2.37939E+05 1.12631E-11-9.08427E-12
 -1        14-4.71314E+04-3.75085E+05-8.44433E+04 3.67895E+04-3.79266E-12 2.33285E-11
 -1        15-2.67766E+05-4.22091E+05-1.37971E+05 2.45821E+04-1.52994E-10 6.89148E-14
 -1        16 6.60729E+05-3.05753E+04 1.26031E+05 4.42968E+05-6.46509E-11 6.51600E-11
 -1        17 1.18954E+05-3.97471E+05-5.57035E+04 9.68835E+04-2.34066E-10-3.33719E-11
 -1        18-1.76668E+05-4.15209E+05-1.18376E+05 3.15193E+04 1.18450E-10-1.49222E-10
 -1        19-3.31076E+05-4.27761E+05-1.51767E+05 1.67029E+04 1.67268E-10-1.60904E-11
 -1        20-2.55233E+05-2.90652E+05-1.09177E+05 1.24515E+05-4.42438E-10-3.24915E-11
 -1        21-2.07806E+05-2.50592E+05-9.16795E+04 1.56511E+05 2.02877E-10-7.38320E-11
 -1        22-1.26930E+05-2.04460E+05-6.62781E+04 1.90958E+05-4.13730E-10-1.41954E-10
 -1        23-3.11862E+05-3.31683E+05-1.28709E+05 6.72978E+04-1.72118E-10 2.25502E-11
 -1        24-2.23139E+05-2.51892E+05-9.50061E+04 1.37234E+05-3.48891E-10 5.94650E-11
 -1        25-2.05720E+05-2.39187E+05-8.89813E+04 1.77837E+05 2.11062E-10 1.33087E-11
 -1        26 1.34416E+04-2.17988E+05-4.09094E+04 1.79974E+05-7.16849E-10-2.27256E-10
 -1        27-2.74957E+05-3.37174E+05-1.22426E+05-1.78906E+04-1.07063E-09 1.46793E-10
 -1        28-2.69785E+05-2.98840E+05-1.13725E+05-1.27330E+03-2.34453E-10 1.32752E-10
 -1        29-2.64571E+05-2.63177E+05-1.05550E+05 3.21252E+02-2.45200E-09-4.89273E-10
 -1        30-2.71493E+05-2.31553E+05-1.00609E+05 4.27624E+02 7.29620E-11-1.10638E-09
 -1        31-2.81304E+05-2.00874E+05-9.64356E+04 4.49454E+02-2.49987E-09-1.56155E-10
 -1        32-2.69358E+05-1.69185E+05-8.77086E+04-9.03883E+02 9.12922E-10 9.95524E-10
 -1        33-2.24438E+05-1.36853E+05-7.22584E+04-4.48368E+03 5.91522E-09-4.69813E-10
 -1        34-1.65049E+05-3.38277E+05-1.00665E+05 3.40795E+04-2.61470E-10 6.49510E-12
 -1        35-2.69907E+05-3.17186E+05-1.17419E+05-8.16100E+03-4.30812E-11-4.64253E-10
 -1        36-2.64739E+05-2.80564E+05-1.09061E+05 5.68740E+01 3.06827E-09 3.03902E-10
 -1        37-2.66969E+05-2.47803E+05-1.02955E+05 8.21160E+01 1.53218E-09 9.29404E-10
 -1        38-2.75618E+05-2.15741E+05-9.82719E+04-1.10886E+02-2.95782E-10 1.30163E-09
 -1        39-2.76802E+05-1.85353E+05-9.24310E+04-4.86178E+01 2.46404E-09-7.02443E-10
 -1        40-2.49471E+05-1.52941E+05-8.04824E+04-3.65463E+03 4.62132E-09 5.20712E-10
 -1        41-1.84045E+05-1.18764E+05-6.05618E+04-2.69610E+03-7.75660E-10 9.19146E-10
 -1        42-1.31576E+05-9.99973E+04-4.63147E+04-9.63469E+02 7.98399E-10 1.26486E-09
 -1        43-1.20000E+05-1.01417E+05-4.42833E+04-5.89354E+01-3.27347E-10-2.81716E-10
 -1        44-1.10772E+05-1.01350E+05-4.24244E+04 3.23395E+02-2.14409E-11-3.90976E-10
 -1        45-1.41279E+05-1.02582E+05-4.87721E+04-3.96033E+03-3.20446E-09 6.24941E-12
 -1        46-1.24571E+05-1.00985E+05-4.51111E+04-5.68044E+02 7.41556E-09 1.31071E-10
 -1        47-1.15295E+05-1.01197E+05-4.32984E+04 4.17198E+01 3.51833E-09-2.53276E-10
 -1        48-1.06375E+05-1.01420E+05-4.15589E+04 2.12828E+02-5.14085E-10-3.64777E-10
 -1        49-1.01761E+05-1.00812E+05-4.05146E+04 3.96266E+01 1.93709E-09 1.01876E-09
 -1        50-1.01262E+05-1.03006E+05-4.08536E+04 1.28225E+02 2.88744E-09 2.63833E-10
 -1        51-1.02449E+05-1.04517E+05-4.13932E+04-2.10308E+02 3.86040E-10 4.57647E-10
 -1        52-1.01226E+05-1.00724E+05-4.03901E+04 2.53826E+01 2.21853E-09 2.18289E-10
 -1        53-1.01016E+05-1.01625E+05-4.05282E+04-1.41211E+02-2.43572E-09-1.85815E-09
 -1        54-1.01715E+05-1.04157E+05-4.11743E+04-2.55280E+02 2.06751E-09-1.03115E-09
 -1        55-1.02079E+05-1.03544E+05-4.11247E+04-1.30391E+02 5.34435E-09-1.16488E-09
 -1        56-1.51148E+05-1.03243E+05-5.08782E+04 9.43681E+03-3.52919E-10 6.63030E-10
 -1        57-1.91625E+05-1.09661E+05-6.02572E+04 2.41443E+04-4.27552E-10-1.08254E-09
 -1        58-2.43984E+05-1.18847E+05-7.25663E+04 4.78993E+04 3.63382E-10 5.58261E-10
 -1        59-3.09762E+05-1.32632E+05-8.84789E+04 8.19996E+04-1.49528E-09 4.25505E-10
 -1        60-3.79645E+05-1.54092E+05-1.06748E+05 1.22227E+05-2.17299E-09 3.17755E-11
 -1        61-4.47694E+05-1.87712E+05-1.27081E+05 1.72712E+05-2.46848E-09-1.21321E-09
 -1        62-5.09136E+05-2.31364E+05-1.48100E+05 2.27242E+05 6.39223E-10 9.82329E-10
 -1        63-5.48042E+05-2.77417E+05-1.65092E+05 2.77038E+05-4.77410E-10-7.90845E-10
 -1        64-5.75466E+05-3.23068E+05-1.79707E+05 3.16013E+05 2.12341E-10-2.58167E-10
 -1        65-5.29039E+05-3.42855E+05-1.74379E+05 3.19871E+05 6.51870E-10 2.28974E-10
 -1        66-4.77815E+05-3.60931E+05-1.67749E+05 3.07103E+05-4.74535E-11 2.51912E-10
 -1        67-1.27895E+05-1.02174E+05-4.60138E+04 5.50224E+03-3.66817E-09 7.47784E-11
 -1        68-1.70268E+05-1.05590E+05-5.51714E+04 1.75275E+04-5.94287E-09-2.20150E-09
 -1        69-2.17053E+05-1.11441E+05-6.56988E+04 3.56914E+04-3.24209E-09 6.54147E-10
 -1        70-2.77578E+05-1.26054E+05-8.07265E+04 6.32936E+04-3.09929E-09-8.22513E-10
 -1        71-3.44341E+05-1.39321E+05-9.67323E+04 1.00667E+05 1.73974E-09-2.12504E-09
 -1        72-4.15001E+05-1.68972E+05-1.16795E+05 1.47240E+05 1.68434E-09 1.06677E-09
 -1        73-4.80120E+05-2.06813E+05-1.37387E+05 1.99680E+05-2.01082E-09 1.10534E-10
 -1        74-5.32371E+05-2.53882E+05-1.57251E+05 2.53474E+05 2.15287E-10 1.58455E-10
 -1        75-5.63194E+05-2.94584E+05-1.71556E+05 2.97255E+05-1.02876E-09-1.16592E-10
 -1        76-5.50530E+05-3.31918E+05-1.76490E+05 3.24784E+05-1.59913E-09 1.57804E-09
 -1        77-5.11954E+05-3.55398E+05-1.73470E+05 3.20399E+05-6.82715E-10 1.57214E-09
 -1        78-4.44616E+05-3.52918E+05-1.59507E+05 2.95633E+05-1.95448E-10-6.56846E-10
 -1        79-2.67599E+05-3.94724E+05-1.32465E+05 2.09097E+05 1.40337E-11-1.49524E-11
 -1        80-1.21798E+05-2.62520E+05-7.68636E+04 6.57484E+04 4.20598E-11-9.45394E-11
 -1        81-8.30788E+04-1.44445E+05-4.55047E+04-5.82096E+03-7.67454E-11 1.75272E-10
 -1        82-3.80379E+05-4.13866E+05-1.58849E+05 2.71903E+05 1.12152E-10 6.01891E-10
 -1        83-1.61792E+05-3.31047E+05-9.85678E+04 1.31030E+05-8.97675E-11 1.64401E-10
 -1        84-8.22797E+04-1.99202E+05-5.62964E+04 2.28989E+04 6.99145E-11-3.70581E-11
 -1        85-8.73023E+04-1.21857E+05-4.18318E+04-8.88790E+03-4.39671E-11-1.46075E-10
 -1        86-1.15336E+05-1.20358E+05-4.71388E+04 1.63932E+04-3.90063E-12-6.09486E-11
 -1        87-1.18794E+05-1.18415E+05-4.74417E+04 1.88538E+04-4.39472E-12-5.15320E-11
 -1        88-1.10404E+05-1.16340E+05-4.53487E+04 3.62672E+03 1.21493E-11 9.35187E-12
 -1        89-1.05609E+05-1.15497E+05-4.42212E+04 6.42997E+03 1.81100E-11 1.42320E-10
 -1        90-1.19443E+05-1.22440E+05-4.83766E+04 1.67896E+04 5.88369E-12 4.97519E-11
 -1        91-1.11404E+05-1.02558E+05-4.27923E+04 1.80866E+04 8.07110E-13 4.82214E-11
 -1        92-1.00846E+05-9.92524E+04-4.00196E+04 2.03353E+03-6.99105E-12-1.16577E-11
 -1        93-9.40303E+04-1.04940E+05-3.97941E+04-8.37734E+03-1.49610E-13 2.34481E-12
 -1        94-8.68905E+04-9.46315E+04-3.63044E+04-1.18306E+04-2.26130E-12 2.78821E-12
 -1        95-6.81732E+04-1.13761E+05-3.63869E+04-1.56525E+04 9.18134E-13 7.66666E-12
 -1        96-9.89647E+04-9.82395E+04-3.94408E+04-6.87702E+03-1.65507E-11-9.42396E-12
 -1        97-8.65500E+04-9.86176E+04-3.70335E+04-9.62968E+03 2.72517E-12-2.85855E-12
 -1        98-8.36047E+04-1.01168E+05-3.69546E+04-1.58721E+04 1.87390E-12-1.52418E-12
 -1        99-5.56941E+04-1.00886E+05-3.13160E+04-1.81466E+04-3.26346E-12-5.25784E-13
 -1       100-2.18339E+05-5.45749E+04-5.45829E+04 2.70052E+04 1.74403E-12-3.05652E-12
 -1       101-2.70894E+05-7.20880E+04-6.85963E+04 7.47820E+04-2.40383E-12 2.70540E-12
 -1       102-4.03194E+05-1.00754E+05-1.00790E+05 1.41041E+05-3.99086E-12 3.44702E-12
 -1       103-5.63513E+05-1.37956E+05-1.40294E+05 1.74177E+05 2.66085E-11-4.51882E-11
 -1       104-6.52172E+05-1.63234E+05-1.63081E+05 1.77834E+05 1.10216E-11-3.67666E-11
 -1       105-6.82082E+05-1.70568E+05-1.70530E+05 1.72318E+05-5.48427E-12-1.87754E-11
 -1       106-6.75478E+05-1.69112E+05-1.68918E+05 1.66385E+05-2.10902E-11-6.18118E-11
 -1       107-6.31932E+05-1.57978E+05-1.57982E+05 1.65264E+05-4.14987E-11 3.50645E-11
 -1       108-5.52567E+05-1.38261E+05-1.38166E+05 1.70985E+05-4.45847E-12-8.86071E-11
 -1       109-4.45438E+05-1.11812E+05-1.11450E+05 1.99842E+05 6.84759E-11 2.30963E-11
 -1       110-3.44712E+05-8.55943E+04-8.60612E+04 2.50722E+05-1.27233E-11 2.17447E-12
 -1       111-1.66887E+05-4.10410E+04-4.15856E+04-7.09836E+03 3.74354E-13 2.20017E-13
 -1       112-2.47295E+05-6.18292E+04-6.18248E+04 5.09982E+04-6.02223E-12 2.12486E-12
 -1       113-3.26435E+05-8.14025E+04-8.15676E+04 1.06566E+05-1.74039E-12 8.35868E-12
 -1       114-4.79455E+05-1.19997E+05-1.19890E+05 1.61076E+05 5.79164E-12 9.99832E-12
 -1       115-6.03735E+05-1.50625E+05-1.50872E+05 1.74282E+05-1.33376E-11 2.43256E-11
 -1       116-6.71912E+05-1.68504E+05-1.68083E+05 1.74196E+05 1.81756E-11 1.96916E-11
 -1       117-6.82134E+05-1.70920E+05-1.70611E+05 1.70558E+05 2.16103E-11 4.75256E-11
 -1       118-6.52210E+05-1.63069E+05-1.63056E+05 1.65272E+05 3.69007E-11 9.70795E-11
 -1       119-5.96493E+05-1.49145E+05-1.49128E+05 1.67059E+05 9.54024E-12 5.99932E-11
 -1       120-5.01066E+05-1.25491E+05-1.25311E+05 1.82471E+05-2.03657E-11 7.40883E-11
 -1       121-4.12898E+05-1.03853E+05-1.03350E+05 2.16325E+05-5.76252E-11 3.66062E-12
 -1       122-1.47506E+05-3.80581E+04-3.71129E+04 3.42638E+05 2.04790E-11-3.69857E-12
 -1       123-4.28476E+05-2.70430E+05-1.39781E+05 1.69397E+05 4.48827E-10 6.47215E-10
 -1       124-5.90920E+05-1.86470E+05-1.55478E+05 1.78690E+05 1.27312E-10-9.88459E-11
 -1       125-1.91624E+05-2.67988E+05-9.19224E+04 2.41604E+05 1.66438E-10 3.78883E-11
 -1       126-3.27828E+05-2.83669E+05-1.22299E+05 1.14706E+05-5.63128E-10 1.89269E-10
 -1       127-3.51601E+05-2.62712E+05-1.22863E+05 1.22407E+05-3.38236E-09-5.32160E-10
 -1       128-2.71055E+05-2.25883E+05-9.93877E+04 1.56034E+05-1.19521E-10-1.35330E-10
 -1       129-3.11482E+05-2.23617E+05-1.07020E+05 8.34281E+04 2.03073E-10 4.54800E-10
 -1       130-4.74083E+05-1.98078E+05-1.34432E+05 1.66049E+05-9.13813E-11 4.58629E-10
 -1       131-3.26606E+05-2.35078E+05-1.12337E+05 1.43419E+05-2.02792E-10 2.13520E-10
 -1       132-5.32658E+05-2.45014E+05-1.55534E+05 2.01549E+05 9.50477E-11-8.48580E-11
 -1       133-5.30250E+05-2.59867E+05-1.58023E+05 2.21370E+05 4.52015E-11-1.59633E-10
 -1       134-5.00710E+05-2.78826E+05-1.55907E+05 2.25111E+05 6.51076E-10-1.17899E-10
 -1       135-4.72321E+05-2.84935E+05-1.51451E+05 2.10931E+05-1.61009E-11 2.94780E-10
 -1       136-1.21827E+05-8.87355E+04-4.21125E+04 2.36684E+03 2.97344E-12 8.91703E-12
 -1       137-1.79723E+05-9.54323E+04-5.50311E+04 2.67050E+04-1.42490E-11 2.20955E-11
 -1       138-1.58690E+05-1.32990E+05-5.83361E+04 3.11170E+04-1.19804E-11 2.97016E-11
 -1       139-6.05128E+05-1.68289E+05-1.54683E+05 1.73305E+05-1.61798E-11-3.51781E-11
 -1       140-6.30509E+05-1.62273E+05-1.58556E+05 1.71829E+05-2.13700E-11-2.32123E-11
 -1       141-6.26037E+05-1.59909E+05-1.57189E+05 1.71140E+05 5.62948E-11-6.76815E-11
 -1       142-1.12416E+05-1.02347E+05-4.29527E+04-5.41135E+02 7.64809E-11 3.47175E-10
 -1       143-1.21324E+05-1.03555E+05-4.49758E+04-1.51266E+03 1.25572E-09-7.00049E-10
 -1       144-1.19393E+05-9.93055E+04-4.37398E+04 2.66480E+03-8.19726E-12-4.45679E-11
 -1       145-1.74350E+05-1.15229E+05-5.79158E+04 3.36831E+03 1.22791E-09-1.77497E-11
 -1       146-2.63957E+05-1.61573E+05-8.51059E+04 4.93345E+04 8.20149E-10 8.57645E-10
 -1       147-2.23998E+05-1.35853E+05-7.19701E+04 2.13101E+04 7.18955E-10-3.84419E-10
 -1       148-4.42606E+05-2.39200E+05-1.36361E+05 1.63626E+05-6.46256E-10 1.27504E-11
 -1       149-5.54639E+05-1.87945E+05-1.48517E+05 1.75199E+05-1.39441E-10 1.78923E-10
 -1       150-5.12143E+05-2.35384E+05-1.49505E+05 1.88740E+05-9.27680E-10-1.67361E-10
 -1       151-3.81894E+05-1.76487E+05-1.11676E+05 1.56176E+05 1.17939E-10 3.10617E-11
 -1       152-5.04882E+05-2.16703E+05-1.44317E+05 1.85200E+05-8.68132E-11 1.94542E-10
 -1       153-2.27382E+05-1.64509E+05-7.83782E+04 8.98270E+04-2.43857E-11 1.72646E-11
 -1       154-3.26740E+05-1.46201E+05-9.45881E+04 2.39860E+05 1.57234E-10-6.20073E-12
 -1       155-1.85024E+05-2.98170E+05-9.66389E+04 1.67070E+05-5.95666E-11 1.19426E-11
 -1       156-1.87859E+05-2.58308E+05-8.92335E+04 1.61409E+05 4.08662E-10 4.21596E-11
 -1       157-3.49760E+05-1.83954E+05-1.06743E+05 2.00437E+05-8.38044E-11 8.21149E-12
 -1       158-2.40818E+05-2.37867E+05-9.57371E+04 2.06378E+05 3.75098E-12-4.31492E-13
 -1       159-3.20127E+05-1.83692E+05-1.00764E+05 9.63048E+04-1.11918E-09 1.47768E-10
 -1       160-2.90381E+05-2.28786E+05-1.03833E+05 4.59611E+04 2.22460E-10-5.67931E-11
 -1       161-2.88771E+05-1.97354E+05-9.72252E+04 5.55039E+04-9.11201E-10-5.24196E-10
 -1       162-3.30729E+05-2.43688E+05-1.14883E+05 1.03056E+05-4.03855E-10-1.06174E-10
 -1       163-3.02049E+05-2.78564E+05-1.16123E+05 6.38724E+04 3.84724E-10-1.00437E-10
 -1       164-2.97053E+05-2.55151E+05-1.10441E+05 5.47873E+04 2.20457E-11 2.42507E-10
 -1       165-4.55631E+05-1.71882E+05-1.25503E+05 1.73075E+05-1.58603E-10-1.33435E-10
 -1       166-5.63373E+05-1.58200E+05-1.44315E+05 1.71560E+05 1.89762E-10-3.20659E-10
 -1       167-3.02053E+05-2.15674E+05-1.03545E+05 1.39397E+05 1.74176E-11-1.86977E-10
 -1       168-4.07657E+05-2.13989E+05-1.24329E+05 1.57648E+05 3.78475E-10 4.86255E-10
 -1       169-3.80136E+05-1.95257E+05-1.15079E+05 1.59369E+05-1.83162E-10-9.61253E-11
 -1       170-2.83690E+05-3.06357E+05-1.18009E+05 5.19817E+04-1.42182E-09 1.64388E-10
 -1       171-3.27716E+05-2.64754E+05-1.18494E+05 1.28427E+05 9.03368E-11-3.74940E-10
 -1       172-2.58040E+05-2.35382E+05-9.86845E+04 1.30330E+05 3.12360E-10 1.25688E-10
 -1       173-2.52634E+05-3.11042E+05-1.12735E+05 8.35706E+04 6.16513E-10-3.92824E-10
 -1       174-3.86504E+05-2.78690E+05-1.33039E+05 1.49161E+05-1.36713E-09 3.94174E-10
 -1       175-3.92196E+05-2.37269E+05-1.25893E+05 1.55195E+05 1.82980E-09-4.93777E-10
 -1       176-4.34695E+05-2.68403E+05-1.40620E+05 1.88310E+05 5.71055E-10-1.95666E-10
 -1       177-3.55471E+05-2.08408E+05-1.12776E+05 1.25325E+05 1.09771E-09-6.68275E-10
 -1       178-3.82085E+05-2.69732E+05-1.30363E+05 1.42316E+05 6.19894E-10 6.28837E-10
 -1       179-3.89905E+05-2.47065E+05-1.27394E+05 1.48239E+05 2.31424E-10-4.33575E-10
 -1       180-3.32292E+05-2.84855E+05-1.23430E+05 1.05437E+05 1.25696E-09-4.21073E-10
 -1       181-1.71871E+05-2.33083E+05-8.09908E+04 1.31332E+05 7.82976E-11 7.16540E-11
 -1       182-9.80587E+04-3.35857E+05-8.67832E+04 2.30146E+05-1.52987E-10-1.58397E-11
 -1       183-1.96682E+05-3.62100E+05-1.11756E+05 1.44230E+05-1.67666E-10-1.33126E-11
 -1       184-1.43088E+05-1.11122E+05-5.08420E+04 3.47751E+05-1.58727E-10-3.57105E-11
 -1       185-1.37924E+05-1.07302E+05-4.90452E+04 3.59512E+02 2.86512E-09-6.40068E-10
 -1       186-5.19286E+05-2.84859E+05-1.60829E+05 2.42281E+05-3.08764E-10 1.26037E-10
 -1       187-5.14962E+05-2.95563E+05-1.62105E+05 2.44640E+05-1.67685E-10 1.44745E-09
 -1       188-1.74745E+05-7.16611E+04-4.92813E+04 1.31733E+04-3.74991E-12-2.58153E-12
 -1       189-1.46840E+05-1.14341E+05-5.22361E+04 1.72272E+04-1.20993E-11 2.58977E-11
 -1       190-6.35355E+05-1.60678E+05-1.59207E+05 1.71428E+05 5.77205E-11-4.00724E-11
 -1       191-6.48528E+05-1.60223E+05-1.61750E+05 1.71144E+05-1.67536E-11 3.93248E-13
 -1       192-1.08545E+05-1.01344E+05-4.19778E+04-3.47719E+01-3.45875E-09 7.61950E-10
 -1       193-1.23799E+05-1.02771E+05-4.53140E+04-1.27924E+03-3.30751E-09-3.83944E-10
 -1       194-1.05959E+05-9.78289E+04-4.07575E+04 8.75893E+01 9.44130E-12-2.92068E-12
 -1       195-1.11771E+05-8.52076E+04-3.93957E+04-7.63456E+03-2.98527E-12 1.10911E-12
 -1       196-1.61395E+05-1.14580E+05-5.51948E+04-2.77869E+02-2.41499E-09-2.46980E-10
 -1       197-1.98125E+05-1.22308E+05-6.40866E+04 1.21227E+04-2.26403E-09 1.47920E-09
 -1       198-2.20155E+05-1.36557E+05-7.13424E+04 7.55658E+03 5.89199E-09-1.63270E-10
 -1       199-1.83872E+05-1.12563E+05-5.92870E+04 1.38964E+04 5.86390E-09-2.09173E-09
 -1       200-2.30951E+05-1.25791E+05-7.13484E+04 3.62112E+04-9.92058E-10 1.81120E-11
 -1       201-2.81361E+05-1.46237E+05-8.55195E+04 6.65586E+04-3.00298E-09-1.09135E-09
 -1       202-2.44656E+05-1.48484E+05-7.86281E+04 3.45327E+04 2.50715E-10 1.48027E-09
 -1       203-2.60300E+05-1.64268E+05-8.49135E+04 2.45036E+04-3.53423E-10 5.30361E-10
 -1       204-4.56517E+05-2.18349E+05-1.34973E+05 1.64334E+05-1.11392E-10-3.71545E-10
 -1       205-4.82605E+05-2.37844E+05-1.44090E+05 1.76540E+05-6.18159E-10-3.44950E-10
 -1       206-5.31061E+05-2.09892E+05-1.48191E+05 1.80329E+05 1.68763E-10 1.68383E-10
 -1       207-5.18897E+05-1.93598E+05-1.42499E+05 1.70913E+05 2.16114E-11-2.13806E-10
 -1       208-4.35302E+05-2.56313E+05-1.38323E+05 1.65726E+05 4.02898E-10 8.71452E-11
 -1       209-4.73293E+05-2.75964E+05-1.49851E+05 1.96852E+05 6.87151E-11 4.86783E-10
 -1       210-5.06008E+05-2.59206E+05-1.53043E+05 2.05020E+05 5.81569E-11 8.36050E-10
 -1       211-5.32096E+05-3.12909E+05-1.69001E+05 2.71953E+05 2.89100E-10 3.48711E-10
 -1       212-5.25981E+05-3.04559E+05-1.66108E+05 2.67918E+05 1.30104E-09 3.48289E-10
 -1       213-5.32548E+05-2.49233E+05-1.56356E+05 2.05209E+05 5.96766E-10-8.70686E-10
 -1       214-5.54052E+05-2.19460E+05-1.54702E+05 1.96624E+05 2.10532E-11 4.38323E-10
 -1       215-5.79363E+05-1.89619E+05-1.53796E+05 1.77506E+05-1.46910E-10-9.32787E-11
 -1       216-5.64312E+05-2.13305E+05-1.55523E+05 1.91087E+05-5.84194E-11-4.76513E-10
 -1       217-5.22889E+05-2.36371E+05-1.51852E+05 1.93686E+05-8.42966E-11-3.71098E-10
 -1       218-5.49605E+05-1.88496E+05-1.47620E+05 1.75546E+05-5.85526E-11 2.86001E-10
 -1       219-5.99482E+05-1.79570E+05-1.55810E+05 1.77422E+05-1.18262E-10 2.31229E-10
 -1       220-4.78953E+05-3.02077E+05-1.56206E+05 2.41925E+05 7.59483E-11 2.09199E-10
 -1       221-3.90167E+05-2.93064E+05-1.36646E+05 1.92691E+05 2.56273E-10 2.50541E-10
 -1       222-2.68983E+05-2.33217E+05-1.00440E+05 1.23919E+05-1.56844E-11 2.76067E-10
 -1       223-4.36975E+05-1.96929E+05-1.26781E+05 1.69707E+05 9.64737E-11-4.10694E-10
 -1       224-4.73995E+05-1.52908E+05-1.25381E+05 1.63197E+05 6.27318E-11-2.59315E-11
 -1       225-5.84420E+05-1.53246E+05-1.47533E+05 1.72073E+05 1.50665E-11 3.24153E-11
 -1       226-1.24489E+05-1.26157E+05-5.01291E+04 1.35000E+04 9.90119E-12 1.92450E-11
 -1       227-1.84142E+05-1.41638E+05-6.51562E+04 5.61797E+04 1.49417E-12-8.22423E-11
 -1       228-1.67671E+05-1.77929E+05-6.91199E+04 5.37212E+04 9.37301E-11-9.03060E-12
 -1       229-2.18652E+05-1.01200E+05-6.39705E+04 5.52044E+04-1.12820E-11-2.97734E-11
 -1       230-3.24139E+05-1.34724E+05-9.17727E+04 1.18107E+05-5.03346E-13-2.30367E-11
 -1       231-2.99151E+05-1.72804E+05-9.43909E+04 1.24478E+05 1.90579E-11 1.77953E-11
 -1       232-3.83040E+05-1.19909E+05-1.00590E+05 2.23286E+05 1.07025E-10-1.11012E-11
 -1       233-2.82754E+05-2.00745E+05-9.66997E+04 2.24967E+05-3.01031E-10 1.06465E-10
 -1       234-2.94894E+05-2.04306E+05-9.98400E+04 2.04758E+05-4.73675E-11 4.88017E-11
 -1       235-3.98010E+05-1.48446E+05-1.09291E+05 2.03545E+05-1.32630E-10-1.62366E-11
 -1       236-2.39919E+05-1.93599E+05-8.67037E+04 2.51750E+05 3.32724E-11 1.23807E-12
 -1       237-1.88235E+05-3.00725E+05-9.77920E+04 1.99586E+05 7.09805E-11 2.39355E-11
 -1       238-2.02500E+05-2.63363E+05-9.31724E+04 1.95216E+05 4.65102E-10-2.05361E-11
 -1       239-2.00484E+05-2.82936E+05-9.66840E+04 1.57100E+05 4.88360E-10-8.10344E-12
 -1       240-1.73698E+05-2.51835E+05-8.51068E+04 1.64388E+05 1.46379E-10-1.03708E-11
 -1       241-2.19980E+05-2.57948E+05-9.55857E+04 1.79831E+05-1.48827E-10-6.00841E-11
 -1       242-2.26426E+05-2.38019E+05-9.28891E+04 1.58162E+05 2.13740E-10 1.66528E-10
 -1       243-3.10883E+05-2.09528E+05-1.04082E+05 1.79199E+05 4.77811E-10-1.61816E-10
 -1       244-2.78143E+05-1.80481E+05-9.17248E+04 5.31446E+04-1.23813E-09-3.82710E-11
 -1       245-2.79642E+05-1.97888E+05-9.55060E+04 2.85607E+04-5.77065E-10 1.70351E-10
 -1       246-3.18867E+05-1.60480E+05-9.58693E+04 9.09485E+04 7.81364E-10-2.17861E-10
 -1       247-2.98258E+05-1.89622E+05-9.75761E+04 7.55979E+04 2.10112E-09 1.04402E-09
 -1       248-3.17599E+05-2.05642E+05-1.04648E+05 9.12286E+04 7.23277E-10-6.60400E-10
 -1       249-2.99241E+05-2.25845E+05-1.05017E+05 6.45032E+04-1.93605E-09-1.07114E-11
 -1       250-2.89706E+05-2.13824E+05-1.00706E+05 5.11901E+04 2.37971E-09 5.42154E-10
 -1       251-2.80607E+05-2.30230E+05-1.02167E+05 2.34244E+04-2.99725E-09 1.47534E-09
 -1       252-3.21070E+05-2.32176E+05-1.10649E+05 9.28433E+04 5.04846E-10-2.30826E-10
 -1       253-3.13529E+05-2.49198E+05-1.12545E+05 7.89151E+04 3.01882E-09 4.58479E-11
 -1       254-2.93176E+05-2.41715E+05-1.06978E+05 4.98963E+04-3.87985E-10 4.47064E-10
 -1       255-3.41537E+05-2.52402E+05-1.18788E+05 1.12371E+05-5.00287E-11 1.14091E-09
 -1       256-3.26568E+05-2.70130E+05-1.19340E+05 9.30278E+04 5.74793E-10 1.03083E-09
 -1       257-3.00623E+05-2.67331E+05-1.13591E+05 5.89907E+04 4.01101E-10 3.75496E-10
 -1       258-2.83132E+05-2.86924E+05-1.14011E+05 3.21653E+04-1.22820E-10 2.73636E-11
 -1       259-2.80960E+05-2.59441E+05-1.08080E+05 2.74629E+04 3.14568E-09-3.92669E-10
 -1       260-6.05147E+05-1.69920E+05-1.55013E+05 1.72125E+05-2.42853E-10-3.69296E-11
 -1       261-6.00147E+05-1.61196E+05-1.52269E+05 1.71807E+05 5.42715E-11-4.59217E-11
 -1       262-5.55164E+05-1.69745E+05-1.44982E+05 1.70091E+05-1.25929E-10-4.14160E-10
 -1       263-6.26199E+05-1.57864E+05-1.56813E+05 1.67736E+05 8.04450E-11-1.56517E-10
 -1       264-5.53162E+05-1.50838E+05-1.40800E+05 1.71029E+05-1.50347E-11-1.46961E-11
 -1       265-4.44628E+05-1.48698E+05-1.18665E+05 1.85594E+05-1.18435E-10 3.32870E-11
 -1       266-5.13673E+05-1.64242E+05-1.35583E+05 1.71589E+05 3.67052E-11 1.91180E-11
 -1       267-4.63452E+05-1.82302E+05-1.29151E+05 1.67363E+05 1.03843E-10-3.79814E-10
 -1       268-3.60068E+05-1.92079E+05-1.10429E+05 1.75887E+05-3.24181E-10 5.11861E-11
 -1       269-4.15962E+05-1.82567E+05-1.19706E+05 1.67466E+05 8.69750E-11 5.20200E-10
 -1       270-2.82065E+05-2.15420E+05-9.94971E+04 1.44887E+05 1.86388E-10 1.80069E-10
 -1       271-3.41018E+05-2.08049E+05-1.09813E+05 1.49772E+05 2.72998E-10 3.32366E-10
 -1       272-3.13394E+05-2.22417E+05-1.07162E+05 1.39620E+05 4.34190E-10 5.21591E-10
 -1       273-3.68263E+05-2.25475E+05-1.18748E+05 1.50366E+05-1.41944E-10-8.30992E-10
 -1       274-3.92857E+05-2.00780E+05-1.18727E+05 1.57261E+05-3.66536E-10 2.33428E-10
 -1       275-4.41381E+05-2.06495E+05-1.29575E+05 1.61709E+05 3.20750E-10-2.25857E-10
 -1       276-2.63322E+05-3.20898E+05-1.16844E+05 3.65281E+04 3.84142E-11-5.98541E-10
 -1       277-2.48887E+05-2.88784E+05-1.07534E+05 9.81649E+04-2.55372E-10 2.40762E-10
 -1       278-1.42036E+05-2.65683E+05-8.15438E+04 1.36925E+05-5.03445E-10-9.35262E-12
 -1       279-2.74686E+05-3.03495E+05-1.15636E+05 2.51173E+04 2.17570E-10-8.70962E-10
 -1       280-2.78738E+05-3.14208E+05-1.18589E+05 6.26889E+04 1.39251E-09 1.18015E-10
 -1       281-3.03365E+05-2.94822E+05-1.19637E+05 8.50284E+04 8.21564E-10 2.58992E-10
 -1       282-3.27637E+05-2.76772E+05-1.20882E+05 1.19967E+05 5.73789E-10-5.28928E-11
 -1       283-2.85017E+05-2.87187E+05-1.14441E+05 1.05962E+05-1.77840E-10 1.03684E-10
 -1       284-3.27062E+05-2.53401E+05-1.16093E+05 1.35624E+05 6.91986E-10 2.16001E-10
 -1       285-3.00332E+05-2.42926E+05-1.08652E+05 1.35839E+05 2.75370E-10 1.71565E-10
 -1       286-4.08481E+05-2.76684E+05-1.37033E+05 1.60456E+05 4.25853E-10-9.33164E-10
 -1       287-4.09402E+05-2.71990E+05-1.36278E+05 1.67351E+05 9.67631E-10-6.06676E-10
 -1       288-4.54198E+05-2.77132E+05-1.46266E+05 2.00207E+05 3.68279E-11-1.03774E-10
 -1       289-4.47870E+05-2.76490E+05-1.44872E+05 1.88392E+05 9.09774E-10-4.12775E-10
 -1       290-3.69145E+05-2.70840E+05-1.27997E+05 1.35588E+05 1.54715E-09 2.09933E-10
 -1       291-3.72297E+05-2.50287E+05-1.24517E+05 1.38558E+05-8.66269E-10 1.24929E-11
 -1       292-4.13871E+05-2.51270E+05-1.33028E+05 1.71289E+05-8.05145E-10-3.66812E-10
 -1       293-4.20295E+05-2.14441E+05-1.26947E+05 1.65030E+05-3.32908E-10 1.35351E-09
 -1       294-4.68672E+05-2.49529E+05-1.43640E+05 2.06963E+05 1.32231E-09 2.54861E-10
 -1       295-5.06456E+05-2.80996E+05-1.57490E+05 2.43299E+05 1.59648E-10 5.98253E-10
 -1       296-3.70185E+05-1.84764E+05-1.10990E+05 1.26057E+05-1.05184E-09 1.43726E-09
 -1       297-3.37086E+05-1.93173E+05-1.06052E+05 1.09771E+05-1.43522E-09 1.20748E-09
 -1       298-3.74497E+05-2.21143E+05-1.19128E+05 1.39838E+05-9.90894E-10-1.05295E-09
 -1       299-3.44762E+05-2.28006E+05-1.14554E+05 1.14877E+05 2.60734E-09-2.01432E-10
 -1       300-3.97676E+05-2.31331E+05-1.25801E+05 1.52434E+05 5.07280E-10 3.72136E-10
 -1       301-4.17615E+05-2.43549E+05-1.32233E+05 1.55854E+05 3.37900E-10 6.62934E-10
 -1       302-3.59901E+05-2.56198E+05-1.23220E+05 1.38163E+05 2.51067E-10 1.50034E-10
 -1       303-3.56844E+05-2.75665E+05-1.26502E+05 1.28904E+05-8.64880E-10-7.48249E-10
 -1       304-3.86461E+05-2.60731E+05-1.29438E+05 1.44337E+05 9.84263E-12 1.85613E-10
 -1       305-4.06561E+05-2.70016E+05-1.35316E+05 1.55817E+05-7.22002E-10-3.44172E-10
 -1       306-3.17897E+05-2.83867E+05-1.20353E+05 8.34478E+04-6.11152E-10 5.05255E-11
 -1       307-3.06196E+05-2.93854E+05-1.20010E+05 8.00008E+04 2.15972E-09 2.37258E-10
 -1       308-3.60187E+05-2.80398E+05-1.28117E+05 1.26738E+05-9.05560E-10-3.71816E-10
 -1       309-3.56393E+05-2.79410E+05-1.27160E+05 1.24257E+05 3.04181E-10 7.77091E-10
 -1       310-2.54294E+05-2.21630E+05-9.51848E+04 1.38986E+05 5.02201E-12-1.99749E-11
 -1       311-2.01598E+05-2.22348E+05-8.47893E+04 1.27589E+05-2.61066E-10-1.56989E-10
 -1       312-1.91467E+05-2.47532E+05-8.77997E+04 1.46481E+05 7.80319E-11 1.36857E-10
 -1       313-1.49752E+05-2.25592E+05-7.50688E+04 1.53876E+05-5.78021E-11 1.15050E-10
 -1       314-1.91187E+05-3.20774E+05-1.02392E+05 1.51965E+05 1.97894E-10 2.16060E-11
 -1       315-2.31825E+05-3.42914E+05-1.14948E+05 1.29622E+05-9.38733E-10-3.03958E-11
 -1       316-1.67456E+05-2.99215E+05-9.33341E+04 2.34542E+05-9.61910E-11-3.73985E-11
 -1       317-1.57585E+05-3.64093E+05-1.04336E+05 1.80920E+05-7.90804E-11 3.36385E-11
 -1       318-9.94148E+04-3.77105E+05-9.53039E+04 1.49241E+05-2.20302E-10 2.95985E-11
 -1       319-2.25566E+05-3.84753E+05-1.22064E+05 8.10312E+04 1.62327E-10-7.38397E-12
 -1       320-1.14916E+05-2.10359E+05-6.50549E+04 2.98458E+05 8.39118E-11-5.28700E-12
 -1       321-1.12269E+05-2.43104E+05-7.10747E+04 2.73181E+05 2.19602E-11-1.13033E-12
 -1       322-3.05157E+05-1.64608E+05-9.39529E+04 2.61802E+05 9.97479E-12 2.31691E-12
 -1       323-2.09895E+05-8.64221E+04-5.92635E+04 3.05721E+05 5.56642E-11-3.63770E-12
 -1       324-1.34200E+05-1.05669E+05-4.79738E+04-3.08028E+03-9.61938E-10-6.74664E-10
 -1       325-1.31478E+05-1.06000E+05-4.74954E+04-1.03507E+03-5.45776E-10-6.20623E-10
 -1       326-1.55276E+05-1.08985E+05-5.28522E+04 2.27711E+03-2.14388E-09 1.58935E-10
 -1       327-1.11722E+05-1.03263E+05-4.29969E+04-7.81767E+02 3.32651E-11-1.74105E-09
 -1       328-1.20013E+05-1.04896E+05-4.49818E+04 1.22245E+02-2.44524E-09 9.12738E-10
 -1       329-1.45795E+05-1.06288E+05-5.04165E+04 4.34209E+03-1.89925E-09-1.01005E-09
 -1       330-4.91022E+05-3.15160E+05-1.61236E+05 2.69202E+05-2.48548E-10-8.71594E-10
 -1       331-5.26147E+05-2.72684E+05-1.59766E+05 2.31044E+05 5.36479E-10-3.93223E-10
 -1       332-5.21431E+05-2.63854E+05-1.57057E+05 2.21435E+05 4.87879E-10 7.34584E-10
 -1       333-5.33388E+05-3.04582E+05-1.67594E+05 2.76972E+05-3.32719E-10-2.13912E-10
 -1       334-4.93401E+05-2.88970E+05-1.56474E+05 2.28001E+05 1.17040E-10-4.32443E-11
 -1       335-5.08378E+05-2.87645E+05-1.59205E+05 2.35162E+05 6.12616E-11-2.13766E-10
 -1       336-1.22565E+05-1.19695E+05-4.84519E+04 8.91423E+03 1.55096E-12-2.24889E-11
 -1       337-1.51183E+05-8.69464E+04-4.76259E+04 8.61035E+03 2.05889E-12-4.54889E-12
 -1       338-1.83548E+05-9.02768E+04-5.47650E+04 2.34916E+04 1.15448E-11-5.84569E-12
 -1       339-1.48868E+05-1.05323E+05-5.08382E+04 1.73903E+04-2.36193E-12 5.76025E-11
 -1       340-1.04696E+05-8.15478E+04-3.72488E+04-1.79848E+04-1.55245E-12 3.65440E-12
 -1       341-1.94015E+05-6.77119E+04-5.23454E+04 1.96463E+04-3.03816E-13-4.46756E-12
 -1       342-2.28187E+05-8.41231E+04-6.24621E+04 5.35284E+04-2.72953E-12 1.75792E-11
 -1       343-1.49263E+05-1.21205E+05-5.40936E+04 2.29285E+04-1.22003E-11-5.15506E-11
 -1       344-1.64739E+05-1.13988E+05-5.57454E+04 2.40364E+04 5.16387E-12-1.31152E-11
 -1       345-1.27892E+05-1.17134E+05-4.90052E+04 1.48597E+04-5.06825E-12 1.66587E-11
 -1       346-6.20392E+05-1.63007E+05-1.56680E+05 1.73364E+05-1.29391E-10 1.90154E-10
 -1       347-6.37911E+05-1.66394E+05-1.60861E+05 1.70106E+05 1.04384E-10 1.04371E-10
 -1       348-6.09818E+05-1.74689E+05-1.56901E+05 1.75809E+05 5.28058E-11 3.29959E-10
 -1       349-6.37004E+05-1.58636E+05-1.59128E+05 1.76722E+05 4.63698E-11 3.20760E-11
 -1       350-6.57379E+05-1.63803E+05-1.64236E+05 1.71809E+05 7.16410E-11 6.11780E-11
 -1       351-6.58661E+05-1.60807E+05-1.63894E+05 1.67203E+05-1.02141E-11-5.60684E-11
 -1       352-6.43892E+05-1.64380E+05-1.61654E+05 1.72060E+05-1.18195E-10-2.44744E-10
 -1       353-6.37462E+05-1.59411E+05-1.59374E+05 1.70318E+05-1.62840E-10-3.68464E-10
 -1       354-1.09944E+05-1.01398E+05-4.22684E+04 1.25216E+02-9.10551E-10-4.50059E-10
 -1       355-1.10153E+05-1.01606E+05-4.23518E+04-3.90047E+02-2.17426E-09-5.08956E-10
 -1       356-1.17454E+05-1.02038E+05-4.38984E+04-1.66324E+02 2.27704E-09 1.83028E-09
 -1       357-1.04976E+05-1.01029E+05-4.12008E+04-6.26297E+01-2.52337E-09-8.85673E-10
 -1       358-1.06021E+05-1.02305E+05-4.16652E+04-4.66060E+02-2.24497E-09 3.70352E-10
 -1       359-1.23264E+05-1.02835E+05-4.52199E+04-1.12330E+03 1.09828E-09 2.47516E-10
 -1       360-1.16883E+05-1.02293E+05-4.38353E+04-1.08005E+03 1.83710E-09 1.32657E-09
 -1       361-1.27355E+05-1.02930E+05-4.60569E+04-7.09207E+02-1.86668E-09 6.28269E-10
 -1       362-1.11591E+05-1.07191E+05-4.37564E+04 8.26061E+02-5.61560E-12-2.32524E-11
 -1       363-1.07155E+05-9.64840E+04-4.07277E+04 3.93737E+03-3.46651E-12 1.47079E-11
 -1       364-1.15458E+05-1.08409E+05-4.47733E+04 1.37085E+04 2.27255E-12-1.66412E-12
 -1       365-1.00177E+05-9.44633E+04-3.89280E+04-2.76591E+03-1.12629E-11 6.69556E-13
 -1       366-1.02195E+05-9.59220E+04-3.96234E+04-4.94640E+03 1.78977E-12-1.51925E-12
 -1       367-9.45798E+04-8.66358E+04-3.62431E+04-1.17990E+04-2.95427E-12-3.55757E-12
 -1       368-1.18877E+05-1.02865E+05-4.43485E+04-4.92035E+03-8.19537E-13-2.20383E-11
 -1       369-1.17228E+05-8.11611E+04-3.96779E+04-1.12068E+03 7.98353E-12 3.51372E-12
 -3
    1PSTEP                         3           1           1          
  100CL  101 1.000000000         367                     0    1           1
 -4  TOSTRAIN    6    1
 -5  EXX         1    4    1    1
 -5  EYY         1    4    2    2
 -5  EZZ         1    4    3    3
 -5  EXY         1    4    1    2
 -5  EYZ         1    4    2    3
 -5  EZX         1    4    3    1
 -1         1 2.06165E-05 7.02967E-09 0.00000E+00 2.29533E-05 1.53934E-21-3.76059E-22
 -1         2-9.36472E-06-9.45249E-06 0.00000E+00 8.31441E-07 7.44454E-22 1.25452E-21
 -1         3 3.89796E-06-9.80013E-06 0.00000E+00 5.83822E-06 1.83401E-20-2.23447E-21
 -1         4-3.84423E-06-2.32957E-06 0.00000E+00-1.44446E-07 3.83167E-20 1.31404E-20
 -1         5-2.44253E-06-2.42083E-06 0.00000E+00 3.91271E-09 2.81792E-19-1.00194E-20
 -1         6-2.54095E-06-2.45038E-06 0.00000E+00-1.40657E-08-2.77258E-19-4.40819E-20
 -1         8-1.15411E-05-8.35906E-06 0.00000E+00 1.21046E-05 1.67062E-22-4.49384E-21
 -1        10-2.08035E-06-2.51911E-06 0.00000E+00-2.28826E-07 8.42405E-22-4.07356E-21
 -1        11-2.37926E-06-2.40718E-06 0.00000E+00-2.28593E-07-9.70109E-22 4.67206E-22
 -1        12-2.29533E-06-1.05667E-06 0.00000E+00-1.15087E-06 2.53010E-23 1.68000E-22
 -1        13 1.68237E-05-1.34464E-05 0.00000E+00 9.51756E-06 4.50525E-22-3.63371E-22
 -1        14 1.49247E-06-1.16257E-05 0.00000E+00 1.47158E-06-1.51707E-22 9.33139E-22
 -1        15-5.19177E-06-1.13648E-05 0.00000E+00 9.83283E-07-6.11974E-21 2.75659E-24
 -1        16 2.13879E-05-6.26424E-06 0.00000E+00 1.77187E-05-2.58603E-21 2.60640E-21
 -1        17 6.98629E-06-1.36707E-05 0.00000E+00 3.87534E-06-9.36265E-21-1.33488E-21
 -1        18-2.33172E-06-1.18733E-05 0.00000E+00 1.26077E-06 4.73798E-21-5.96889E-21
 -1        19-7.17233E-06-1.10397E-05 0.00000E+00 6.68118E-07 6.69073E-21-6.43618E-22
 -1        20-5.84223E-06-7.25900E-06 0.00000E+00 4.98060E-06-1.76975E-20-1.29966E-21
 -1        21-4.64504E-06-6.35651E-06 0.00000E+00 6.26044E-06 8.11507E-21-2.95328E-21
 -1        22-2.42609E-06-5.52728E-06 0.00000E+00 7.63832E-06-1.65492E-20-5.67816E-21
 -1        23-7.32613E-06-8.11897E-06 0.00000E+00 2.69191E-06-6.88472E-21 9.02010E-22
 -1        24-5.12531E-06-6.27542E-06 0.00000E+00 5.48937E-06-1.39556E-20 2.37860E-21
 -1        25-4.66955E-06-6.00821E-06 0.00000E+00 7.11349E-06 8.44248E-21 5.32346E-22
 -1        26 2.17404E-06-7.08316E-06 0.00000E+00 7.19896E-06-2.86740E-20-9.09023E-21
 -1        27-6.10123E-06-8.58992E-06 0.00000E+00-7.15625E-07-4.28251E-20 5.87173E-21
 -1        28-6.24239E-06-7.40461E-06 0.00000E+00-5.09322E-08-9.37812E-21 5.31008E-21
 -1        29-6.36085E-06-6.30511E-06 0.00000E+00 1.28501E-08-9.80802E-20-1.95709E-20
 -1        30-6.83534E-06-5.23777E-06 0.00000E+00 1.71049E-08 2.91848E-21-4.42553E-20
 -1        31-7.39474E-06-4.17753E-06 0.00000E+00 1.79782E-08-9.99948E-20-6.24619E-21
 -1        32-7.26597E-06-3.25907E-06 0.00000E+00-3.61553E-08 3.65169E-20 3.98210E-20
 -1        33-6.08720E-06-2.58380E-06 0.00000E+00-1.79347E-07 2.36609E-19-1.87925E-20
 -1        34-2.57535E-06-9.50448E-06 0.00000E+00 1.36318E-06-1.04588E-20 2.59804E-22
 -1        35-6.09953E-06-7.99070E-06 0.00000E+00-3.26440E-07-1.72325E-21-1.85701E-20
 -1        36-6.22715E-06-6.86012E-06 0.00000E+00 2.27496E-09 1.22731E-19 1.21561E-20
 -1        37-6.56058E-06-5.79396E-06 0.00000E+00 3.28464E-09 6.12873E-20 3.71762E-20
 -1        38-7.09385E-06-4.69878E-06 0.00000E+00-4.43545E-09-1.18313E-20 5.20650E-20
 -1        39-7.37483E-06-3.71689E-06 0.00000E+00-1.94471E-09 9.85616E-20-2.80977E-20
 -1        40-6.75954E-06-2.89835E-06 0.00000E+00-1.46185E-07 1.84853E-19 2.08285E-20
 -1        41-4.93933E-06-2.32809E-06 0.00000E+00-1.07844E-07-3.10264E-20 3.67658E-20
 -1        42-3.41046E-06-2.14730E-06 0.00000E+00-3.85388E-08 3.19360E-20 5.05943E-20
 -1        43-3.02865E-06-2.28535E-06 0.00000E+00-2.35741E-09-1.30939E-20-1.12686E-20
 -1        44-2.73389E-06-2.35704E-06 0.00000E+00 1.29358E-08-8.57638E-22-1.56390E-20
 -1        45-3.70028E-06-2.15238E-06 0.00000E+00-1.58413E-07-1.28178E-19 2.49976E-22
 -1        46-3.17839E-06-2.23494E-06 0.00000E+00-2.27217E-08 2.96622E-19 5.24285E-21
 -1        47-2.87985E-06-2.31596E-06 0.00000E+00 1.66879E-09 1.40733E-19-1.01310E-20
 -1        48-2.59263E-06-2.39444E-06 0.00000E+00 8.51314E-09-2.05634E-20-1.45911E-20
 -1        49-2.44986E-06-2.41190E-06 0.00000E+00 1.58506E-09 7.74836E-20 4.07503E-20
 -1        50-2.41633E-06-2.48610E-06 0.00000E+00 5.12901E-09 1.15498E-19 1.05533E-20
 -1        51-2.44222E-06-2.52496E-06 0.00000E+00-8.41232E-09 1.54416E-20 1.83059E-20
 -1        52-2.43344E-06-2.41336E-06 0.00000E+00 1.01531E-09 8.87411E-20 8.73155E-21
 -1        53-2.41950E-06-2.44389E-06 0.00000E+00-5.64842E-09-9.74287E-20-7.43261E-20
 -1        54-2.42161E-06-2.51930E-06 0.00000E+00-1.02112E-08 8.27002E-20-4.12462E-20
 -1        55-2.43818E-06-2.49678E-06 0.00000E+00-5.21563E-09 2.13774E-19-4.65951E-20
 -1        56-4.01080E-06-2.09458E-06 0.00000E+00 3.77473E-07-1.41168E-20 2.65212E-20
 -1        57-5.25473E-06-1.97613E-06 0.00000E+00 9.65772E-07-1.71021E-20-4.33016E-20
 -1        58-6.85671E-06-1.85124E-06 0.00000E+00 1.91597E-06 1.45353E-20 2.23304E-20
 -1        59-8.85134E-06-1.76612E-06 0.00000E+00 3.27999E-06-5.98113E-20 1.70202E-20
 -1        60-1.09159E-05-1.89379E-06 0.00000E+00 4.88909E-06-8.69197E-20 1.27102E-21
 -1        61-1.28245E-05-2.42523E-06 0.00000E+00 6.90848E-06-9.87391E-20-4.85285E-20
 -1        62-1.44414E-05-3.33057E-06 0.00000E+00 9.08967E-06 2.55689E-20 3.92932E-20
 -1        63-1.53180E-05-4.49300E-06 0.00000E+00 1.10815E-05-1.90964E-20-3.16338E-20
 -1        64-1.58304E-05-5.73443E-06 0.00000E+00 1.26405E-05 8.49363E-21-1.03267E-20
 -1        65-1.41864E-05-6.73905E-06 0.00000E+00 1.27949E-05 2.60748E-20 9.15898E-21
 -1        66-1.24026E-05-7.72726E-06 0.00000E+00 1.22841E-05-1.89814E-21 1.00765E-20
 -1        67-3.27524E-06-2.24642E-06 0.00000E+00 2.20090E-07-1.46727E-19 2.99114E-21
 -1        68-4.60385E-06-2.01672E-06 0.00000E+00 7.01101E-07-2.37715E-19-8.80601E-20
 -1        69-6.05416E-06-1.82970E-06 0.00000E+00 1.42765E-06-1.29684E-19 2.61659E-20
 -1        70-7.87407E-06-1.81311E-06 0.00000E+00 2.53174E-06-1.23972E-19-3.29005E-20
 -1        71-9.90434E-06-1.70354E-06 0.00000E+00 4.02667E-06 6.95895E-20-8.50017E-20
 -1        72-1.19283E-05-2.08711E-06 0.00000E+00 5.88961E-06 6.73737E-20 4.26710E-20
 -1        73-1.37093E-05-2.77706E-06 0.00000E+00 7.98719E-06-8.04329E-20 4.42138E-21
 -1        74-1.50048E-05-3.86527E-06 0.00000E+00 1.01389E-05 8.61150E-21 6.33819E-21
 -1        75-1.56655E-05-4.92115E-06 0.00000E+00 1.18902E-05-4.11502E-20-4.66368E-21
 -1        76-1.49616E-05-6.21715E-06 0.00000E+00 1.29914E-05-6.39651E-20 6.31216E-20
 -1        77-1.35393E-05-7.27710E-06 0.00000E+00 1.28160E-05-2.73086E-20 6.28854E-20
 -1        78-1.14044E-05-7.73644E-06 0.00000E+00 1.18253E-05-7.81791E-21-2.62738E-20
 -1        79-5.40538E-06-1.04904E-05 0.00000E+00 8.36386E-06 5.61348E-22-5.98096E-22
 -1        80-1.79736E-06-7.42627E-06 0.00000E+00 2.62994E-06 1.68239E-21-3.78158E-21
 -1        81-1.50296E-06-3.95760E-06 0.00000E+00-2.32838E-07-3.06982E-21 7.01089E-21
 -1        82-8.86119E-06-1.02007E-05 0.00000E+00 1.08761E-05 4.48607E-21 2.40757E-20
 -1        83-2.52896E-06-9.29917E-06 0.00000E+00 5.24118E-06-3.59070E-21 6.57605E-21
 -1        84-1.03933E-06-5.71624E-06 0.00000E+00 9.15955E-07 2.79658E-21-1.48232E-21
 -1        85-1.81882E-06-3.20100E-06 0.00000E+00-3.55516E-07-1.75869E-21-5.84299E-21
 -1        86-2.72787E-06-2.92879E-06 0.00000E+00 6.55726E-07-1.56025E-22-2.43794E-21
 -1        87-2.85408E-06-2.83892E-06 0.00000E+00 7.54151E-07-1.75789E-22-2.06128E-21
 -1        88-2.60221E-06-2.83964E-06 0.00000E+00 1.45069E-07 4.85970E-22 3.74075E-22
 -1        89-2.45551E-06-2.85104E-06 0.00000E+00 2.57199E-07 7.24402E-22 5.69279E-21
 -1        90-2.84265E-06-2.96254E-06 0.00000E+00 6.71585E-07 2.35348E-22 1.99008E-21
 -1        91-2.74446E-06-2.39061E-06 0.00000E+00 7.23462E-07 3.22844E-23 1.92886E-21
 -1        92-2.43304E-06-2.36931E-06 0.00000E+00 8.13412E-08-2.79642E-22-4.66309E-22
 -1        93-2.16945E-06-2.60584E-06 0.00000E+00-3.35094E-07-5.98439E-24 9.37923E-23
 -1        94-2.02344E-06-2.33308E-06 0.00000E+00-4.73225E-07-9.04518E-23 1.11529E-22
 -1        95-1.27145E-06-3.09497E-06 0.00000E+00-6.26102E-07 3.67254E-23 3.06666E-22
 -1        96-2.38096E-06-2.35194E-06 0.00000E+00-2.75081E-07-6.62029E-22-3.76958E-22
 -1        97-1.98066E-06-2.46336E-06 0.00000E+00-3.85187E-07 1.09007E-22-1.14342E-22
 -1        98-1.86600E-06-2.56855E-06 0.00000E+00-6.34885E-07 7.49561E-23-6.09671E-23
 -1        99-9.75124E-07-2.78280E-06 0.00000E+00-7.25863E-07-1.30538E-22-2.10314E-23
 -1       100-6.55026E-06 3.16262E-10 0.00000E+00 1.08021E-06 6.97611E-23-1.22261E-22
 -1       101-8.09189E-06-1.39669E-07 0.00000E+00 2.99128E-06-9.61531E-23 1.08216E-22
 -1       102-1.20962E-05 1.40932E-09 0.00000E+00 5.64162E-06-1.59634E-22 1.37881E-22
 -1       103-1.69287E-05 9.34924E-08 0.00000E+00 6.96706E-06 1.06434E-21-1.80753E-21
 -1       104-1.95636E-05-6.10352E-09 0.00000E+00 7.11335E-06 4.40866E-22-1.47067E-21
 -1       105-2.04621E-05-1.52059E-09 0.00000E+00 6.89273E-06-2.19371E-22-7.51015E-22
 -1       106-2.02624E-05-7.76943E-09 0.00000E+00 6.65539E-06-8.43610E-22-2.47247E-21
 -1       107-1.89580E-05 1.62709E-10 0.00000E+00 6.61055E-06-1.65995E-21 1.40258E-21
 -1       108-1.65760E-05-3.82130E-09 0.00000E+00 6.83941E-06-1.78339E-22-3.54428E-21
 -1       109-1.33595E-05-1.44801E-08 0.00000E+00 7.99367E-06 2.73904E-21 9.23852E-22
 -1       110-1.03460E-05 1.86764E-08 0.00000E+00 1.00289E-05-5.08933E-22 8.69788E-23
 -1       111-5.01206E-06 2.17851E-08 0.00000E+00-2.83934E-07 1.49742E-23 8.80067E-24
 -1       112-7.41879E-06-1.77255E-10 0.00000E+00 2.03993E-06-2.40889E-22 8.49945E-23
 -1       113-9.79471E-06 6.60041E-09 0.00000E+00 4.26265E-06-6.96155E-23 3.34347E-22
 -1       114-1.43826E-05-4.27014E-09 0.00000E+00 6.44304E-06 2.31666E-22 3.99933E-22
 -1       115-1.81145E-05 9.88622E-09 0.00000E+00 6.97129E-06-5.33504E-22 9.73025E-22
 -1       116-2.01531E-05-1.68398E-08 0.00000E+00 6.96783E-06 7.27023E-22 7.87662E-22
 -1       117-2.04609E-05-1.23549E-08 0.00000E+00 6.82232E-06 8.64410E-22 1.90102E-21
 -1       118-1.95662E-05-5.35313E-10 0.00000E+00 6.61089E-06 1.47603E-21 3.88318E-21
 -1       119-1.78946E-05-7.04851E-10 0.00000E+00 6.68235E-06 3.81610E-22 2.39973E-21
 -1       120-1.50302E-05-7.19254E-09 0.00000E+00 7.29886E-06-8.14630E-22 2.96353E-21
 -1       121-1.23819E-05-2.01155E-08 0.00000E+00 8.65298E-06-2.30501E-21 1.46425E-22
 -1       122-4.41573E-06-3.78092E-08 0.00000E+00 1.37055E-05 8.19162E-22-1.47943E-22
 -1       123-1.15478E-05-5.22595E-06 0.00000E+00 6.77590E-06 1.79531E-20 2.58886E-20
 -1       124-1.74177E-05-1.23969E-06 0.00000E+00 7.14760E-06 5.09248E-21-3.95383E-21
 -1       125-3.98808E-06-7.04261E-06 0.00000E+00 9.66415E-06 6.65753E-21 1.51553E-21
 -1       126-8.22114E-06-6.45479E-06 0.00000E+00 4.58823E-06-2.25251E-20 7.57076E-21
 -1       127-9.14954E-06-5.59398E-06 0.00000E+00 4.89627E-06-1.35295E-19-2.12864E-20
 -1       128-6.86670E-06-5.05983E-06 0.00000E+00 6.24137E-06-4.78084E-21-5.41321E-21
 -1       129-8.17850E-06-4.66387E-06 0.00000E+00 3.33713E-06 8.12293E-21 1.81920E-20
 -1       130-1.35860E-05-2.54585E-06 0.00000E+00 6.64195E-06-3.65525E-21 1.83452E-20
 -1       131-8.57076E-06-4.90964E-06 0.00000E+00 5.73675E-06-8.11168E-21 8.54080E-21
 -1       132-1.50849E-05-3.57918E-06 0.00000E+00 8.06197E-06 3.80191E-21-3.39432E-21
 -1       133-1.48890E-05-4.07374E-06 0.00000E+00 8.85482E-06 1.80806E-21-6.38532E-21
 -1       134-1.37921E-05-4.91674E-06 0.00000E+00 9.00445E-06 2.60431E-20-4.71597E-21
 -1       135-1.28348E-05-5.33935E-06 0.00000E+00 8.43723E-06-6.44037E-22 1.17912E-20
 -1       136-3.18858E-06-1.86492E-06 0.00000E+00 9.46737E-08 1.18938E-22 3.56681E-22
 -1       137-4.98769E-06-1.61605E-06 0.00000E+00 1.06820E-06-5.69962E-22 8.83819E-22
 -1       138-4.01416E-06-2.98617E-06 0.00000E+00 1.24468E-06-4.79215E-22 1.18806E-21
 -1       139-1.80178E-05-5.44221E-07 0.00000E+00 6.93219E-06-6.47193E-22-1.40713E-21
 -1       140-1.88781E-05-1.48660E-07 0.00000E+00 6.87315E-06-8.54799E-22-9.28491E-22
 -1       141-1.87539E-05-1.08774E-07 0.00000E+00 6.84559E-06 2.25179E-21-2.70726E-21
 -1       142-2.77855E-06-2.37577E-06 0.00000E+00-2.16454E-08 3.05924E-21 1.38870E-20
 -1       143-3.05391E-06-2.34319E-06 0.00000E+00-6.05065E-08 5.02290E-20-2.80019E-20
 -1       144-3.02614E-06-2.22263E-06 0.00000E+00 1.06592E-07-3.27890E-22-1.78272E-21
 -1       145-4.65736E-06-2.29253E-06 0.00000E+00 1.34732E-07 4.91166E-20-7.09989E-22
 -1       146-7.15402E-06-3.05868E-06 0.00000E+00 1.97338E-06 3.28060E-20 3.43058E-20
 -1       147-6.08111E-06-2.55531E-06 0.00000E+00 8.52403E-07 2.87582E-20-1.53768E-20
 -1       148-1.22498E-05-4.11357E-06 0.00000E+00 6.54502E-06-2.58503E-20 5.10014E-22
 -1       149-1.62449E-05-1.57714E-06 0.00000E+00 7.00795E-06-5.57765E-21 7.15692E-21
 -1       150-1.45055E-05-3.43515E-06 0.00000E+00 7.54959E-06-3.71072E-20-6.69445E-21
 -1       151-1.08087E-05-2.59242E-06 0.00000E+00 6.24704E-06 4.71754E-21 1.24247E-21
 -1       152-1.44226E-05-2.89543E-06 0.00000E+00 7.40801E-06-3.47253E-21 7.78168E-21
 -1       153-5.96017E-06-3.44522E-06 0.00000E+00 3.59308E-06-9.75429E-22 6.90584E-22
 -1       154-9.28607E-06-2.06450E-06 0.00000E+00 9.59438E-06 6.28936E-21-2.48029E-22
 -1       155-3.53542E-06-8.06125E-06 0.00000E+00 6.68281E-06-2.38266E-21 4.77705E-22
 -1       156-3.94504E-06-6.76298E-06 0.00000E+00 6.45637E-06 1.63465E-20 1.68638E-21
 -1       157-9.72069E-06-3.08845E-06 0.00000E+00 8.01748E-06-3.35218E-21 3.28460E-22
 -1       158-5.80324E-06-5.68521E-06 0.00000E+00 8.25512E-06 1.50039E-22-1.72597E-23
 -1       159-8.77454E-06-3.31711E-06 0.00000E+00 3.85219E-06-4.47674E-20 5.91072E-21
 -1       160-7.46189E-06-4.99811E-06 0.00000E+00 1.83844E-06 8.89838E-21-2.27172E-21
 -1       161-7.66185E-06-4.00517E-06 0.00000E+00 2.22016E-06-3.64480E-20-2.09679E-20
 -1       162-8.63383E-06-5.15218E-06 0.00000E+00 4.12226E-06-1.61542E-20-4.24695E-21
 -1       163-7.43707E-06-6.49765E-06 0.00000E+00 2.55490E-06 1.53890E-20-4.01748E-21
 -1       164-7.46449E-06-5.78841E-06 0.00000E+00 2.19149E-06 8.81826E-22 9.70027E-21
 -1       165-1.32051E-05-1.85519E-06 0.00000E+00 6.92301E-06-6.34411E-21-5.33738E-21
 -1       166-1.67623E-05-5.55417E-07 0.00000E+00 6.86240E-06 7.59046E-21-1.28264E-20
 -1       167-7.94029E-06-4.48515E-06 0.00000E+00 5.57586E-06 6.96703E-22-7.47908E-21
 -1       168-1.13331E-05-3.58640E-06 0.00000E+00 6.30591E-06 1.51390E-20 1.94502E-20
 -1       169-1.06023E-05-3.20714E-06 0.00000E+00 6.37474E-06-7.32648E-21-3.84501E-21
 -1       170-6.62723E-06-7.53390E-06 0.00000E+00 2.07927E-06-5.68728E-20 6.57552E-21
 -1       171-8.36888E-06-5.85041E-06 0.00000E+00 5.13708E-06 3.61347E-21-1.49976E-20
 -1       172-6.37423E-06-5.46791E-06 0.00000E+00 5.21320E-06 1.24944E-20 5.02752E-21
 -1       173-5.59595E-06-7.93226E-06 0.00000E+00 3.34283E-06 2.46605E-20-1.57129E-20
 -1       174-1.01386E-05-5.82606E-06 0.00000E+00 5.96643E-06-5.46851E-20 1.57669E-20
 -1       175-1.06521E-05-4.45505E-06 0.00000E+00 6.20779E-06 7.31920E-20-1.97511E-20
 -1       176-1.17630E-05-5.11133E-06 0.00000E+00 7.53240E-06 2.28422E-20-7.82666E-21
 -1       177-9.70782E-06-3.82529E-06 0.00000E+00 5.01299E-06 4.39084E-20-2.67310E-20
 -1       178-1.00689E-05-5.57473E-06 0.00000E+00 5.69263E-06 2.47958E-20 2.51535E-20
 -1       179-1.05005E-05-4.78683E-06 0.00000E+00 5.92956E-06 9.25694E-21-1.73430E-20
 -1       180-8.35451E-06-6.45703E-06 0.00000E+00 4.21748E-06 5.02785E-20-1.68429E-20
 -1       181-3.63522E-06-6.08368E-06 0.00000E+00 5.25328E-06 3.13190E-21 2.86616E-21
 -1       182-4.51018E-07-9.96297E-06 0.00000E+00 9.20583E-06-6.11947E-21-6.33586E-22
 -1       183-3.39701E-06-1.00137E-05 0.00000E+00 5.76920E-06-6.70665E-21-5.32504E-22
 -1       184-3.68984E-06-2.41120E-06 0.00000E+00 1.39100E-05-6.34910E-21-1.42842E-21
 -1       185-3.55517E-06-2.33026E-06 0.00000E+00 1.43805E-08 1.14605E-19-2.56027E-20
 -1       186-1.43383E-05-4.96119E-06 0.00000E+00 9.69124E-06-1.23506E-20 5.04147E-21
 -1       187-1.41143E-05-5.33833E-06 0.00000E+00 9.78561E-06-6.70740E-21 5.78980E-20
 -1       188-5.01856E-06-8.95193E-07 0.00000E+00 5.26931E-07-1.49996E-22-1.03261E-22
 -1       189-3.78414E-06-2.48419E-06 0.00000E+00 6.89089E-07-4.83972E-22 1.03591E-21
 -1       190-1.90459E-05-5.88662E-08 0.00000E+00 6.85711E-06 2.30882E-21-1.60290E-21
 -1       191-1.94711E-05 6.11008E-08 0.00000E+00 6.84575E-06-6.70143E-22 1.57299E-23
 -1       192-2.66267E-06-2.37466E-06 0.00000E+00-1.39088E-09-1.38350E-19 3.04780E-20
 -1       193-3.13940E-06-2.29828E-06 0.00000E+00-5.11696E-08-1.32300E-19-1.53578E-20
 -1       194-2.60804E-06-2.28286E-06 0.00000E+00 3.50357E-09 3.77652E-22-1.16827E-22
 -1       195-2.89501E-06-1.83248E-06 0.00000E+00-3.05382E-07-1.19411E-22 4.43643E-23
 -1       196-4.24799E-06-2.37539E-06 0.00000E+00-1.11148E-08-9.65996E-20-9.87919E-21
 -1       197-5.36153E-06-2.32885E-06 0.00000E+00 4.84906E-07-9.05612E-20 5.91681E-20
 -1       198-5.95249E-06-2.60860E-06 0.00000E+00 3.02263E-07 2.35680E-19-6.53080E-21
 -1       199-4.98339E-06-2.13105E-06 0.00000E+00 5.55858E-07 2.34556E-19-8.36690E-20
 -1       200-6.38409E-06-2.17771E-06 0.00000E+00 1.44845E-06-3.96823E-20 7.24480E-22
 -1       201-7.83365E-06-2.42869E-06 0.00000E+00 2.66234E-06-1.20119E-19-4.36539E-20
 -1       202-6.64113E-06-2.79424E-06 0.00000E+00 1.38131E-06 1.00286E-20 5.92107E-20
 -1       203-7.01545E-06-3.17417E-06 0.00000E+00 9.80144E-07-1.41369E-20 2.12144E-20
 -1       204-1.28617E-05-3.33504E-06 0.00000E+00 6.57336E-06-4.45569E-21-1.48618E-20
 -1       205-1.35406E-05-3.75017E-06 0.00000E+00 7.06160E-06-2.47264E-20-1.37980E-20
 -1       206-1.53148E-05-2.46806E-06 0.00000E+00 7.21315E-06 6.75053E-21 6.73531E-21
 -1       207-1.50559E-05-2.04396E-06 0.00000E+00 6.83652E-06 8.64454E-22-8.55223E-21
 -1       208-1.18792E-05-4.71959E-06 0.00000E+00 6.62905E-06 1.61159E-20 3.48581E-21
 -1       209-1.29377E-05-5.04449E-06 0.00000E+00 7.87409E-06 2.74861E-21 1.94713E-20
 -1       210-1.41186E-05-4.24652E-06 0.00000E+00 8.20078E-06 2.32627E-21 3.34420E-20
 -1       211-1.45238E-05-5.75633E-06 0.00000E+00 1.08781E-05 1.15640E-20 1.39484E-20
 -1       212-1.43949E-05-5.53804E-06 0.00000E+00 1.07167E-05 5.20418E-20 1.39316E-20
 -1       213-1.50477E-05-3.71506E-06 0.00000E+00 8.20837E-06 2.38706E-20-3.48275E-20
 -1       214-1.59740E-05-2.59030E-06 0.00000E+00 7.86496E-06 8.42127E-22 1.75329E-20
 -1       215-1.70227E-05-1.43291E-06 0.00000E+00 7.10022E-06-5.87641E-21-3.73115E-21
 -1       216-1.63515E-05-2.31128E-06 0.00000E+00 7.64347E-06-2.33678E-21-1.90605E-20
 -1       217-1.48415E-05-3.38076E-06 0.00000E+00 7.74745E-06-3.37187E-21-1.48439E-20
 -1       218-1.60794E-05-1.63504E-06 0.00000E+00 7.02183E-06-2.34210E-21 1.14400E-20
 -1       219-1.77469E-05-9.50380E-07 0.00000E+00 7.09688E-06-4.73050E-21 9.24917E-21
 -1       220-1.29099E-05-5.83483E-06 0.00000E+00 9.67701E-06 3.03793E-21 8.36795E-21
 -1       221-1.01408E-05-6.25670E-06 0.00000E+00 7.70766E-06 1.02509E-20 1.00216E-20
 -1       222-6.74171E-06-5.31109E-06 0.00000E+00 4.95676E-06-6.27374E-22 1.10427E-20
 -1       223-1.24078E-05-2.80594E-06 0.00000E+00 6.78828E-06 3.85895E-21-1.64278E-20
 -1       224-1.39446E-05-1.10110E-06 0.00000E+00 6.52788E-06 2.50927E-21-1.03726E-21
 -1       225-1.74755E-05-2.28500E-07 0.00000E+00 6.88293E-06 6.02659E-22 1.29661E-21
 -1       226-2.97438E-06-3.04111E-06 0.00000E+00 5.40000E-07 3.96048E-22 7.69798E-22
 -1       227-4.75945E-06-3.05929E-06 0.00000E+00 2.24719E-06 5.97669E-23-3.28969E-21
 -1       228-3.94203E-06-4.35236E-06 0.00000E+00 2.14885E-06 3.74921E-21-3.61224E-22
 -1       229-6.18728E-06-1.48918E-06 0.00000E+00 2.20817E-06-4.51281E-22-1.19094E-21
 -1       230-9.29466E-06-1.71806E-06 0.00000E+00 4.72428E-06-2.01338E-23-9.21466E-22
 -1       231-8.19039E-06-3.13652E-06 0.00000E+00 4.97913E-06 7.62315E-22 7.11813E-22
 -1       232-1.12980E-05-7.72763E-07 0.00000E+00 8.93144E-06 4.28101E-21-4.44047E-22
 -1       233-7.44216E-06-4.16181E-06 0.00000E+00 8.99868E-06-1.20412E-20 4.25860E-21
 -1       234-7.80217E-06-4.17863E-06 0.00000E+00 8.19032E-06-1.89470E-21 1.95207E-21
 -1       235-1.15487E-05-1.56619E-06 0.00000E+00 8.14180E-06-5.30520E-21-6.49464E-22
 -1       236-6.12861E-06-4.27583E-06 0.00000E+00 1.00700E-05 1.33090E-21 4.95228E-23
 -1       237-3.61770E-06-8.11733E-06 0.00000E+00 7.98345E-06 2.83922E-21 9.57420E-22
 -1       238-4.37309E-06-6.80761E-06 0.00000E+00 7.80863E-06 1.86041E-20-8.21445E-22
 -1       239-4.15200E-06-7.45009E-06 0.00000E+00 6.28401E-06 1.95344E-20-3.24138E-22
 -1       240-3.54367E-06-6.66914E-06 0.00000E+00 6.57552E-06 5.85514E-21-4.14831E-22
 -1       241-4.97579E-06-6.49450E-06 0.00000E+00 7.19323E-06-5.95307E-21-2.40336E-21
 -1       242-5.34149E-06-5.80521E-06 0.00000E+00 6.32649E-06 8.54960E-21 6.66110E-21
 -1       243-8.27202E-06-4.21785E-06 0.00000E+00 7.16797E-06 1.91124E-20-6.47264E-21
 -1       244-7.45671E-06-3.55026E-06 0.00000E+00 2.12579E-06-4.95252E-20-1.53084E-21
 -1       245-7.36543E-06-4.09529E-06 0.00000E+00 1.14243E-06-2.30826E-20 6.81403E-21
 -1       246-8.91990E-06-2.58441E-06 0.00000E+00 3.63794E-06 3.12546E-20-8.71443E-21
 -1       247-8.02729E-06-3.68184E-06 0.00000E+00 3.02392E-06 8.40446E-20 4.17607E-20
 -1       248-8.51805E-06-4.03974E-06 0.00000E+00 3.64914E-06 2.89311E-20-2.64160E-20
 -1       249-7.76895E-06-4.83311E-06 0.00000E+00 2.58013E-06-7.74421E-20-4.28455E-22
 -1       250-7.56001E-06-4.52473E-06 0.00000E+00 2.04760E-06 9.51883E-20 2.16862E-20
 -1       251-7.13758E-06-5.12251E-06 0.00000E+00 9.36977E-07-1.19890E-19 5.90138E-20
 -1       252-8.41684E-06-4.86106E-06 0.00000E+00 3.71373E-06 2.01939E-20-9.23306E-21
 -1       253-8.03935E-06-5.46611E-06 0.00000E+00 3.15660E-06 1.20753E-19 1.83392E-21
 -1       254-7.44792E-06-5.38948E-06 0.00000E+00 1.99585E-06-1.55194E-20 1.78826E-20
 -1       255-8.90998E-06-5.34455E-06 0.00000E+00 4.49483E-06-2.00115E-21 4.56365E-20
 -1       256-8.28915E-06-6.03162E-06 0.00000E+00 3.72111E-06 2.29917E-20 4.12330E-20
 -1       257-7.48129E-06-6.14961E-06 0.00000E+00 2.35963E-06 1.60440E-20 1.50199E-20
 -1       258-6.76482E-06-6.91651E-06 0.00000E+00 1.28661E-06-4.91279E-21 1.09455E-21
 -1       259-6.91519E-06-6.05444E-06 0.00000E+00 1.09852E-06 1.25827E-19-1.57068E-20
 -1       260-1.80053E-05-5.96269E-07 0.00000E+00 6.88502E-06-9.71410E-21-1.47718E-21
 -1       261-1.79151E-05-3.57083E-07 0.00000E+00 6.87228E-06 2.17086E-21-1.83687E-21
 -1       262-1.64073E-05-9.90541E-07 0.00000E+00 6.80364E-06-5.03718E-21-1.65664E-20
 -1       263-1.87755E-05-4.20607E-08 0.00000E+00 6.70942E-06 3.21780E-21-6.26067E-21
 -1       264-1.64945E-05-4.01530E-07 0.00000E+00 6.84115E-06-6.01388E-22-5.87843E-22
 -1       265-1.30385E-05-1.20131E-06 0.00000E+00 7.42376E-06-4.73741E-21 1.33148E-21
 -1       266-1.51236E-05-1.14637E-06 0.00000E+00 6.86355E-06 1.46821E-21 7.64721E-22
 -1       267-1.33721E-05-2.12604E-06 0.00000E+00 6.69450E-06 4.15370E-21-1.51925E-20
 -1       268-9.98553E-06-3.26598E-06 0.00000E+00 7.03547E-06-1.29672E-20 2.04744E-21
 -1       269-1.18502E-05-2.51445E-06 0.00000E+00 6.69862E-06 3.47900E-21 2.08080E-20
 -1       270-7.30273E-06-4.63692E-06 0.00000E+00 5.79548E-06 7.45553E-21 7.20274E-21
 -1       271-9.24816E-06-3.92944E-06 0.00000E+00 5.99089E-06 1.09199E-20 1.32947E-20
 -1       272-8.24927E-06-4.61020E-06 0.00000E+00 5.58479E-06 1.73676E-20 2.08637E-20
 -1       273-9.98061E-06-4.26911E-06 0.00000E+00 6.01462E-06-5.67778E-21-3.32397E-20
 -1       274-1.09652E-05-3.28210E-06 0.00000E+00 6.29042E-06-1.46615E-20 9.33713E-21
 -1       275-1.24722E-05-3.07681E-06 0.00000E+00 6.46837E-06 1.28300E-20-9.03426E-21
 -1       276-5.85912E-06-8.16215E-06 0.00000E+00 1.46112E-06 1.53657E-21-2.39417E-20
 -1       277-5.65413E-06-7.24999E-06 0.00000E+00 3.92660E-06-1.02149E-20 9.63048E-21
 -1       278-2.41969E-06-7.36557E-06 0.00000E+00 5.47702E-06-2.01378E-20-3.74105E-22
 -1       279-6.36198E-06-7.51436E-06 0.00000E+00 1.00469E-06 8.70279E-21-3.48385E-20
 -1       280-6.40594E-06-7.82476E-06 0.00000E+00 2.50756E-06 5.57004E-20 4.72060E-21
 -1       281-7.34910E-06-7.00737E-06 0.00000E+00 3.40114E-06 3.28626E-20 1.03597E-20
 -1       282-8.27022E-06-6.23562E-06 0.00000E+00 4.79867E-06 2.29515E-20-2.11571E-21
 -1       283-6.82306E-06-6.90984E-06 0.00000E+00 4.23847E-06-7.11362E-21 4.14737E-21
 -1       284-8.43878E-06-5.49234E-06 0.00000E+00 5.42497E-06 2.76795E-20 8.64002E-21
 -1       285-7.66723E-06-5.37098E-06 0.00000E+00 5.43358E-06 1.10148E-20 6.86259E-21
 -1       286-1.08579E-05-5.58606E-06 0.00000E+00 6.41824E-06 1.70341E-20-3.73266E-20
 -1       287-1.09249E-05-5.42847E-06 0.00000E+00 6.69403E-06 3.87052E-20-2.42670E-20
 -1       288-1.23173E-05-5.23464E-06 0.00000E+00 8.00829E-06 1.47312E-21-4.15094E-21
 -1       289-1.21199E-05-5.26471E-06 0.00000E+00 7.53566E-06 3.63910E-20-1.65110E-20
 -1       290-9.64591E-06-5.71373E-06 0.00000E+00 5.42353E-06 6.18862E-20 8.39732E-21
 -1       291-9.91119E-06-5.03081E-06 0.00000E+00 5.54233E-06-3.46508E-20 4.99716E-22
 -1       292-1.12337E-05-4.72965E-06 0.00000E+00 6.85155E-06-3.22058E-20-1.46725E-20
 -1       293-1.17339E-05-3.49974E-06 0.00000E+00 6.60119E-06-1.33163E-20 5.41406E-20
 -1       294-1.30013E-05-4.23554E-06 0.00000E+00 8.27854E-06 5.28925E-20 1.01944E-20
 -1       295-1.39586E-05-4.94023E-06 0.00000E+00 9.73195E-06 6.38592E-21 2.39301E-20
 -1       296-1.03678E-05-2.95096E-06 0.00000E+00 5.04227E-06-4.20738E-20 5.74906E-20
 -1       297-9.24138E-06-3.48483E-06 0.00000E+00 4.39084E-06-5.74088E-20 4.82994E-20
 -1       298-1.02148E-05-4.08058E-06 0.00000E+00 5.59351E-06-3.96357E-20-4.21180E-20
 -1       299-9.20832E-06-4.53810E-06 0.00000E+00 4.59507E-06 1.04294E-19-8.05727E-21
 -1       300-1.08750E-05-4.22118E-06 0.00000E+00 6.09737E-06 2.02912E-20 1.48855E-20
 -1       301-1.14153E-05-4.45264E-06 0.00000E+00 6.23416E-06 1.35160E-20 2.65173E-20
 -1       302-9.46726E-06-5.31911E-06 0.00000E+00 5.52653E-06 1.00427E-20 6.00138E-21
 -1       303-9.21370E-06-5.96652E-06 0.00000E+00 5.15616E-06-3.45952E-20-2.99300E-20
 -1       304-1.02809E-05-5.25171E-06 0.00000E+00 5.77350E-06 3.93705E-22 7.42452E-21
 -1       305-1.08498E-05-5.38804E-06 0.00000E+00 6.23267E-06-2.88801E-20-1.37669E-20
 -1       306-7.90176E-06-6.54058E-06 0.00000E+00 3.33791E-06-2.44461E-20 2.02102E-21
 -1       307-7.44742E-06-6.95377E-06 0.00000E+00 3.20003E-06 8.63889E-20 9.49034E-21
 -1       308-9.28279E-06-6.09123E-06 0.00000E+00 5.06951E-06-3.62224E-20-1.48726E-20
 -1       309-9.16929E-06-6.08997E-06 0.00000E+00 4.97029E-06 1.21672E-20 3.10836E-20
 -1       310-6.36435E-06-5.05782E-06 0.00000E+00 5.55945E-06 2.00880E-22-7.98998E-22
 -1       311-4.67237E-06-5.50234E-06 0.00000E+00 5.10356E-06-1.04426E-20-6.27957E-21
 -1       312-4.14669E-06-6.38928E-06 0.00000E+00 5.85926E-06 3.12127E-21 5.47426E-21
 -1       313-2.98734E-06-6.02092E-06 0.00000E+00 6.15505E-06-2.31208E-21 4.60199E-21
 -1       314-3.55177E-06-8.73529E-06 0.00000E+00 6.07860E-06 7.91577E-21 8.64241E-22
 -1       315-4.67509E-06-9.11864E-06 0.00000E+00 5.18486E-06-3.75493E-20-1.21583E-21
 -1       316-2.96486E-06-8.23523E-06 0.00000E+00 9.38170E-06-3.84764E-21-1.49594E-21
 -1       317-2.12998E-06-1.03903E-05 0.00000E+00 7.23679E-06-3.16322E-21 1.34554E-21
 -1       318-1.64435E-07-1.12720E-05 0.00000E+00 5.96965E-06-8.81206E-21 1.18394E-21
 -1       319-4.14010E-06-1.05075E-05 0.00000E+00 3.24125E-06 6.49308E-21-2.95359E-22
 -1       320-1.99443E-06-5.81216E-06 0.00000E+00 1.19383E-05 3.35647E-21-2.11480E-22
 -1       321-1.64778E-06-6.88118E-06 0.00000E+00 1.09272E-05 8.78409E-22-4.52132E-23
 -1       322-8.44816E-06-2.82619E-06 0.00000E+00 1.04721E-05 3.98992E-22 9.26765E-23
 -1       323-6.02528E-06-1.08634E-06 0.00000E+00 1.22288E-05 2.22657E-21-1.45508E-22
 -1       324-3.44905E-06-2.30781E-06 0.00000E+00-1.23211E-07-3.84775E-20-2.69866E-20
 -1       325-3.35928E-06-2.34017E-06 0.00000E+00-4.14026E-08-2.18310E-20-2.48249E-20
 -1       326-4.09696E-06-2.24530E-06 0.00000E+00 9.10845E-08-8.57553E-20 6.35739E-21
 -1       327-2.74900E-06-2.41063E-06 0.00000E+00-3.12707E-08 1.33060E-21-6.96420E-20
 -1       328-3.00126E-06-2.39656E-06 0.00000E+00 4.88981E-09-9.78097E-20 3.65095E-20
 -1       329-3.81513E-06-2.23485E-06 0.00000E+00 1.73684E-07-7.59701E-20-4.04022E-20
 -1       330-1.31914E-05-6.15696E-06 0.00000E+00 1.07681E-05-9.94191E-21-3.48637E-20
 -1       331-1.46552E-05-4.51671E-06 0.00000E+00 9.24176E-06 2.14592E-20-1.57289E-20
 -1       332-1.45750E-05-4.27188E-06 0.00000E+00 8.85742E-06 1.95152E-20 2.93834E-20
 -1       333-1.46318E-05-5.47951E-06 0.00000E+00 1.10789E-05-1.33088E-20-8.55650E-21
 -1       334-1.34771E-05-5.29983E-06 0.00000E+00 9.12005E-06 4.68158E-21-1.72977E-21
 -1       335-1.39669E-05-5.13761E-06 0.00000E+00 9.40649E-06 2.45046E-21-8.55065E-21
 -1       336-2.96451E-06-2.84971E-06 0.00000E+00 3.56569E-07 6.20385E-23-8.99555E-22
 -1       337-4.14228E-06-1.57282E-06 0.00000E+00 3.44414E-07 8.23554E-23-1.81956E-22
 -1       338-5.15133E-06-1.42047E-06 0.00000E+00 9.39665E-07 4.61793E-22-2.33828E-22
 -1       339-3.92120E-06-2.17939E-06 0.00000E+00 6.95610E-07-9.44773E-23 2.30410E-21
 -1       340-2.69790E-06-1.77196E-06 0.00000E+00-7.19393E-07-6.20982E-23 1.46176E-22
 -1       341-5.66678E-06-6.14661E-07 0.00000E+00 7.85850E-07-1.21526E-23-1.78702E-22
 -1       342-6.62901E-06-8.66441E-07 0.00000E+00 2.14114E-06-1.09181E-22 7.03168E-22
 -1       343-3.80679E-06-2.68445E-06 0.00000E+00 9.17142E-07-4.88012E-22-2.06203E-21
 -1       344-4.35974E-06-2.32971E-06 0.00000E+00 9.61456E-07 2.06555E-22-5.24606E-22
 -1       345-3.15549E-06-2.72514E-06 0.00000E+00 5.94390E-07-2.02730E-22 6.66349E-22
 -1       346-1.85485E-05-2.53104E-07 0.00000E+00 6.93454E-06-5.17562E-21 7.60618E-21
 -1       347-1.90820E-05-2.21315E-07 0.00000E+00 6.80425E-06 4.17535E-21 4.17484E-21
 -1       348-1.81167E-05-7.11518E-07 0.00000E+00 7.03234E-06 2.11223E-21 1.31984E-20
 -1       349-1.91150E-05 1.96648E-08 0.00000E+00 7.06889E-06 1.85479E-21 1.28304E-21
 -1       350-1.97257E-05 1.73393E-08 0.00000E+00 6.87237E-06 2.86564E-21 2.44712E-21
 -1       351-1.97907E-05 1.23463E-07 0.00000E+00 6.68810E-06-4.08565E-22-2.24274E-21
 -1       352-1.92895E-05-1.09019E-07 0.00000E+00 6.88242E-06-4.72782E-21-9.78978E-21
 -1       353-1.91235E-05-1.44481E-09 0.00000E+00 6.81274E-06-6.51359E-21-1.47386E-20
 -1       354-2.70701E-06-2.36520E-06 0.00000E+00 5.00863E-09-3.64220E-20-1.80024E-20
 -1       355-2.71205E-06-2.37017E-06 0.00000E+00-1.56019E-08-8.69704E-20-2.03582E-20
 -1       356-2.94223E-06-2.32559E-06 0.00000E+00-6.65294E-09 9.10818E-20 7.32110E-20
 -1       357-2.55099E-06-2.39311E-06 0.00000E+00-2.50519E-09-1.00935E-19-3.54269E-20
 -1       358-2.57424E-06-2.42559E-06 0.00000E+00-1.86424E-08-8.97986E-20 1.48141E-20
 -1       359-3.12178E-06-2.30461E-06 0.00000E+00-4.49318E-08 4.39311E-20 9.90063E-21
 -1       360-2.92192E-06-2.33833E-06 0.00000E+00-4.32018E-08 7.34840E-20 5.30626E-20
 -1       361-3.25192E-06-2.27490E-06 0.00000E+00-2.83683E-08-7.46671E-20 2.51308E-20
 -1       362-2.71339E-06-2.53738E-06 0.00000E+00 3.30424E-08-2.24624E-22-9.30095E-22
 -1       363-2.65708E-06-2.23025E-06 0.00000E+00 1.57495E-07-1.38660E-22 5.88316E-22
 -1       364-2.82737E-06-2.54543E-06 0.00000E+00 5.48339E-07 9.09019E-23-6.65649E-23
 -1       365-2.44994E-06-2.22141E-06 0.00000E+00-1.10637E-07-4.50517E-22 2.67823E-23
 -1       366-2.50286E-06-2.25195E-06 0.00000E+00-1.97856E-07 7.15907E-23-6.07702E-23
 -1       367-2.33347E-06-2.01571E-06 0.00000E+00-4.71960E-07-1.18171E-22-1.42303E-22
 -1       368-2.98115E-06-2.34067E-06 0.00000E+00-1.96814E-07-3.27815E-23-8.81533E-22
 -1       369-3.10201E-06-1.65933E-06 0.00000E+00-4.48273E-08 3.19341E-22 1.40549E-22
 -3
    1PSTEP                         4           1           1          
  100CL  101 1.000000000         367                     0    1           1
 -4  FORC        4    1
 -5  F1          1    2    1    0
 -5  F2          1    2    2    0
 -5  F3          1    2    3    0
 -5  ALL         1    2    0    0    1ALL
 -1         1-3.28534E+05-2.67010E+05-1.81899E-12
 -1         2-5.90598E+04 1.12062E+05 9.09495E-12
 -1         3-4.69741E+04 2.55906E+05-3.63798E-11
 -1         4 2.29440E+04 7.26800E+04 7.71252E-10
 -1         5-1.76408E+04 7.72096E+03-2.04182E-10
 -1         6-1.95438E+04-4.43230E+04-3.92902E-10
 -1         8-3.10137E+04-6.17995E+04 4.07454E-10
 -1        10-3.82645E+04-7.06865E+03-5.09317E-11
 -1        11-1.52964E+04-1.80156E+04-5.05906E-12
 -1        12 4.21109E+04 2.92955E+04 0.00000E+00
 -1        13 5.88936E+03 8.56009E+04 4.72937E-11
 -1        14 4.29587E+03 8.43858E+04 5.45697E-11
 -1        15 3.28595E+03 8.31706E+04 0.00000E+00
 -1        16-1.22943E+04 1.72417E+05-1.15961E-11
 -1        17-8.38919E+03 1.69987E+05-2.18279E-11
 -1        18-5.78578E+03 1.67556E+05-1.81899E-11
 -1        19-5.38212E+03 1.65126E+05-1.12777E-10
 -1        20-1.16031E+05 1.39701E+05 3.09228E-10
 -1        21-1.06368E+05 1.35979E+05 8.00355E-11
 -1        22-1.06440E+05 1.32258E+05 8.36735E-11
 -1        23-2.48485E+05 2.83123E+05 7.27596E-12
 -1        24-2.45069E+05 2.75680E+05-2.47383E-10
 -1        25-2.43643E+05 2.68237E+05-1.45519E-11
 -1        26-2.35981E+05 2.60794E+05 7.27596E-12
 -1        27 1.22697E+04 3.63452E+05 6.25732E-10
 -1        28 3.11068E+04 3.27524E+05-5.23869E-10
 -1        29 2.11891E+04 2.91595E+05-1.09139E-09
 -1        30 2.21056E+04 2.55667E+05 1.04774E-09
 -1        31 2.81672E+04 2.19739E+05 8.73115E-11
 -1        32 3.27908E+04 1.83811E+05 3.78350E-10
 -1        33 3.25074E+04 1.47882E+05-3.53612E-09
 -1        34-5.15056E+04 7.62832E+05 1.16415E-09
 -1        35-5.53266E+04 6.90975E+05-4.07454E-10
 -1        36-7.21344E+04 6.19119E+05-1.39698E-09
 -1        37-6.04767E+04 5.47262E+05-8.73115E-11
 -1        38-6.49463E+04 4.75406E+05-1.80444E-09
 -1        39-8.41588E+04 4.03549E+05 2.32831E-10
 -1        40-8.55653E+04 3.31693E+05-1.51340E-09
 -1        41-7.38836E+04 2.59836E+05 3.34694E-09
 -1        42 9.53190E+02 1.54419E+04-8.13998E-11
 -1        43 7.49464E+02 1.54419E+04-2.40789E-10
 -1        44 9.53190E+02 1.54419E+04-1.42791E-10
 -1        45-3.18838E+03 3.08839E+04 4.96584E-10
 -1        46-3.18844E+03 3.08839E+04-4.87489E-10
 -1        47-3.18838E+03 3.08839E+04-8.18545E-12
 -1        48-3.18845E+03 3.08839E+04-1.36424E-11
 -1        49-3.48084E+04 3.01873E-08-1.53705E-10
 -1        50-2.99757E+04-1.39934E-08-1.47338E-10
 -1        51-2.48932E+04 2.08106E-08-3.01952E-10
 -1        52-7.47117E+04 2.63320E-08 1.08230E-10
 -1        53-7.47117E+04 2.20112E-08-1.38243E-10
 -1        54-8.69388E+04 2.86400E-09 2.54659E-11
 -1        55-9.35942E+04 1.62456E-08 1.07684E-09
 -1        56-5.33181E+03-8.78181E+04-2.45564E-09
 -1        57-1.19393E+03-8.67903E+04 5.31145E-10
 -1        58 2.69733E+03-8.55648E+04-3.49246E-10
 -1        59 1.14313E+04-8.41443E+04-1.36788E-09
 -1        60-1.36845E+04-8.25323E+04 1.16415E-10
 -1        61-1.59575E+04-8.07322E+04-1.45519E-10
 -1        62-1.77609E+04-7.87483E+04-4.36557E-10
 -1        63-2.69327E+04-7.65850E+04 4.94765E-10
 -1        64-3.32137E+04-7.42473E+04-8.73115E-11
 -1        65-1.87408E+04-7.17405E+04 7.27596E-10
 -1        66-3.91638E+04-6.80793E+04-3.49246E-10
 -1        67-5.93180E+04-1.76464E+05 5.74801E-10
 -1        68-7.92762E+04-1.74608E+05-6.25732E-10
 -1        69-1.03102E+05-1.72355E+05-2.12458E-09
 -1        70-1.20290E+05-1.69709E+05-1.80444E-09
 -1        71-1.13325E+05-1.66677E+05 9.89530E-10
 -1        72-1.21907E+05-1.63265E+05-3.49246E-10
 -1        73-1.33211E+05-1.59481E+05 2.32831E-10
 -1        74-1.42650E+05-1.55333E+05 7.56700E-10
 -1        75-1.36093E+05-1.50832E+05-2.91038E-10
 -1        76-1.42670E+05-1.45988E+05 1.16415E-10
 -1        77-1.53729E+05-1.40811E+05-3.49246E-10
 -1        78-1.56800E+05-1.39277E+05-2.32831E-10
 -1        79-3.43075E+04-3.78340E+04 2.61934E-10
 -1        80-4.54678E+04-2.19093E+04 4.36557E-11
 -1        81-5.24698E+04-5.28177E+03 6.54836E-11
 -1        82-1.54735E+05-8.92729E+04-1.74623E-10
 -1        83-1.72694E+05-5.97468E+04 1.16415E-10
 -1        84-1.76324E+05-2.65490E+04-5.82077E-11
 -1        85-1.72414E+05 1.08548E+04-2.91038E-11
 -1        86-2.37802E+04-3.08839E+04-1.45519E-11
 -1        87-2.40745E+04-3.08839E+04-2.18279E-11
 -1        88-3.05345E+04-3.08839E+04-1.36424E-12
 -1        89-7.71591E+04-6.17677E+04 1.09139E-11
 -1        90-7.71590E+04-6.17677E+04 1.45519E-11
 -1        91-6.25247E+04-6.17677E+04 8.64020E-12
 -1        92-6.25247E+04-6.17677E+04 4.54747E-13
 -1        93 3.49362E+02-5.14731E+03-2.04636E-12
 -1        94 2.91135E+02-5.14731E+03-1.13687E-12
 -1        95 3.49362E+02-5.14731E+03-5.68434E-13
 -1        96-7.56951E+02-1.02946E+04 4.09273E-12
 -1        97-7.56951E+02-1.02946E+04 3.18323E-12
 -1        98-7.56951E+02-1.02946E+04-9.09495E-13
 -1        99-7.56951E+02-1.02946E+04 2.27374E-13
 -1       100 2.11005E+05-2.31611E+04 3.63798E-11
 -1       101 2.72637E+05-7.12471E+04 3.63798E-11
 -1       102 3.89279E+05-1.24129E+05 4.36557E-11
 -1       103 5.42024E+05-1.63050E+05 1.16415E-10
 -1       104 6.14345E+05-1.67052E+05-5.82077E-11
 -1       105 6.49535E+05-1.61341E+05 1.45519E-11
 -1       106 6.40689E+05-1.54062E+05-2.91038E-11
 -1       107 6.06338E+05-1.51881E+05-5.82077E-11
 -1       108 5.46899E+05-1.62566E+05-5.82077E-11
 -1       109 4.55168E+05-1.85589E+05-2.91038E-11
 -1       110 3.29534E+05-2.54479E+05 0.00000E+00
 -1       111 3.09333E+05-3.59756E+03 7.27596E-12
 -1       112 4.30053E+05-8.56436E+04 0.00000E+00
 -1       113 5.84270E+05-2.11969E+05 2.91038E-11
 -1       114 8.52201E+05-3.09590E+05-2.91038E-11
 -1       115 1.09830E+06-3.28337E+05 0.00000E+00
 -1       116 1.21191E+06-3.28062E+05 5.82077E-11
 -1       117 1.23383E+06-3.14283E+05 2.91038E-11
 -1       118 1.18283E+06-3.07744E+05 1.16415E-10
 -1       119 1.04416E+06-3.06490E+05-5.82077E-11
 -1       120 8.63649E+05-3.28702E+05-5.82077E-11
 -1       121 7.03109E+05-4.28134E+05 2.91038E-11
 -1       122 2.81512E+05-5.64691E+05-1.81899E-11
 -1       123 6.07607E+04 6.99629E-09 5.82077E-11
 -1       124 7.28543E+04-6.23618E-09 2.32831E-10
 -1       125 1.00389E+04 1.78323E-09-5.09317E-11
 -1       126 2.64007E+04-2.22826E-09 8.73115E-11
 -1       127 4.93379E+04 2.54142E-08-1.86265E-09
 -1       128 1.65638E+04 2.58888E-09 5.82077E-11
 -1       129 3.33790E+04-2.07083E-08-1.74623E-10
 -1       130 5.48868E+04-8.43988E-09 5.82077E-11
 -1       131 2.58383E+04-1.34263E-08 8.73115E-11
 -1       132 4.79125E+04-3.14913E-09-5.23869E-10
 -1       133 5.89756E+04-6.12272E-09 8.14907E-10
 -1       134 5.69166E+04 4.64985E-09 0.00000E+00
 -1       135 4.38136E+04-4.77121E-09-2.91038E-10
 -1       136 8.88932E+03-1.33883E-09 1.09139E-11
 -1       137 1.56436E+04-5.49250E-11 1.45519E-11
 -1       138 2.54627E+04-4.04896E-10 1.45519E-11
 -1       139 4.78686E+04 9.42606E-10-2.32831E-10
 -1       140 3.19370E+04-5.19208E-10-2.61934E-10
 -1       141 4.71248E+04 1.37823E-09 1.16415E-10
 -1       142 2.44553E+03 7.64557E-09 2.08274E-10
 -1       143 1.33171E+04 1.91827E-08 2.36469E-10
 -1       144 6.98724E+02-1.36261E-09 6.82121E-13
 -1       145 4.61312E+04 1.03574E-08-3.56522E-09
 -1       146 6.81430E+04 5.53380E-08 4.36557E-10
 -1       147 6.55178E+04 1.03640E-08 3.49246E-10
 -1       148 5.52639E+04-4.10398E-09 1.16415E-10
 -1       149 7.20270E+04-8.38224E-09-4.07454E-10
 -1       150 7.73753E+04-5.95901E-09 1.74623E-10
 -1       151 4.83020E+04 1.62959E-09-2.91038E-11
 -1       152 5.76800E+04 2.23508E-10-1.74623E-10
 -1       153 3.94431E+04 1.73532E-09-1.74623E-10
 -1       154 1.72180E+04 6.20124E-10-1.60071E-10
 -1       155 1.33173E+04 7.45979E-09 5.82077E-11
 -1       156 1.73756E+04 2.01067E-09 8.73115E-11
 -1       157 2.74981E+04-2.22307E-09 4.36557E-11
 -1       158 1.97480E+04 2.09701E-09 1.89175E-10
 -1       159 5.00872E+04-1.69841E-08 4.36557E-10
 -1       160 4.99145E+04 2.95347E-09 1.39698E-09
 -1       161 6.11295E+04 2.18917E-08 5.23869E-10
 -1       162 4.29160E+04-1.48300E-09-9.89530E-10
 -1       163 5.34693E+04 1.23350E-08-7.56700E-10
 -1       164 4.89896E+04-1.26920E-08-2.03727E-10
 -1       165 5.31628E+04-7.53545E-09-5.82077E-11
 -1       166 6.48414E+04-1.40381E-09 1.74623E-10
 -1       167 2.26575E+04 2.59791E-09-1.45519E-11
 -1       168 3.36464E+04 5.81394E-10 4.65661E-10
 -1       169 3.44480E+04 1.70473E-09 2.91038E-11
 -1       170 4.19485E+04 1.48556E-08 2.91038E-11
 -1       171 2.96504E+04-4.28179E-09 8.73115E-11
 -1       172 2.31094E+04-4.23736E-09-2.76486E-10
 -1       173 3.37270E+04-8.12224E-09-2.91038E-11
 -1       174 5.25098E+04 1.58911E-08 0.00000E+00
 -1       175 4.66660E+04-3.19460E-09-4.36557E-10
 -1       176 5.18454E+04 3.65253E-09-6.98492E-10
 -1       177 4.22860E+04 8.62610E-09-1.74623E-10
 -1       178 3.93642E+04 1.38117E-08-1.28057E-09
 -1       179 3.19881E+04-2.61116E-09-1.45519E-10
 -1       180 5.06087E+04 2.82444E-09 1.10595E-09
 -1       181 1.46112E+04 2.11003E-10 2.18279E-10
 -1       182 9.80419E+03 8.44722E-10 0.00000E+00
 -1       183 7.55985E+03-1.29762E-09-3.63798E-11
 -1       184 1.32157E+04-6.20235E-10 7.27596E-12
 -1       185 2.62206E+04-1.11431E-08-2.01544E-09
 -1       186 3.41786E+04-7.90806E-09 8.73115E-11
 -1       187 3.09038E+04 6.17376E-09-6.40284E-10
 -1       188 1.49449E+04 3.15481E-12-7.27596E-12
 -1       189 1.24315E+04-3.61524E-11-7.27596E-12
 -1       190 2.79449E+04 1.23548E-09-8.73115E-11
 -1       191 2.79449E+04 1.82672E-09-2.91038E-11
 -1       192 2.13984E+03-2.43177E-08-2.27374E-10
 -1       193 2.13984E+03 6.29768E-09 1.41881E-10
 -1       194 6.11383E+02-3.63073E-10-1.81899E-12
 -1       195 6.11383E+02-3.36513E-10-9.09495E-13
 -1       196-9.68380E+04-2.12038E-08-1.13505E-09
 -1       197-1.21095E+05 4.24582E-08 1.68802E-09
 -1       198-1.44365E+05 2.80500E-08 3.25963E-09
 -1       199-8.96747E+04 8.57796E-09 1.92085E-09
 -1       200-1.16876E+05-1.90017E-08-4.07454E-10
 -1       201-1.35376E+05-1.50393E-08-3.49246E-10
 -1       202-1.40546E+05 3.57118E-08 7.56700E-10
 -1       203-1.58442E+05 7.95148E-09 8.14907E-10
 -1       204-1.09767E+05-3.30476E-09 5.82077E-10
 -1       205-1.49503E+05-3.46688E-09 6.98492E-10
 -1       206-1.50913E+05 6.56360E-09 8.14907E-10
 -1       207-1.47060E+05-3.78537E-09-4.65661E-10
 -1       208-1.13617E+05 4.63569E-09-4.65661E-10
 -1       209-1.16035E+05-4.94265E-09-5.82077E-10
 -1       210-1.58589E+05-2.04204E-09 0.00000E+00
 -1       211-1.20323E+05 4.26962E-09-9.31323E-10
 -1       212-1.24676E+05 3.23388E-09-8.14907E-10
 -1       213-1.59999E+05-9.09040E-09-6.98492E-10
 -1       214-1.21303E+05 4.73506E-10 4.65661E-10
 -1       215-1.44722E+05-2.10662E-09-1.16415E-10
 -1       216-1.07630E+05-1.66892E-09 1.16415E-10
 -1       217-1.13471E+05 1.00670E-09 3.49246E-10
 -1       218-1.30817E+05-5.85146E-10 1.16415E-10
 -1       219-1.02375E+05-1.07256E-11-3.49246E-10
 -1       220-9.18441E+04-1.89630E-10-3.49246E-10
 -1       221-9.56851E+04 2.01112E-10-3.49246E-10
 -1       222-8.89215E+04-4.94282E-10 0.00000E+00
 -1       223-1.14910E+05-7.99901E-10-1.16415E-10
 -1       224-1.11938E+05-4.87717E-10 5.82077E-10
 -1       225-1.04461E+05-6.52022E-10 1.16415E-10
 -1       226-4.86846E+04-1.30740E-12 8.73115E-11
 -1       227-7.41150E+04 7.27397E-10 8.73115E-11
 -1       228-7.16277E+04-3.00020E-10 1.16415E-10
 -1       229-5.64821E+04 2.35104E-10 2.91038E-11
 -1       230-8.31464E+04-4.94481E-10 5.82077E-11
 -1       231-8.19268E+04-1.11277E-09-1.16415E-10
 -1       232-4.03526E+04-7.64061E-10 5.82077E-11
 -1       233-3.96021E+04 1.34790E-09 1.45519E-10
 -1       234-4.44792E+04-3.13565E-09-2.03727E-10
 -1       235-6.26107E+04-1.62906E-09-5.82077E-11
 -1       236-3.14641E+04-3.38147E-10 4.36557E-11
 -1       237-2.62164E+04 3.02887E-09 1.01863E-10
 -1       238-3.45126E+04 4.01485E-09-2.91038E-11
 -1       239-2.57066E+04-4.64698E-09 2.91038E-11
 -1       240-3.15070E+04 3.80373E-09 4.36557E-11
 -1       241-3.93898E+04 2.15164E-09 2.91038E-11
 -1       242-3.87799E+04-4.39422E-09-2.61934E-10
 -1       243-4.89823E+04 5.25411E-11 0.00000E+00
 -1       244-1.42726E+05-6.34685E-09-5.82077E-10
 -1       245-1.30887E+05-2.34155E-08 4.65661E-10
 -1       246-1.10473E+05 2.69014E-08 2.73576E-09
 -1       247-1.13631E+05-1.13671E-08-9.31323E-10
 -1       248-8.45160E+04-1.34666E-08 1.62981E-09
 -1       249-7.98728E+04 2.05361E-08-9.89530E-10
 -1       250-1.01792E+05-8.84324E-09 8.14907E-10
 -1       251-9.92052E+04-1.53322E-08-9.31323E-10
 -1       252-7.49515E+04-1.11827E-08 7.56700E-10
 -1       253-8.72747E+04 9.58795E-09-7.56700E-10
 -1       254-8.75758E+04 1.88413E-09-1.04774E-09
 -1       255-8.53755E+04 1.68907E-08 3.31784E-09
 -1       256-1.12122E+05-6.45332E-09 5.82077E-10
 -1       257-1.08382E+05 1.28622E-08 2.09548E-09
 -1       258-1.16436E+05 1.73421E-08 3.49246E-10
 -1       259-1.08684E+05 1.13787E-08-8.73115E-10
 -1       260-9.90570E+04-4.66650E-09 0.00000E+00
 -1       261-1.22096E+05-5.27564E-10 1.16415E-10
 -1       262-1.39032E+05-5.41604E-10 2.32831E-10
 -1       263-8.97075E+04 9.73614E-10-1.16415E-10
 -1       264-1.20333E+05-9.17737E-10 1.16415E-10
 -1       265-1.07396E+05 2.93767E-10 3.49246E-10
 -1       266-1.37269E+05 3.14230E-09-2.32831E-10
 -1       267-1.19328E+05-1.64823E-09 5.82077E-10
 -1       268-6.63135E+04 4.69764E-09 1.16415E-10
 -1       269-8.24183E+04-8.72433E-10-2.91038E-10
 -1       270-4.09209E+04 4.29588E-09-5.23869E-10
 -1       271-5.53738E+04 1.66708E-09 4.07454E-10
 -1       272-4.22207E+04 1.04893E-09 5.82077E-11
 -1       273-5.70178E+04 9.33409E-09 4.65661E-10
 -1       274-7.14785E+04 1.13937E-09 1.74623E-10
 -1       275-7.92811E+04 4.13803E-09-2.32831E-10
 -1       276-7.79555E+04 2.44538E-08-1.04774E-09
 -1       277-6.23787E+04 4.66923E-09-1.16415E-09
 -1       278-4.82055E+04 1.50721E-08 3.20142E-10
 -1       279-9.45180E+04-1.45063E-08 1.74623E-10
 -1       280-7.25291E+04 4.51598E-09-6.40284E-10
 -1       281-7.23989E+04-9.09893E-09 9.31323E-10
 -1       282-5.54305E+04 6.93910E-09 4.07454E-10
 -1       283-5.69523E+04-2.03272E-10-1.74623E-10
 -1       284-5.03428E+04-7.81034E-09-1.45519E-10
 -1       285-3.99936E+04 9.94723E-09-1.74623E-10
 -1       286-1.02299E+05 1.61754E-09-1.16415E-10
 -1       287-1.04404E+05 4.60403E-10 1.86265E-09
 -1       288-1.05254E+05-4.29688E-09 5.82077E-10
 -1       289-9.22246E+04 1.05632E-09 1.16415E-10
 -1       290-1.12352E+05 8.41169E-09-2.21189E-09
 -1       291-9.08010E+04-6.75755E-10 1.04774E-09
 -1       292-1.01764E+05-1.15944E-08-6.98492E-10
 -1       293-9.57246E+04 3.08683E-09 1.39698E-09
 -1       294-1.02267E+05 9.33142E-09-1.39698E-09
 -1       295-9.09053E+04 2.05446E-10 1.16415E-09
 -1       296-9.02232E+04 1.74714E-08-2.32831E-10
 -1       297-8.41033E+04-2.79840E-08-3.49246E-10
 -1       298-8.48312E+04-9.69095E-09-7.56700E-10
 -1       299-7.84837E+04 1.87160E-08-9.31323E-10
 -1       300-6.39637E+04 4.64684E-09-1.16415E-10
 -1       301-7.27173E+04-1.29626E-09 5.82077E-11
 -1       302-5.52352E+04 1.35847E-08-3.49246E-10
 -1       303-6.72941E+04 7.12316E-09 5.23869E-10
 -1       304-6.39888E+04 3.73495E-09 2.91038E-10
 -1       305-8.24262E+04 4.57112E-09 6.40284E-10
 -1       306-1.12835E+05-9.08290E-09-8.14907E-10
 -1       307-9.48263E+04-1.22407E-09-5.23869E-10
 -1       308-1.07608E+05 1.73678E-08 0.00000E+00
 -1       309-8.95998E+04 2.23156E-09 5.82077E-11
 -1       310-3.15120E+04-1.91108E-09 2.91038E-11
 -1       311-2.79397E+04-3.04993E-09-1.60071E-10
 -1       312-3.05050E+04-1.30643E-09 1.16415E-10
 -1       313-2.69327E+04 1.58434E-09-1.89175E-10
 -1       314-1.80836E+04 3.00432E-09-2.03727E-10
 -1       315-1.47161E+04-8.47237E-09-1.60071E-10
 -1       316-2.20786E+04 1.47529E-09-5.82077E-11
 -1       317-1.55234E+04 1.66267E-12 1.16415E-10
 -1       318-1.48039E+04 4.92392E-10-2.91038E-11
 -1       319-1.21559E+04 9.72705E-10 1.60071E-10
 -1       320-2.25262E+04 1.19897E-09 0.00000E+00
 -1       321-2.21205E+04-2.67555E-10-2.18279E-11
 -1       322-3.07423E+04-7.99545E-10 0.00000E+00
 -1       323-3.03365E+04 6.78483E-10-1.45519E-11
 -1       324-3.08210E+04-1.95767E-08 5.82077E-11
 -1       325-4.60999E+04 2.49908E-08-1.60071E-10
 -1       326-6.44347E+04-3.44367E-08 2.15368E-09
 -1       327-1.84576E+04-3.02138E-08-1.30967E-10
 -1       328-4.04915E+04 2.00462E-08-6.54836E-10
 -1       329-5.87964E+04-1.78247E-08 1.74623E-09
 -1       330-7.14555E+04-4.67423E-10-1.16415E-10
 -1       331-7.13078E+04 6.01165E-09 4.65661E-10
 -1       332-7.18817E+04 7.16000E-10 5.82077E-10
 -1       333-6.40886E+04-5.96305E-09 6.98492E-10
 -1       334-6.50219E+04-1.83741E-09 1.74623E-10
 -1       335-6.47728E+04 8.72888E-09 5.23869E-10
 -1       336-1.92602E+04 2.05699E-09-1.45519E-11
 -1       337-3.13132E+04 1.60156E-11-7.27596E-12
 -1       338-3.13132E+04-1.11946E-10-2.91038E-11
 -1       339-3.38946E+04-1.28814E-10 0.00000E+00
 -1       340-1.92602E+04-3.33927E-10 0.00000E+00
 -1       341-3.13132E+04 4.00746E-12 4.36557E-11
 -1       342-3.38946E+04-9.37916E-11 1.45519E-11
 -1       343-2.60469E+04 7.76936E-10-2.91038E-11
 -1       344-2.60469E+04-6.50582E-11 2.91038E-11
 -1       345-2.60469E+04-1.11982E-10-3.63798E-11
 -1       346-5.85512E+04 3.89718E-10 1.16415E-10
 -1       347-5.85512E+04 3.51434E-10-5.82077E-11
 -1       348-6.91968E+04 1.00670E-09 2.32831E-10
 -1       349-5.85512E+04-4.16833E-10 0.00000E+00
 -1       350-6.91968E+04-8.67431E-10 1.74623E-10
 -1       351-5.85512E+04 3.77923E-10 5.82077E-11
 -1       352-5.85512E+04 9.50990E-10-4.07454E-10
 -1       353-5.85512E+04-3.34421E-09 1.74623E-10
 -1       354-4.48348E+03 1.99796E-08 6.71207E-10
 -1       355-4.48348E+03-5.18512E-09 4.91127E-11
 -1       356-5.29865E+03 1.02700E-08 3.29237E-10
 -1       357-4.48348E+03 4.37444E-08 1.56433E-10
 -1       358-5.29865E+03-1.90846E-08-9.09495E-11
 -1       359-4.48347E+03 1.13967E-07-3.40151E-10
 -1       360-4.48348E+03 1.55431E-08 1.45519E-10
 -1       361-4.48348E+03 4.60768E-08-1.45519E-11
 -1       362-1.28099E+03 2.37458E-09 2.72848E-12
 -1       363-1.28099E+03-1.20167E-10-3.63798E-12
 -1       364-1.51390E+03-1.24365E-09-1.00044E-11
 -1       365-1.28099E+03 2.26595E-10 2.27374E-12
 -1       366-1.51390E+03 1.24629E-10-1.81899E-12
 -1       367-1.28099E+03-7.08695E-11-2.27374E-12
 -1       368-1.28099E+03 2.74412E-10 4.54747E-12
 -1       369-1.28099E+03 1.38004E-09 1.81899E-12
 -3
    1PSTEP                         5           1           1          
  100CL  101 1.000000000         367                     0    1           1
 -4  ERROR       1    1
 -5  STR(%)      1    1    0    0
 -1         1 3.53602E+01
 -1         2 9.93610E-01
 -1         3 9.98877E-01
 -1         4 2.57080E+00
 -1         5 6.56923E-01
 -1         6 2.62401E+00
 -1         8 2.08351E+00
 -1        10 1.60763E+01
 -1        11 1.06091E+00
 -1        12 6.14436E+00
 -1        13 3.53602E+01
 -1        14 1.61534E+00
 -1        15 1.19341E+00
 -1        16 3.53602E+01
 -1        17 1.84878E+01
 -1        18 1.40437E+00
 -1        19 1.09351E+00
 -1        20 1.01809E+00
 -1        21 1.21241E+00
 -1        22 1.21241E+00
 -1        23 1.00585E+00
 -1        24 1.11525E+00
 -1        25 1.21241E+00
 -1        26 1.10564E+00
 -1        27 1.48248E+00
 -1        28 2.36049E+00
 -1        29 1.96672E+00
 -1        30 1.56490E+00
 -1        31 1.17266E+00
 -1        32 1.66352E+00
 -1        33 2.57080E+00
 -1        34 1.24068E+00
 -1        35 1.92148E+00
 -1        36 2.16360E+00
 -1        37 1.76581E+00
 -1        38 1.36878E+00
 -1        39 1.41809E+00
 -1        40 2.11716E+00
 -1        41 2.57080E+00
 -1        42 1.34202E+00
 -1        43 1.01252E+00
 -1        44 7.45437E-01
 -1        45 1.95641E+00
 -1        46 1.17727E+00
 -1        47 8.78981E-01
 -1        48 7.01180E-01
 -1        49 6.85631E-01
 -1        50 2.03518E+00
 -1        51 2.62401E+00
 -1        52 6.71277E-01
 -1        53 1.36041E+00
 -1        54 2.32960E+00
 -1        55 2.62401E+00
 -1        56 2.62401E+00
 -1        57 2.50456E+00
 -1        58 2.51855E+00
 -1        59 2.51855E+00
 -1        60 1.59236E+00
 -1        61 1.74316E+00
 -1        62 1.74316E+00
 -1        63 1.74210E+00
 -1        64 1.71285E+00
 -1        65 1.52691E+00
 -1        66 1.14426E+00
 -1        67 2.62401E+00
 -1        68 2.56429E+00
 -1        69 2.51156E+00
 -1        70 2.51855E+00
 -1        71 2.05546E+00
 -1        72 1.66776E+00
 -1        73 1.74316E+00
 -1        74 1.74263E+00
 -1        75 1.72747E+00
 -1        76 1.61988E+00
 -1        77 1.33559E+00
 -1        78 1.61388E+00
 -1        79 8.73900E+00
 -1        80 1.82872E+01
 -1        81 1.82872E+01
 -1        82 5.41125E+00
 -1        83 1.35131E+01
 -1        84 1.82872E+01
 -1        85 1.71817E+01
 -1        86 3.00069E+00
 -1        87 3.03695E+00
 -1        88 1.84728E+00
 -1        89 9.53850E+00
 -1        90 3.01882E+00
 -1        91 2.44212E+00
 -1        92 1.45410E+00
 -1        93 1.06091E+00
 -1        94 1.70040E+00
 -1        95 1.70040E+00
 -1        96 1.06091E+00
 -1        97 1.38066E+00
 -1        98 1.70040E+00
 -1        99 3.92238E+00
 -1       100 6.14436E+00
 -1       101 1.35491E+01
 -1       102 1.35491E+01
 -1       103 8.70637E+00
 -1       104 8.14851E-01
 -1       105 4.83607E-01
 -1       106 4.36120E-01
 -1       107 7.80994E-01
 -1       108 1.10182E+00
 -1       109 1.34189E+00
 -1       110 3.53602E+01
 -1       111 6.14436E+00
 -1       112 9.84675E+00
 -1       113 1.35491E+01
 -1       114 1.11278E+01
 -1       115 4.76061E+00
 -1       116 6.49229E-01
 -1       117 4.59864E-01
 -1       118 6.08557E-01
 -1       119 9.41406E-01
 -1       120 1.22185E+00
 -1       121 1.83510E+01
 -1       122 3.53602E+01
 -1       123 1.72321E+00
 -1       124 8.81251E-01
 -1       125 1.00591E+00
 -1       126 2.11290E+00
 -1       127 2.11369E+00
 -1       128 1.51437E+00
 -1       129 1.62579E+00
 -1       130 1.10783E+00
 -1       131 1.61844E+00
 -1       132 2.08351E+00
 -1       133 1.52691E+00
 -1       134 1.58604E+00
 -1       135 1.74210E+00
 -1       136 6.14436E+00
 -1       137 8.29358E+00
 -1       138 1.60763E+01
 -1       139 2.28038E+00
 -1       140 5.23200E-01
 -1       141 7.80994E-01
 -1       142 1.40950E+00
 -1       143 2.24876E+00
 -1       144 1.84728E+00
 -1       145 2.57080E+00
 -1       146 2.51855E+00
 -1       147 2.57080E+00
 -1       148 1.29767E+00
 -1       149 1.05034E+00
 -1       150 1.52691E+00
 -1       151 1.82872E+01
 -1       152 8.73900E+00
 -1       153 1.82872E+01
 -1       154 1.34189E+00
 -1       155 1.05844E+00
 -1       156 1.51437E+00
 -1       157 1.51437E+00
 -1       158 1.51437E+00
 -1       159 1.78292E+00
 -1       160 1.62579E+00
 -1       161 1.78292E+00
 -1       162 1.78080E+00
 -1       163 2.36049E+00
 -1       164 1.96672E+00
 -1       165 1.10783E+00
 -1       166 1.10182E+00
 -1       167 1.61844E+00
 -1       168 1.34753E+00
 -1       169 1.34753E+00
 -1       170 2.36049E+00
 -1       171 1.35443E+00
 -1       172 1.61844E+00
 -1       173 1.48248E+00
 -1       174 2.11369E+00
 -1       175 1.74316E+00
 -1       176 1.74316E+00
 -1       177 1.59236E+00
 -1       178 2.11290E+00
 -1       179 9.97589E-01
 -1       180 2.36049E+00
 -1       181 1.61844E+00
 -1       182 1.61534E+00
 -1       183 1.19341E+00
 -1       184 3.53602E+01
 -1       185 2.62401E+00
 -1       186 1.14426E+00
 -1       187 1.71285E+00
 -1       188 6.14436E+00
 -1       189 8.29358E+00
 -1       190 8.14851E-01
 -1       191 5.23200E-01
 -1       192 7.45437E-01
 -1       193 1.40950E+00
 -1       194 1.84728E+00
 -1       195 1.70040E+00
 -1       196 2.57080E+00
 -1       197 2.57080E+00
 -1       198 2.57080E+00
 -1       199 2.53768E+00
 -1       200 2.54468E+00
 -1       201 2.51855E+00
 -1       202 2.54468E+00
 -1       203 2.09104E+00
 -1       204 1.20275E+00
 -1       205 1.41229E+00
 -1       206 1.28862E+00
 -1       207 1.07908E+00
 -1       208 1.51044E+00
 -1       209 1.65463E+00
 -1       210 1.55648E+00
 -1       211 1.55648E+00
 -1       212 1.52691E+00
 -1       213 1.52691E+00
 -1       214 1.20408E+00
 -1       215 9.65795E-01
 -1       216 1.48238E+00
 -1       217 5.41125E+00
 -1       218 5.50969E+00
 -1       219 1.58081E+00
 -1       220 2.08351E+00
 -1       221 8.73900E+00
 -1       222 1.82872E+01
 -1       223 1.35131E+01
 -1       224 1.34968E+01
 -1       225 5.49337E+00
 -1       226 1.60763E+01
 -1       227 1.71817E+01
 -1       228 1.82872E+01
 -1       229 1.48127E+01
 -1       230 1.59181E+01
 -1       231 1.82872E+01
 -1       232 1.34189E+00
 -1       233 1.42813E+00
 -1       234 1.51437E+00
 -1       235 1.42813E+00
 -1       236 1.17390E+00
 -1       237 1.03218E+00
 -1       238 1.28640E+00
 -1       239 1.13542E+00
 -1       240 1.36339E+00
 -1       241 1.51437E+00
 -1       242 1.51437E+00
 -1       243 1.51437E+00
 -1       244 2.15073E+00
 -1       245 1.47779E+00
 -1       246 2.15073E+00
 -1       247 1.78292E+00
 -1       248 1.70435E+00
 -1       249 1.62579E+00
 -1       250 1.70435E+00
 -1       251 1.59534E+00
 -1       252 1.70329E+00
 -1       253 1.87376E+00
 -1       254 1.79625E+00
 -1       255 1.94724E+00
 -1       256 2.23709E+00
 -1       257 2.16360E+00
 -1       258 2.36049E+00
 -1       259 1.96672E+00
 -1       260 8.31123E-01
 -1       261 9.41406E-01
 -1       262 1.07608E+00
 -1       263 7.80994E-01
 -1       264 1.10182E+00
 -1       265 1.22486E+00
 -1       266 1.10482E+00
 -1       267 1.10783E+00
 -1       268 1.43095E+00
 -1       269 1.22768E+00
 -1       270 1.56640E+00
 -1       271 1.48299E+00
 -1       272 1.61844E+00
 -1       273 1.48299E+00
 -1       274 1.34753E+00
 -1       275 1.22768E+00
 -1       276 1.48248E+00
 -1       277 1.55046E+00
 -1       278 1.30866E+00
 -1       279 2.36049E+00
 -1       280 1.92148E+00
 -1       281 2.23669E+00
 -1       282 1.73367E+00
 -1       283 1.41845E+00
 -1       284 1.48643E+00
 -1       285 1.61844E+00
 -1       286 1.91845E+00
 -1       287 1.92842E+00
 -1       288 1.74263E+00
 -1       289 1.73265E+00
 -1       290 2.11369E+00
 -1       291 1.92842E+00
 -1       292 1.74316E+00
 -1       293 1.74316E+00
 -1       294 1.74316E+00
 -1       295 1.74210E+00
 -1       296 1.59236E+00
 -1       297 1.68764E+00
 -1       298 1.66776E+00
 -1       299 1.68658E+00
 -1       300 1.17256E+00
 -1       301 1.14763E+00
 -1       302 1.17601E+00
 -1       303 2.11290E+00
 -1       304 1.55525E+00
 -1       305 1.91805E+00
 -1       306 2.36049E+00
 -1       307 2.36049E+00
 -1       308 2.23709E+00
 -1       309 2.23669E+00
 -1       310 1.61844E+00
 -1       311 1.61844E+00
 -1       312 1.56640E+00
 -1       313 1.41542E+00
 -1       314 1.12592E+00
 -1       315 1.10575E+00
 -1       316 1.31063E+00
 -1       317 1.40437E+00
 -1       318 1.61534E+00
 -1       319 1.19341E+00
 -1       320 1.84878E+01
 -1       321 3.53602E+01
 -1       322 1.83510E+01
 -1       323 3.53602E+01
 -1       324 2.40978E+00
 -1       325 2.43638E+00
 -1       326 2.59741E+00
 -1       327 2.14197E+00
 -1       328 2.62401E+00
 -1       329 2.62401E+00
 -1       330 1.14426E+00
 -1       331 1.33559E+00
 -1       332 1.61388E+00
 -1       333 1.71285E+00
 -1       334 1.72747E+00
 -1       335 1.64945E+00
 -1       336 4.59066E+00
 -1       337 6.14436E+00
 -1       338 7.21897E+00
 -1       339 5.66527E+00
 -1       340 6.14436E+00
 -1       341 6.14436E+00
 -1       342 1.09214E+01
 -1       343 1.21849E+01
 -1       344 8.29358E+00
 -1       345 5.64714E+00
 -1       346 1.54761E+00
 -1       347 6.69025E-01
 -1       348 7.02226E-01
 -1       349 8.14851E-01
 -1       350 5.03404E-01
 -1       351 4.79660E-01
 -1       352 5.23200E-01
 -1       353 6.52097E-01
 -1       354 7.45437E-01
 -1       355 1.07747E+00
 -1       356 1.21101E+00
 -1       357 7.15534E-01
 -1       358 1.72234E+00
 -1       359 1.82913E+00
 -1       360 1.40950E+00
 -1       361 1.37576E+00
 -1       362 1.84728E+00
 -1       363 1.84728E+00
 -1       364 2.44212E+00
 -1       365 1.45410E+00
 -1       366 1.77384E+00
 -1       367 1.70040E+00
 -1       368 1.77384E+00
 -1       369 3.92238E+00
 -3
 9999
