    1C
    1UUSER                                                              
    1UDATE              03.april.2020                                   
    1UTIME              21:41:52                                        
    1UHOST                                                              
    1UPGM               CalculiX                                        
    1UVERSION           Version 2.16                             
    1UCOMPILETIME       Mo 25. Nov 18:56:47 CET 2019                    
    1UDIR                                                               
    1UDBN                                                               
    1UMAT    1STEEL                                                     
    2C                           901                                     1
 -1         1 0.00000E+00 5.00000E-01 0.00000E+00
 -1         3 5.00000E-01 0.00000E+00 0.00000E+00
 -1         4 2.22222E+00 0.00000E+00 0.00000E+00
 -1         5 2.22222E+00 1.11111E+00 0.00000E+00
 -1         6 1.11111E+00 1.11111E+00 0.00000E+00
 -1         7 0.00000E+00 1.11111E+00 0.00000E+00
 -1         8 1.11111E+00 0.00000E+00 0.00000E+00
 -1         9 9.75450E-02 4.90393E-01 0.00000E+00
 -1        10 1.91342E-01 4.61940E-01 0.00000E+00
 -1        11 2.77785E-01 4.15735E-01 0.00000E+00
 -1        12 3.53553E-01 3.53553E-01 0.00000E+00
 -1        13 4.15735E-01 2.77785E-01 0.00000E+00
 -1        14 4.61940E-01 1.91342E-01 0.00000E+00
 -1        15 4.90393E-01 9.75450E-02 0.00000E+00
 -1        16 4.90090E-02 4.97592E-01 0.00000E+00
 -1        17 1.45142E-01 4.78470E-01 0.00000E+00
 -1        18 2.35698E-01 4.40961E-01 0.00000E+00
 -1        19 3.17197E-01 3.86505E-01 0.00000E+00
 -1        20 3.86505E-01 3.17197E-01 0.00000E+00
 -1        21 4.40961E-01 2.35698E-01 0.00000E+00
 -1        22 4.78470E-01 1.45142E-01 0.00000E+00
 -1        23 4.97592E-01 4.90090E-02 0.00000E+00
 -1        24 5.76389E-01 0.00000E+00 0.00000E+00
 -1        25 6.52778E-01 0.00000E+00 0.00000E+00
 -1        26 7.29167E-01 0.00000E+00 0.00000E+00
 -1        27 8.05555E-01 0.00000E+00 0.00000E+00
 -1        28 8.81944E-01 0.00000E+00 0.00000E+00
 -1        29 9.58333E-01 0.00000E+00 0.00000E+00
 -1        30 1.03472E+00 0.00000E+00 0.00000E+00
 -1        31 5.38194E-01 0.00000E+00 0.00000E+00
 -1        32 6.14583E-01 0.00000E+00 0.00000E+00
 -1        33 6.90972E-01 0.00000E+00 0.00000E+00
 -1        34 7.67361E-01 0.00000E+00 0.00000E+00
 -1        35 8.43750E-01 0.00000E+00 0.00000E+00
 -1        36 9.20139E-01 0.00000E+00 0.00000E+00
 -1        37 9.96528E-01 0.00000E+00 0.00000E+00
 -1        38 1.07292E+00 0.00000E+00 0.00000E+00
 -1        39 2.22222E+00 9.25930E-02 0.00000E+00
 -1        40 2.22222E+00 1.85185E-01 0.00000E+00
 -1        41 2.22222E+00 2.77778E-01 0.00000E+00
 -1        42 2.22222E+00 3.70370E-01 0.00000E+00
 -1        43 2.22222E+00 4.62963E-01 0.00000E+00
 -1        44 2.22222E+00 5.55555E-01 0.00000E+00
 -1        45 2.22222E+00 6.48148E-01 0.00000E+00
 -1        46 2.22222E+00 7.40741E-01 0.00000E+00
 -1        47 2.22222E+00 8.33333E-01 0.00000E+00
 -1        48 2.22222E+00 9.25926E-01 0.00000E+00
 -1        49 2.22222E+00 1.01852E+00 0.00000E+00
 -1        50 2.22222E+00 4.62960E-02 0.00000E+00
 -1        51 2.22222E+00 1.38889E-01 0.00000E+00
 -1        52 2.22222E+00 2.31481E-01 0.00000E+00
 -1        53 2.22222E+00 3.24074E-01 0.00000E+00
 -1        54 2.22222E+00 4.16667E-01 0.00000E+00
 -1        55 2.22222E+00 5.09259E-01 0.00000E+00
 -1        56 2.22222E+00 6.01852E-01 0.00000E+00
 -1        57 2.22222E+00 6.94444E-01 0.00000E+00
 -1        58 2.22222E+00 7.87037E-01 0.00000E+00
 -1        59 2.22222E+00 8.79630E-01 0.00000E+00
 -1        60 2.22222E+00 9.72222E-01 0.00000E+00
 -1        61 2.22222E+00 1.06482E+00 0.00000E+00
 -1        62 2.12963E+00 1.11111E+00 0.00000E+00
 -1        63 2.03704E+00 1.11111E+00 0.00000E+00
 -1        64 1.94444E+00 1.11111E+00 0.00000E+00
 -1        65 1.85185E+00 1.11111E+00 0.00000E+00
 -1        66 1.75926E+00 1.11111E+00 0.00000E+00
 -1        67 1.66667E+00 1.11111E+00 0.00000E+00
 -1        68 1.57407E+00 1.11111E+00 0.00000E+00
 -1        69 1.48148E+00 1.11111E+00 0.00000E+00
 -1        70 1.38889E+00 1.11111E+00 0.00000E+00
 -1        71 1.29630E+00 1.11111E+00 0.00000E+00
 -1        72 1.20370E+00 1.11111E+00 0.00000E+00
 -1        73 2.17593E+00 1.11111E+00 0.00000E+00
 -1        74 2.08333E+00 1.11111E+00 0.00000E+00
 -1        75 1.99074E+00 1.11111E+00 0.00000E+00
 -1        76 1.89815E+00 1.11111E+00 0.00000E+00
 -1        77 1.80555E+00 1.11111E+00 0.00000E+00
 -1        78 1.71296E+00 1.11111E+00 0.00000E+00
 -1        79 1.62037E+00 1.11111E+00 0.00000E+00
 -1        80 1.52778E+00 1.11111E+00 0.00000E+00
 -1        81 1.43518E+00 1.11111E+00 0.00000E+00
 -1        82 1.34259E+00 1.11111E+00 0.00000E+00
 -1        83 1.25000E+00 1.11111E+00 0.00000E+00
 -1        84 1.15741E+00 1.11111E+00 0.00000E+00
 -1        85 1.01852E+00 1.11111E+00 0.00000E+00
 -1        86 9.25926E-01 1.11111E+00 0.00000E+00
 -1        87 8.33333E-01 1.11111E+00 0.00000E+00
 -1        88 7.40741E-01 1.11111E+00 0.00000E+00
 -1        89 6.48148E-01 1.11111E+00 0.00000E+00
 -1        90 5.55556E-01 1.11111E+00 0.00000E+00
 -1        91 4.62963E-01 1.11111E+00 0.00000E+00
 -1        92 3.70370E-01 1.11111E+00 0.00000E+00
 -1        93 2.77778E-01 1.11111E+00 0.00000E+00
 -1        94 1.85185E-01 1.11111E+00 0.00000E+00
 -1        95 9.25930E-02 1.11111E+00 0.00000E+00
 -1        96 1.06482E+00 1.11111E+00 0.00000E+00
 -1        97 9.72222E-01 1.11111E+00 0.00000E+00
 -1        98 8.79630E-01 1.11111E+00 0.00000E+00
 -1        99 7.87037E-01 1.11111E+00 0.00000E+00
 -1       100 6.94444E-01 1.11111E+00 0.00000E+00
 -1       101 6.01852E-01 1.11111E+00 0.00000E+00
 -1       102 5.09259E-01 1.11111E+00 0.00000E+00
 -1       103 4.16667E-01 1.11111E+00 0.00000E+00
 -1       104 3.24074E-01 1.11111E+00 0.00000E+00
 -1       105 2.31481E-01 1.11111E+00 0.00000E+00
 -1       106 1.38889E-01 1.11111E+00 0.00000E+00
 -1       107 4.62960E-02 1.11111E+00 0.00000E+00
 -1       108 0.00000E+00 1.03472E+00 0.00000E+00
 -1       109 0.00000E+00 9.58333E-01 0.00000E+00
 -1       110 0.00000E+00 8.81944E-01 0.00000E+00
 -1       111 0.00000E+00 8.05556E-01 0.00000E+00
 -1       112 0.00000E+00 7.29167E-01 0.00000E+00
 -1       113 0.00000E+00 6.52778E-01 0.00000E+00
 -1       114 0.00000E+00 5.76389E-01 0.00000E+00
 -1       115 0.00000E+00 1.07292E+00 0.00000E+00
 -1       116 0.00000E+00 9.96528E-01 0.00000E+00
 -1       117 0.00000E+00 9.20139E-01 0.00000E+00
 -1       118 0.00000E+00 8.43750E-01 0.00000E+00
 -1       119 0.00000E+00 7.67361E-01 0.00000E+00
 -1       120 0.00000E+00 6.90972E-01 0.00000E+00
 -1       121 0.00000E+00 6.14583E-01 0.00000E+00
 -1       122 0.00000E+00 5.38194E-01 0.00000E+00
 -1       123 1.20370E+00 0.00000E+00 0.00000E+00
 -1       124 1.29630E+00 0.00000E+00 0.00000E+00
 -1       125 1.38889E+00 0.00000E+00 0.00000E+00
 -1       126 1.48148E+00 0.00000E+00 0.00000E+00
 -1       127 1.57407E+00 0.00000E+00 0.00000E+00
 -1       128 1.66667E+00 0.00000E+00 0.00000E+00
 -1       129 1.75926E+00 0.00000E+00 0.00000E+00
 -1       130 1.85185E+00 0.00000E+00 0.00000E+00
 -1       131 1.94444E+00 0.00000E+00 0.00000E+00
 -1       132 2.03704E+00 0.00000E+00 0.00000E+00
 -1       133 2.12963E+00 0.00000E+00 0.00000E+00
 -1       134 1.15741E+00 0.00000E+00 0.00000E+00
 -1       135 1.25000E+00 0.00000E+00 0.00000E+00
 -1       136 1.34259E+00 0.00000E+00 0.00000E+00
 -1       137 1.43518E+00 0.00000E+00 0.00000E+00
 -1       138 1.52778E+00 0.00000E+00 0.00000E+00
 -1       139 1.62037E+00 0.00000E+00 0.00000E+00
 -1       140 1.71296E+00 0.00000E+00 0.00000E+00
 -1       141 1.80555E+00 0.00000E+00 0.00000E+00
 -1       142 1.89815E+00 0.00000E+00 0.00000E+00
 -1       143 1.99074E+00 0.00000E+00 0.00000E+00
 -1       144 2.08333E+00 0.00000E+00 0.00000E+00
 -1       145 2.17593E+00 0.00000E+00 0.00000E+00
 -1       146 1.11111E+00 9.25930E-02 0.00000E+00
 -1       147 1.11111E+00 1.85185E-01 0.00000E+00
 -1       148 1.11111E+00 2.77778E-01 0.00000E+00
 -1       149 1.11111E+00 3.70370E-01 0.00000E+00
 -1       150 1.11111E+00 4.62963E-01 0.00000E+00
 -1       151 1.11111E+00 5.55555E-01 0.00000E+00
 -1       152 1.11111E+00 6.48148E-01 0.00000E+00
 -1       153 1.11111E+00 7.40741E-01 0.00000E+00
 -1       154 1.11111E+00 8.33333E-01 0.00000E+00
 -1       155 1.11111E+00 9.25926E-01 0.00000E+00
 -1       156 1.11111E+00 1.01852E+00 0.00000E+00
 -1       157 1.11111E+00 4.62960E-02 0.00000E+00
 -1       158 1.11111E+00 1.38889E-01 0.00000E+00
 -1       159 1.11111E+00 2.31481E-01 0.00000E+00
 -1       160 1.11111E+00 3.24074E-01 0.00000E+00
 -1       161 1.11111E+00 4.16667E-01 0.00000E+00
 -1       162 1.11111E+00 5.09259E-01 0.00000E+00
 -1       163 1.11111E+00 6.01852E-01 0.00000E+00
 -1       164 1.11111E+00 6.94444E-01 0.00000E+00
 -1       165 1.11111E+00 7.87037E-01 0.00000E+00
 -1       166 1.11111E+00 8.79630E-01 0.00000E+00
 -1       167 1.11111E+00 9.72222E-01 0.00000E+00
 -1       168 1.11111E+00 1.06482E+00 0.00000E+00
 -1       169 5.42427E-01 9.23764E-01 0.00000E+00
 -1       170 5.54659E-01 4.43210E-01 0.00000E+00
 -1       171 9.41416E-01 3.59940E-01 0.00000E+00
 -1       172 9.24697E-01 9.22601E-01 0.00000E+00
 -1       173 6.44235E-01 1.76690E-01 0.00000E+00
 -1       174 9.51427E-01 1.78502E-01 0.00000E+00
 -1       175 1.82709E-01 9.45909E-01 0.00000E+00
 -1       176 1.20960E-01 6.27694E-01 0.00000E+00
 -1       177 9.32020E-01 5.44470E-01 0.00000E+00
 -1       178 3.28540E-01 5.86257E-01 0.00000E+00
 -1       179 7.80392E-01 3.40039E-01 0.00000E+00
 -1       180 3.60389E-01 9.37472E-01 0.00000E+00
 -1       181 9.25948E-01 7.32324E-01 0.00000E+00
 -1       182 7.33208E-01 9.17963E-01 0.00000E+00
 -1       183 7.97611E-01 1.71673E-01 0.00000E+00
 -1       184 1.99678E-01 7.51312E-01 0.00000E+00
 -1       185 6.62343E-01 3.11672E-01 0.00000E+00
 -1       186 4.03690E-01 4.59610E-01 0.00000E+00
 -1       187 7.52217E-01 5.17954E-01 0.00000E+00
 -1       188 4.98210E-01 7.03054E-01 0.00000E+00
 -1       189 7.31487E-01 7.15674E-01 0.00000E+00
 -1       190 3.51527E-01 8.04776E-01 0.00000E+00
 -1       191 5.20319E-01 8.13409E-01 0.00000E+00
 -1       192 4.51408E-01 9.30618E-01 0.00000E+00
 -1       193 3.55958E-01 8.71124E-01 0.00000E+00
 -1       194 4.24869E-01 7.53915E-01 0.00000E+00
 -1       195 4.38138E-01 8.42267E-01 0.00000E+00
 -1       196 9.46421E-01 2.69221E-01 0.00000E+00
 -1       197 8.60904E-01 3.49989E-01 0.00000E+00
 -1       198 7.89002E-01 2.55856E-01 0.00000E+00
 -1       199 8.74519E-01 1.75088E-01 0.00000E+00
 -1       200 8.67711E-01 2.62538E-01 0.00000E+00
 -1       201 9.98390E-02 7.78434E-01 0.00000E+00
 -1       202 1.91193E-01 8.48611E-01 0.00000E+00
 -1       203 9.13540E-02 9.52121E-01 0.00000E+00
 -1       204 9.55970E-02 8.65277E-01 0.00000E+00
 -1       205 6.48506E-01 8.83450E-02 0.00000E+00
 -1       206 5.53087E-01 1.84016E-01 0.00000E+00
 -1       207 5.69450E-01 9.29450E-02 0.00000E+00
 -1       208 1.83947E-01 1.02851E+00 0.00000E+00
 -1       209 9.19730E-02 1.03162E+00 0.00000E+00
 -1       210 2.75603E-01 7.78044E-01 0.00000E+00
 -1       211 2.71549E-01 9.41690E-01 0.00000E+00
 -1       212 2.73576E-01 8.59867E-01 0.00000E+00
 -1       213 3.65380E-01 1.02429E+00 0.00000E+00
 -1       214 2.74663E-01 1.02640E+00 0.00000E+00
 -1       215 8.01583E-01 8.58370E-02 0.00000E+00
 -1       216 7.20923E-01 1.74182E-01 0.00000E+00
 -1       217 7.25045E-01 8.70910E-02 0.00000E+00
 -1       218 6.53438E-01 4.80582E-01 0.00000E+00
 -1       219 6.08501E-01 3.77441E-01 0.00000E+00
 -1       220 7.21368E-01 3.25855E-01 0.00000E+00
 -1       221 7.66304E-01 4.28997E-01 0.00000E+00
 -1       222 6.87403E-01 4.03219E-01 0.00000E+00
 -1       223 5.26435E-01 5.73132E-01 0.00000E+00
 -1       224 4.13375E-01 6.44655E-01 0.00000E+00
 -1       225 3.66115E-01 5.22933E-01 0.00000E+00
 -1       226 4.79175E-01 4.51410E-01 0.00000E+00
 -1       227 4.46275E-01 5.48033E-01 0.00000E+00
 -1       228 2.59941E-01 5.24099E-01 0.00000E+00
 -1       229 3.78622E-01 4.06582E-01 0.00000E+00
 -1       230 3.21950E-01 4.69334E-01 0.00000E+00
 -1       231 1.56151E-01 5.44817E-01 0.00000E+00
 -1       232 6.04800E-02 6.40236E-01 0.00000E+00
 -1       233 7.90130E-02 5.65314E-01 0.00000E+00
 -1       234 1.03127E+00 1.81843E-01 0.00000E+00
 -1       235 1.02626E+00 3.65155E-01 0.00000E+00
 -1       236 1.02877E+00 2.73499E-01 0.00000E+00
 -1       237 8.28718E-01 7.23999E-01 0.00000E+00
 -1       238 7.41852E-01 6.16814E-01 0.00000E+00
 -1       239 8.42118E-01 5.31212E-01 0.00000E+00
 -1       240 9.28984E-01 6.38397E-01 0.00000E+00
 -1       241 8.35418E-01 6.27606E-01 0.00000E+00
 -1       242 1.02156E+00 5.50013E-01 0.00000E+00
 -1       243 1.01853E+00 7.36532E-01 0.00000E+00
 -1       244 1.02005E+00 6.43272E-01 0.00000E+00
 -1       245 1.01790E+00 9.24263E-01 0.00000E+00
 -1       246 9.25323E-01 8.27462E-01 0.00000E+00
 -1       247 1.01822E+00 8.30398E-01 0.00000E+00
 -1       248 9.25312E-01 1.01686E+00 0.00000E+00
 -1       249 1.01821E+00 1.01769E+00 0.00000E+00
 -1       250 9.36718E-01 4.52205E-01 0.00000E+00
 -1       251 1.02391E+00 4.57584E-01 0.00000E+00
 -1       252 7.36974E-01 1.01454E+00 0.00000E+00
 -1       253 8.28953E-01 9.20282E-01 0.00000E+00
 -1       254 8.31143E-01 1.01570E+00 0.00000E+00
 -1       255 6.14849E-01 7.09364E-01 0.00000E+00
 -1       256 7.32348E-01 8.16819E-01 0.00000E+00
 -1       257 6.37817E-01 9.20864E-01 0.00000E+00
 -1       258 6.26333E-01 8.15114E-01 0.00000E+00
 -1       259 8.28835E-01 8.22141E-01 0.00000E+00
 -1       260 5.48991E-01 1.01744E+00 0.00000E+00
 -1       261 4.57185E-01 1.02086E+00 0.00000E+00
 -1       262 6.42983E-01 1.01599E+00 0.00000E+00
 -1       263 8.51511E-01 4.40601E-01 0.00000E+00
 -1       264 5.08299E-01 3.17276E-01 0.00000E+00
 -1       265 6.53289E-01 2.44181E-01 0.00000E+00
 -1       266 5.80794E-01 2.80728E-01 0.00000E+00
 -1       267 6.34143E-01 5.94973E-01 0.00000E+00
 -1       268 1.60319E-01 6.89503E-01 0.00000E+00
 -1       269 2.64109E-01 6.68785E-01 0.00000E+00
 -1       270 2.10130E-01 6.06801E-01 0.00000E+00
 -1       271 9.54880E-01 8.92510E-02 0.00000E+00
 -1       272 1.03300E+00 9.09220E-02 0.00000E+00
 -1       273 8.78232E-01 8.75440E-02 0.00000E+00
 -1       274 8.01600E-02 7.09335E-01 0.00000E+00
 -1       275 4.47455E-01 3.64598E-01 0.00000E+00
 -1       276 7.21145E-01 2.50019E-01 0.00000E+00
 -1       277 3.44489E-01 7.11350E-01 0.00000E+00
 -1       278 5.09265E-01 7.58231E-01 0.00000E+00
 -1       279 4.79228E-01 8.27838E-01 0.00000E+00
 -1       280 4.31504E-01 7.98091E-01 0.00000E+00
 -1       281 4.61540E-01 7.28484E-01 0.00000E+00
 -1       282 5.31373E-01 8.68587E-01 0.00000E+00
 -1       283 4.96917E-01 9.27191E-01 0.00000E+00
 -1       284 4.44773E-01 8.86442E-01 0.00000E+00
 -1       285 4.05898E-01 9.34045E-01 0.00000E+00
 -1       286 3.58173E-01 9.04298E-01 0.00000E+00
 -1       287 3.97048E-01 8.56695E-01 0.00000E+00
 -1       288 3.53743E-01 8.37950E-01 0.00000E+00
 -1       289 3.88198E-01 7.79346E-01 0.00000E+00
 -1       290 9.48924E-01 2.23861E-01 0.00000E+00
 -1       291 9.07066E-01 2.65880E-01 0.00000E+00
 -1       292 8.71115E-01 2.18813E-01 0.00000E+00
 -1       293 9.12973E-01 1.76795E-01 0.00000E+00
 -1       294 9.43919E-01 3.14580E-01 0.00000E+00
 -1       295 9.01160E-01 3.54964E-01 0.00000E+00
 -1       296 8.64308E-01 3.06264E-01 0.00000E+00
 -1       297 8.20648E-01 3.45014E-01 0.00000E+00
 -1       298 7.84697E-01 2.97948E-01 0.00000E+00
 -1       299 8.28357E-01 2.59197E-01 0.00000E+00
 -1       300 7.93306E-01 2.13765E-01 0.00000E+00
 -1       301 8.36065E-01 1.73380E-01 0.00000E+00
 -1       302 4.77980E-02 8.73611E-01 0.00000E+00
 -1       303 9.34760E-02 9.08699E-01 0.00000E+00
 -1       304 4.56770E-02 9.55227E-01 0.00000E+00
 -1       305 4.99200E-02 7.91995E-01 0.00000E+00
 -1       306 9.77180E-02 8.21856E-01 0.00000E+00
 -1       307 1.49759E-01 7.64873E-01 0.00000E+00
 -1       308 1.95436E-01 7.99961E-01 0.00000E+00
 -1       309 1.43395E-01 8.56944E-01 0.00000E+00
 -1       310 1.86951E-01 8.97260E-01 0.00000E+00
 -1       311 1.37032E-01 9.49015E-01 0.00000E+00
 -1       312 6.50642E-01 4.41730E-02 0.00000E+00
 -1       313 6.08978E-01 9.06450E-02 0.00000E+00
 -1       314 5.72919E-01 4.64730E-02 0.00000E+00
 -1       315 6.46371E-01 1.32518E-01 0.00000E+00
 -1       316 5.98661E-01 1.80353E-01 0.00000E+00
 -1       317 5.61268E-01 1.38481E-01 0.00000E+00
 -1       318 5.07514E-01 1.87679E-01 0.00000E+00
 -1       319 5.29921E-01 9.52450E-02 0.00000E+00
 -1       320 4.59870E-02 1.03317E+00 0.00000E+00
 -1       321 9.22830E-02 1.07136E+00 0.00000E+00
 -1       322 9.16640E-02 9.91869E-01 0.00000E+00
 -1       323 1.83328E-01 9.87209E-01 0.00000E+00
 -1       324 1.37960E-01 1.03006E+00 0.00000E+00
 -1       325 1.84566E-01 1.06981E+00 0.00000E+00
 -1       326 2.37640E-01 7.64678E-01 0.00000E+00
 -1       327 2.74589E-01 8.18956E-01 0.00000E+00
 -1       328 2.32385E-01 8.54239E-01 0.00000E+00
 -1       329 3.13565E-01 7.91410E-01 0.00000E+00
 -1       330 3.14767E-01 8.65496E-01 0.00000E+00
 -1       331 3.15969E-01 9.39581E-01 0.00000E+00
 -1       332 2.72562E-01 9.00779E-01 0.00000E+00
 -1       333 2.27129E-01 9.43800E-01 0.00000E+00
 -1       334 3.62884E-01 9.80882E-01 0.00000E+00
 -1       335 3.20021E-01 1.02535E+00 0.00000E+00
 -1       336 2.73106E-01 9.84046E-01 0.00000E+00
 -1       337 3.67875E-01 1.06770E+00 0.00000E+00
 -1       338 2.76220E-01 1.06876E+00 0.00000E+00
 -1       339 2.29305E-01 1.02745E+00 0.00000E+00
 -1       340 6.86776E-01 8.77180E-02 0.00000E+00
 -1       341 7.22984E-01 1.30636E-01 0.00000E+00
 -1       342 6.82579E-01 1.75436E-01 0.00000E+00
 -1       343 7.27106E-01 4.35450E-02 0.00000E+00
 -1       344 8.03569E-01 4.29180E-02 0.00000E+00
 -1       345 7.63314E-01 8.64640E-02 0.00000E+00
 -1       346 7.99597E-01 1.28755E-01 0.00000E+00
 -1       347 7.59267E-01 1.72928E-01 0.00000E+00
 -1       348 7.02827E-01 4.99268E-01 0.00000E+00
 -1       349 6.70420E-01 4.41901E-01 0.00000E+00
 -1       350 7.26854E-01 4.16108E-01 0.00000E+00
 -1       351 7.59260E-01 4.73475E-01 0.00000E+00
 -1       352 6.04049E-01 4.61896E-01 0.00000E+00
 -1       353 5.81580E-01 4.10326E-01 0.00000E+00
 -1       354 6.47952E-01 3.90330E-01 0.00000E+00
 -1       355 6.35422E-01 3.44556E-01 0.00000E+00
 -1       356 6.91856E-01 3.18763E-01 0.00000E+00
 -1       357 7.04385E-01 3.64537E-01 0.00000E+00
 -1       358 7.50880E-01 3.32947E-01 0.00000E+00
 -1       359 7.73348E-01 3.84518E-01 0.00000E+00
 -1       360 5.40547E-01 5.08171E-01 0.00000E+00
 -1       361 4.86355E-01 5.60582E-01 0.00000E+00
 -1       362 4.62725E-01 4.99721E-01 0.00000E+00
 -1       363 5.16917E-01 4.47310E-01 0.00000E+00
 -1       364 5.12323E-01 6.38093E-01 0.00000E+00
 -1       365 4.55793E-01 6.73855E-01 0.00000E+00
 -1       366 4.29825E-01 5.96344E-01 0.00000E+00
 -1       367 3.70958E-01 6.15456E-01 0.00000E+00
 -1       368 3.47327E-01 5.54595E-01 0.00000E+00
 -1       369 4.06195E-01 5.35483E-01 0.00000E+00
 -1       370 3.84902E-01 4.91272E-01 0.00000E+00
 -1       371 4.41432E-01 4.55510E-01 0.00000E+00
 -1       372 2.94240E-01 5.55178E-01 0.00000E+00
 -1       373 2.90945E-01 4.96716E-01 0.00000E+00
 -1       374 3.44033E-01 4.96134E-01 0.00000E+00
 -1       375 2.25641E-01 4.93019E-01 0.00000E+00
 -1       376 2.99868E-01 4.42534E-01 0.00000E+00
 -1       377 3.66088E-01 3.80067E-01 0.00000E+00
 -1       378 3.50286E-01 4.37958E-01 0.00000E+00
 -1       379 3.91156E-01 4.33096E-01 0.00000E+00
 -1       380 1.73746E-01 5.03378E-01 0.00000E+00
 -1       381 1.17582E-01 5.55066E-01 0.00000E+00
 -1       382 8.82790E-02 5.27853E-01 0.00000E+00
 -1       383 1.38555E-01 5.86256E-01 0.00000E+00
 -1       384 9.07200E-02 6.33965E-01 0.00000E+00
 -1       385 6.97460E-02 6.02775E-01 0.00000E+00
 -1       386 3.02400E-02 6.46507E-01 0.00000E+00
 -1       387 3.95060E-02 5.70852E-01 0.00000E+00
 -1       388 9.91348E-01 1.80173E-01 0.00000E+00
 -1       389 1.03002E+00 2.27671E-01 0.00000E+00
 -1       390 9.87594E-01 2.71360E-01 0.00000E+00
 -1       391 1.07119E+00 1.83514E-01 0.00000E+00
 -1       392 1.06994E+00 2.75638E-01 0.00000E+00
 -1       393 1.06869E+00 3.67763E-01 0.00000E+00
 -1       394 1.02752E+00 3.19327E-01 0.00000E+00
 -1       395 9.83840E-01 3.62547E-01 0.00000E+00
 -1       396 8.77333E-01 7.28162E-01 0.00000E+00
 -1       397 8.32068E-01 6.75802E-01 0.00000E+00
 -1       398 8.82201E-01 6.33001E-01 0.00000E+00
 -1       399 9.27466E-01 6.85361E-01 0.00000E+00
 -1       400 7.80103E-01 7.19837E-01 0.00000E+00
 -1       401 7.36670E-01 6.66244E-01 0.00000E+00
 -1       402 7.88635E-01 6.22210E-01 0.00000E+00
 -1       403 7.47034E-01 5.67384E-01 0.00000E+00
 -1       404 7.97167E-01 5.24583E-01 0.00000E+00
 -1       405 8.38768E-01 5.79409E-01 0.00000E+00
 -1       406 8.87069E-01 5.37841E-01 0.00000E+00
 -1       407 9.30502E-01 5.91433E-01 0.00000E+00
 -1       408 9.74516E-01 6.40835E-01 0.00000E+00
 -1       409 1.01929E+00 6.89902E-01 0.00000E+00
 -1       410 9.72239E-01 7.34428E-01 0.00000E+00
 -1       411 9.76792E-01 5.47241E-01 0.00000E+00
 -1       412 1.02081E+00 5.96642E-01 0.00000E+00
 -1       413 1.06634E+00 5.52784E-01 0.00000E+00
 -1       414 1.06558E+00 6.45710E-01 0.00000E+00
 -1       415 1.06482E+00 7.38637E-01 0.00000E+00
 -1       416 1.01837E+00 7.83465E-01 0.00000E+00
 -1       417 9.71770E-01 8.28930E-01 0.00000E+00
 -1       418 9.25636E-01 7.79893E-01 0.00000E+00
 -1       419 1.06466E+00 8.31866E-01 0.00000E+00
 -1       420 1.06451E+00 9.25095E-01 0.00000E+00
 -1       421 1.01806E+00 8.77331E-01 0.00000E+00
 -1       422 9.71301E-01 9.23432E-01 0.00000E+00
 -1       423 9.25010E-01 8.75031E-01 0.00000E+00
 -1       424 1.06466E+00 1.01810E+00 0.00000E+00
 -1       425 1.01806E+00 9.70975E-01 0.00000E+00
 -1       426 1.01837E+00 1.06440E+00 0.00000E+00
 -1       427 9.25619E-01 1.06398E+00 0.00000E+00
 -1       428 9.71761E-01 1.01727E+00 0.00000E+00
 -1       429 9.25004E-01 9.69728E-01 0.00000E+00
 -1       430 1.06751E+00 4.60273E-01 0.00000E+00
 -1       431 1.02509E+00 4.11369E-01 0.00000E+00
 -1       432 1.02274E+00 5.03798E-01 0.00000E+00
 -1       433 9.34369E-01 4.98337E-01 0.00000E+00
 -1       434 9.80316E-01 4.54894E-01 0.00000E+00
 -1       435 9.39067E-01 4.06072E-01 0.00000E+00
 -1       436 8.32238E-01 1.06340E+00 0.00000E+00
 -1       437 8.78227E-01 1.01628E+00 0.00000E+00
 -1       438 7.38858E-01 1.06282E+00 0.00000E+00
 -1       439 7.84059E-01 1.01512E+00 0.00000E+00
 -1       440 7.35091E-01 9.66250E-01 0.00000E+00
 -1       441 7.81080E-01 9.19123E-01 0.00000E+00
 -1       442 8.30048E-01 9.67989E-01 0.00000E+00
 -1       443 8.76825E-01 9.21441E-01 0.00000E+00
 -1       444 5.56530E-01 7.06209E-01 0.00000E+00
 -1       445 6.20591E-01 7.62239E-01 0.00000E+00
 -1       446 5.73326E-01 8.14261E-01 0.00000E+00
 -1       447 6.73168E-01 7.12519E-01 0.00000E+00
 -1       448 7.31917E-01 7.66247E-01 0.00000E+00
 -1       449 6.79340E-01 8.15966E-01 0.00000E+00
 -1       450 7.32778E-01 8.67391E-01 0.00000E+00
 -1       451 6.85513E-01 9.19414E-01 0.00000E+00
 -1       452 6.32075E-01 8.67989E-01 0.00000E+00
 -1       453 5.90122E-01 9.22314E-01 0.00000E+00
 -1       454 8.28777E-01 7.73070E-01 0.00000E+00
 -1       455 7.80591E-01 8.19480E-01 0.00000E+00
 -1       456 8.77079E-01 8.24801E-01 0.00000E+00
 -1       457 8.28894E-01 8.71211E-01 0.00000E+00
 -1       458 4.54297E-01 9.75741E-01 0.00000E+00
 -1       459 4.11282E-01 1.02258E+00 0.00000E+00
 -1       460 5.45709E-01 9.70601E-01 0.00000E+00
 -1       461 5.03088E-01 1.01915E+00 0.00000E+00
 -1       462 5.52273E-01 1.06427E+00 0.00000E+00
 -1       463 4.60074E-01 1.06599E+00 0.00000E+00
 -1       464 5.95987E-01 1.01671E+00 0.00000E+00
 -1       465 6.45565E-01 1.06355E+00 0.00000E+00
 -1       466 6.40400E-01 9.68426E-01 0.00000E+00
 -1       467 6.89979E-01 1.01526E+00 0.00000E+00
 -1       468 8.46815E-01 4.85906E-01 0.00000E+00
 -1       469 8.94114E-01 4.46403E-01 0.00000E+00
 -1       470 8.08908E-01 4.34799E-01 0.00000E+00
 -1       471 8.56208E-01 3.95295E-01 0.00000E+00
 -1       472 5.31479E-01 3.80243E-01 0.00000E+00
 -1       473 5.44547E-01 2.99002E-01 0.00000E+00
 -1       474 5.94648E-01 3.29085E-01 0.00000E+00
 -1       475 4.85120E-01 2.54309E-01 0.00000E+00
 -1       476 5.66941E-01 2.32372E-01 0.00000E+00
 -1       477 6.48762E-01 2.10436E-01 0.00000E+00
 -1       478 6.17042E-01 2.62455E-01 0.00000E+00
 -1       479 6.57816E-01 2.77926E-01 0.00000E+00
 -1       480 6.43791E-01 5.37778E-01 0.00000E+00
 -1       481 5.80289E-01 5.84053E-01 0.00000E+00
 -1       482 6.87998E-01 6.05894E-01 0.00000E+00
 -1       483 6.24496E-01 6.52169E-01 0.00000E+00
 -1       484 1.79999E-01 7.20408E-01 0.00000E+00
 -1       485 1.85225E-01 6.48152E-01 0.00000E+00
 -1       486 2.37120E-01 6.37793E-01 0.00000E+00
 -1       487 2.31894E-01 7.10049E-01 0.00000E+00
 -1       488 1.40640E-01 6.58599E-01 0.00000E+00
 -1       489 1.83140E-01 5.75809E-01 0.00000E+00
 -1       490 2.35035E-01 5.65450E-01 0.00000E+00
 -1       491 2.96325E-01 6.27521E-01 0.00000E+00
 -1       492 1.03213E+00 1.36383E-01 0.00000E+00
 -1       493 1.07205E+00 9.17570E-02 0.00000E+00
 -1       494 9.53153E-01 1.33876E-01 0.00000E+00
 -1       495 9.93938E-01 9.00860E-02 0.00000E+00
 -1       496 9.56607E-01 4.46250E-02 0.00000E+00
 -1       497 1.03386E+00 4.54610E-02 0.00000E+00
 -1       498 8.39907E-01 8.66900E-02 0.00000E+00
 -1       499 8.76375E-01 1.31316E-01 0.00000E+00
 -1       500 8.80088E-01 4.37720E-02 0.00000E+00
 -1       501 9.16556E-01 8.83970E-02 0.00000E+00
 -1       502 1.20239E-01 6.99419E-01 0.00000E+00
 -1       503 7.03200E-02 6.74786E-01 0.00000E+00
 -1       504 8.99990E-02 7.43884E-01 0.00000E+00
 -1       505 4.00800E-02 7.19251E-01 0.00000E+00
 -1       506 4.77877E-01 3.40937E-01 0.00000E+00
 -1       507 4.31595E-01 3.21191E-01 0.00000E+00
 -1       508 4.63315E-01 4.08004E-01 0.00000E+00
 -1       509 4.13038E-01 3.85590E-01 0.00000E+00
 -1       510 7.21257E-01 2.87937E-01 0.00000E+00
 -1       511 7.55073E-01 2.52937E-01 0.00000E+00
 -1       512 6.87217E-01 2.47100E-01 0.00000E+00
 -1       513 7.21034E-01 2.12100E-01 0.00000E+00
 -1       514 3.04299E-01 6.90067E-01 0.00000E+00
 -1       515 3.10046E-01 7.44697E-01 0.00000E+00
 -1       516 3.78932E-01 6.78003E-01 0.00000E+00
 -1       517 3.84679E-01 7.32632E-01 0.00000E+00
 -1       518 1.85185E+00 1.85185E-01 0.00000E+00
 -1       519 1.29630E+00 5.55555E-01 0.00000E+00
 -1       520 1.66667E+00 9.25926E-01 0.00000E+00
 -1       521 1.48148E+00 1.85185E-01 0.00000E+00
 -1       522 2.03704E+00 5.55555E-01 0.00000E+00
 -1       523 2.03704E+00 9.25926E-01 0.00000E+00
 -1       524 1.29630E+00 9.25926E-01 0.00000E+00
 -1       525 2.03704E+00 1.85185E-01 0.00000E+00
 -1       526 1.29630E+00 1.85185E-01 0.00000E+00
 -1       527 2.03704E+00 7.40741E-01 0.00000E+00
 -1       528 1.29630E+00 7.40741E-01 0.00000E+00
 -1       529 2.03704E+00 3.70370E-01 0.00000E+00
 -1       530 1.66667E+00 1.85185E-01 0.00000E+00
 -1       531 1.48148E+00 9.25926E-01 0.00000E+00
 -1       532 1.48148E+00 3.70370E-01 0.00000E+00
 -1       533 1.29630E+00 3.70370E-01 0.00000E+00
 -1       534 1.85185E+00 9.25926E-01 0.00000E+00
 -1       535 1.66667E+00 7.40741E-01 0.00000E+00
 -1       536 1.85185E+00 3.70370E-01 0.00000E+00
 -1       537 1.48148E+00 5.55555E-01 0.00000E+00
 -1       538 1.48148E+00 7.40741E-01 0.00000E+00
 -1       539 1.66667E+00 3.70370E-01 0.00000E+00
 -1       540 1.85185E+00 7.40741E-01 0.00000E+00
 -1       541 1.66667E+00 5.55555E-01 0.00000E+00
 -1       542 1.85185E+00 5.55555E-01 0.00000E+00
 -1       543 1.75926E+00 5.55555E-01 0.00000E+00
 -1       544 1.85185E+00 6.48148E-01 0.00000E+00
 -1       545 1.75926E+00 7.40741E-01 0.00000E+00
 -1       546 1.66667E+00 6.48148E-01 0.00000E+00
 -1       547 1.75926E+00 6.48148E-01 0.00000E+00
 -1       548 1.57407E+00 7.40741E-01 0.00000E+00
 -1       549 1.48148E+00 6.48148E-01 0.00000E+00
 -1       550 1.57407E+00 5.55555E-01 0.00000E+00
 -1       551 1.57407E+00 6.48148E-01 0.00000E+00
 -1       552 1.85185E+00 8.33333E-01 0.00000E+00
 -1       553 1.94444E+00 7.40741E-01 0.00000E+00
 -1       554 2.03704E+00 8.33333E-01 0.00000E+00
 -1       555 1.94444E+00 9.25926E-01 0.00000E+00
 -1       556 1.94444E+00 8.33333E-01 0.00000E+00
 -1       557 1.38889E+00 7.40741E-01 0.00000E+00
 -1       558 1.29630E+00 6.48148E-01 0.00000E+00
 -1       559 1.38889E+00 5.55555E-01 0.00000E+00
 -1       560 1.38889E+00 6.48148E-01 0.00000E+00
 -1       561 1.94444E+00 1.85185E-01 0.00000E+00
 -1       562 1.85185E+00 9.25930E-02 0.00000E+00
 -1       563 2.03704E+00 9.25930E-02 0.00000E+00
 -1       564 1.94444E+00 9.25930E-02 0.00000E+00
 -1       565 1.75926E+00 1.85185E-01 0.00000E+00
 -1       566 1.66667E+00 9.25930E-02 0.00000E+00
 -1       567 1.75926E+00 9.25930E-02 0.00000E+00
 -1       568 1.29630E+00 1.01852E+00 0.00000E+00
 -1       569 1.38889E+00 9.25926E-01 0.00000E+00
 -1       570 1.48148E+00 1.01852E+00 0.00000E+00
 -1       571 1.38889E+00 1.01852E+00 0.00000E+00
 -1       572 1.85185E+00 2.77778E-01 0.00000E+00
 -1       573 1.75926E+00 3.70370E-01 0.00000E+00
 -1       574 1.66667E+00 2.77778E-01 0.00000E+00
 -1       575 1.75926E+00 2.77778E-01 0.00000E+00
 -1       576 1.66667E+00 4.62963E-01 0.00000E+00
 -1       577 1.85185E+00 4.62963E-01 0.00000E+00
 -1       578 1.75926E+00 4.62963E-01 0.00000E+00
 -1       579 1.20370E+00 5.55555E-01 0.00000E+00
 -1       580 1.20370E+00 7.40741E-01 0.00000E+00
 -1       581 1.20370E+00 6.48148E-01 0.00000E+00
 -1       582 2.12963E+00 3.70370E-01 0.00000E+00
 -1       583 2.12963E+00 5.55555E-01 0.00000E+00
 -1       584 2.03704E+00 4.62963E-01 0.00000E+00
 -1       585 2.12963E+00 4.62963E-01 0.00000E+00
 -1       586 1.29630E+00 8.33333E-01 0.00000E+00
 -1       587 1.48148E+00 8.33333E-01 0.00000E+00
 -1       588 1.38889E+00 8.33333E-01 0.00000E+00
 -1       589 1.94444E+00 5.55555E-01 0.00000E+00
 -1       590 2.03704E+00 6.48148E-01 0.00000E+00
 -1       591 1.94444E+00 6.48148E-01 0.00000E+00
 -1       592 1.66667E+00 8.33333E-01 0.00000E+00
 -1       593 1.57407E+00 9.25926E-01 0.00000E+00
 -1       594 1.57407E+00 8.33333E-01 0.00000E+00
 -1       595 1.66667E+00 1.01852E+00 0.00000E+00
 -1       596 1.57407E+00 1.01852E+00 0.00000E+00
 -1       597 2.03704E+00 1.01852E+00 0.00000E+00
 -1       598 2.12963E+00 9.25926E-01 0.00000E+00
 -1       599 2.12963E+00 1.01852E+00 0.00000E+00
 -1       600 1.94444E+00 3.70370E-01 0.00000E+00
 -1       601 1.94444E+00 4.62963E-01 0.00000E+00
 -1       602 2.12963E+00 7.40741E-01 0.00000E+00
 -1       603 2.12963E+00 8.33333E-01 0.00000E+00
 -1       604 1.75926E+00 9.25926E-01 0.00000E+00
 -1       605 1.85185E+00 1.01852E+00 0.00000E+00
 -1       606 1.75926E+00 1.01852E+00 0.00000E+00
 -1       607 1.94444E+00 1.01852E+00 0.00000E+00
 -1       608 1.20370E+00 9.25926E-01 0.00000E+00
 -1       609 1.20370E+00 8.33333E-01 0.00000E+00
 -1       610 1.75926E+00 8.33333E-01 0.00000E+00
 -1       611 2.12963E+00 1.85185E-01 0.00000E+00
 -1       612 2.12963E+00 9.25930E-02 0.00000E+00
 -1       613 1.29630E+00 9.25930E-02 0.00000E+00
 -1       614 1.20370E+00 1.85185E-01 0.00000E+00
 -1       615 1.20370E+00 9.25930E-02 0.00000E+00
 -1       616 1.48148E+00 9.25930E-02 0.00000E+00
 -1       617 1.38889E+00 1.85185E-01 0.00000E+00
 -1       618 1.38889E+00 9.25930E-02 0.00000E+00
 -1       619 2.12963E+00 6.48148E-01 0.00000E+00
 -1       620 1.48148E+00 4.62963E-01 0.00000E+00
 -1       621 1.57407E+00 3.70370E-01 0.00000E+00
 -1       622 1.57407E+00 4.62963E-01 0.00000E+00
 -1       623 1.20370E+00 1.01852E+00 0.00000E+00
 -1       624 1.29630E+00 4.62963E-01 0.00000E+00
 -1       625 1.38889E+00 3.70370E-01 0.00000E+00
 -1       626 1.38889E+00 4.62963E-01 0.00000E+00
 -1       627 2.03704E+00 2.77778E-01 0.00000E+00
 -1       628 2.12963E+00 2.77778E-01 0.00000E+00
 -1       629 1.48148E+00 2.77778E-01 0.00000E+00
 -1       630 1.29630E+00 2.77778E-01 0.00000E+00
 -1       631 1.38889E+00 2.77778E-01 0.00000E+00
 -1       632 1.20370E+00 3.70370E-01 0.00000E+00
 -1       633 1.20370E+00 2.77778E-01 0.00000E+00
 -1       634 1.57407E+00 1.85185E-01 0.00000E+00
 -1       635 1.57407E+00 9.25930E-02 0.00000E+00
 -1       636 1.20370E+00 4.62963E-01 0.00000E+00
 -1       637 1.57407E+00 2.77778E-01 0.00000E+00
 -1       638 1.94444E+00 2.77778E-01 0.00000E+00
 -1       639 1.71296E+00 5.55555E-01 0.00000E+00
 -1       640 1.75926E+00 6.01852E-01 0.00000E+00
 -1       641 1.71296E+00 6.48148E-01 0.00000E+00
 -1       642 1.66667E+00 6.01852E-01 0.00000E+00
 -1       643 1.80555E+00 5.55555E-01 0.00000E+00
 -1       644 1.85185E+00 6.01852E-01 0.00000E+00
 -1       645 1.80555E+00 6.48148E-01 0.00000E+00
 -1       646 1.85185E+00 6.94444E-01 0.00000E+00
 -1       647 1.80555E+00 7.40741E-01 0.00000E+00
 -1       648 1.75926E+00 6.94444E-01 0.00000E+00
 -1       649 1.71296E+00 7.40741E-01 0.00000E+00
 -1       650 1.66667E+00 6.94444E-01 0.00000E+00
 -1       651 1.62037E+00 7.40741E-01 0.00000E+00
 -1       652 1.57407E+00 6.94444E-01 0.00000E+00
 -1       653 1.62037E+00 6.48148E-01 0.00000E+00
 -1       654 1.52778E+00 7.40741E-01 0.00000E+00
 -1       655 1.48148E+00 6.94444E-01 0.00000E+00
 -1       656 1.52778E+00 6.48148E-01 0.00000E+00
 -1       657 1.48148E+00 6.01852E-01 0.00000E+00
 -1       658 1.52778E+00 5.55555E-01 0.00000E+00
 -1       659 1.57407E+00 6.01852E-01 0.00000E+00
 -1       660 1.62037E+00 5.55555E-01 0.00000E+00
 -1       661 1.85185E+00 8.79630E-01 0.00000E+00
 -1       662 1.89815E+00 8.33333E-01 0.00000E+00
 -1       663 1.94444E+00 8.79630E-01 0.00000E+00
 -1       664 1.89815E+00 9.25926E-01 0.00000E+00
 -1       665 1.85185E+00 7.87037E-01 0.00000E+00
 -1       666 1.89815E+00 7.40741E-01 0.00000E+00
 -1       667 1.94444E+00 7.87037E-01 0.00000E+00
 -1       668 1.99074E+00 7.40741E-01 0.00000E+00
 -1       669 2.03704E+00 7.87037E-01 0.00000E+00
 -1       670 1.99074E+00 8.33333E-01 0.00000E+00
 -1       671 2.03704E+00 8.79630E-01 0.00000E+00
 -1       672 1.99074E+00 9.25926E-01 0.00000E+00
 -1       673 1.43518E+00 7.40741E-01 0.00000E+00
 -1       674 1.38889E+00 6.94444E-01 0.00000E+00
 -1       675 1.43518E+00 6.48148E-01 0.00000E+00
 -1       676 1.34259E+00 7.40741E-01 0.00000E+00
 -1       677 1.29630E+00 6.94444E-01 0.00000E+00
 -1       678 1.34259E+00 6.48148E-01 0.00000E+00
 -1       679 1.29630E+00 6.01852E-01 0.00000E+00
 -1       680 1.34259E+00 5.55555E-01 0.00000E+00
 -1       681 1.38889E+00 6.01852E-01 0.00000E+00
 -1       682 1.43518E+00 5.55555E-01 0.00000E+00
 -1       683 1.99074E+00 1.85185E-01 0.00000E+00
 -1       684 1.94444E+00 1.38889E-01 0.00000E+00
 -1       685 1.99074E+00 9.25930E-02 0.00000E+00
 -1       686 2.03704E+00 1.38889E-01 0.00000E+00
 -1       687 1.89815E+00 1.85185E-01 0.00000E+00
 -1       688 1.85185E+00 1.38889E-01 0.00000E+00
 -1       689 1.89815E+00 9.25930E-02 0.00000E+00
 -1       690 1.85185E+00 4.62960E-02 0.00000E+00
 -1       691 1.94444E+00 4.62960E-02 0.00000E+00
 -1       692 2.03704E+00 4.62960E-02 0.00000E+00
 -1       693 1.80555E+00 9.25930E-02 0.00000E+00
 -1       694 1.75926E+00 4.62960E-02 0.00000E+00
 -1       695 1.80555E+00 1.85185E-01 0.00000E+00
 -1       696 1.75926E+00 1.38889E-01 0.00000E+00
 -1       697 1.71296E+00 1.85185E-01 0.00000E+00
 -1       698 1.66667E+00 1.38889E-01 0.00000E+00
 -1       699 1.71296E+00 9.25930E-02 0.00000E+00
 -1       700 1.66667E+00 4.62960E-02 0.00000E+00
 -1       701 1.38889E+00 1.06482E+00 0.00000E+00
 -1       702 1.43518E+00 1.01852E+00 0.00000E+00
 -1       703 1.48148E+00 1.06482E+00 0.00000E+00
 -1       704 1.29630E+00 1.06482E+00 0.00000E+00
 -1       705 1.34259E+00 1.01852E+00 0.00000E+00
 -1       706 1.29630E+00 9.72222E-01 0.00000E+00
 -1       707 1.34259E+00 9.25926E-01 0.00000E+00
 -1       708 1.38889E+00 9.72222E-01 0.00000E+00
 -1       709 1.43518E+00 9.25926E-01 0.00000E+00
 -1       710 1.48148E+00 9.72222E-01 0.00000E+00
 -1       711 1.75926E+00 2.31481E-01 0.00000E+00
 -1       712 1.71296E+00 2.77778E-01 0.00000E+00
 -1       713 1.66667E+00 2.31481E-01 0.00000E+00
 -1       714 1.85185E+00 2.31481E-01 0.00000E+00
 -1       715 1.80555E+00 2.77778E-01 0.00000E+00
 -1       716 1.85185E+00 3.24074E-01 0.00000E+00
 -1       717 1.80555E+00 3.70370E-01 0.00000E+00
 -1       718 1.75926E+00 3.24074E-01 0.00000E+00
 -1       719 1.71296E+00 3.70370E-01 0.00000E+00
 -1       720 1.66667E+00 3.24074E-01 0.00000E+00
 -1       721 1.75926E+00 5.09259E-01 0.00000E+00
 -1       722 1.80555E+00 4.62963E-01 0.00000E+00
 -1       723 1.85185E+00 5.09259E-01 0.00000E+00
 -1       724 1.66667E+00 5.09259E-01 0.00000E+00
 -1       725 1.71296E+00 4.62963E-01 0.00000E+00
 -1       726 1.66667E+00 4.16667E-01 0.00000E+00
 -1       727 1.75926E+00 4.16667E-01 0.00000E+00
 -1       728 1.85185E+00 4.16667E-01 0.00000E+00
 -1       729 1.15741E+00 5.55555E-01 0.00000E+00
 -1       730 1.20370E+00 6.01852E-01 0.00000E+00
 -1       731 1.15741E+00 6.48148E-01 0.00000E+00
 -1       732 1.25000E+00 5.55555E-01 0.00000E+00
 -1       733 1.25000E+00 6.48148E-01 0.00000E+00
 -1       734 1.25000E+00 7.40741E-01 0.00000E+00
 -1       735 1.20370E+00 6.94444E-01 0.00000E+00
 -1       736 1.15741E+00 7.40741E-01 0.00000E+00
 -1       737 2.08333E+00 3.70370E-01 0.00000E+00
 -1       738 2.12963E+00 4.16667E-01 0.00000E+00
 -1       739 2.08333E+00 4.62963E-01 0.00000E+00
 -1       740 2.03704E+00 4.16667E-01 0.00000E+00
 -1       741 2.17593E+00 3.70370E-01 0.00000E+00
 -1       742 2.17593E+00 4.62963E-01 0.00000E+00
 -1       743 2.17593E+00 5.55555E-01 0.00000E+00
 -1       744 2.12963E+00 5.09259E-01 0.00000E+00
 -1       745 2.08333E+00 5.55555E-01 0.00000E+00
 -1       746 2.03704E+00 5.09259E-01 0.00000E+00
 -1       747 1.38889E+00 8.79630E-01 0.00000E+00
 -1       748 1.43518E+00 8.33333E-01 0.00000E+00
 -1       749 1.48148E+00 8.79630E-01 0.00000E+00
 -1       750 1.29630E+00 8.79630E-01 0.00000E+00
 -1       751 1.34259E+00 8.33333E-01 0.00000E+00
 -1       752 1.29630E+00 7.87037E-01 0.00000E+00
 -1       753 1.38889E+00 7.87037E-01 0.00000E+00
 -1       754 1.48148E+00 7.87037E-01 0.00000E+00
 -1       755 1.89815E+00 5.55555E-01 0.00000E+00
 -1       756 1.94444E+00 6.01852E-01 0.00000E+00
 -1       757 1.89815E+00 6.48148E-01 0.00000E+00
 -1       758 1.99074E+00 5.55555E-01 0.00000E+00
 -1       759 2.03704E+00 6.01852E-01 0.00000E+00
 -1       760 1.99074E+00 6.48148E-01 0.00000E+00
 -1       761 2.03704E+00 6.94444E-01 0.00000E+00
 -1       762 1.94444E+00 6.94444E-01 0.00000E+00
 -1       763 1.57407E+00 7.87037E-01 0.00000E+00
 -1       764 1.52778E+00 8.33333E-01 0.00000E+00
 -1       765 1.66667E+00 7.87037E-01 0.00000E+00
 -1       766 1.62037E+00 8.33333E-01 0.00000E+00
 -1       767 1.66667E+00 8.79630E-01 0.00000E+00
 -1       768 1.62037E+00 9.25926E-01 0.00000E+00
 -1       769 1.57407E+00 8.79630E-01 0.00000E+00
 -1       770 1.52778E+00 9.25926E-01 0.00000E+00
 -1       771 1.52778E+00 1.01852E+00 0.00000E+00
 -1       772 1.57407E+00 1.06482E+00 0.00000E+00
 -1       773 1.57407E+00 9.72222E-01 0.00000E+00
 -1       774 1.66667E+00 9.72222E-01 0.00000E+00
 -1       775 1.62037E+00 1.01852E+00 0.00000E+00
 -1       776 1.66667E+00 1.06482E+00 0.00000E+00
 -1       777 2.17593E+00 1.01852E+00 0.00000E+00
 -1       778 2.12963E+00 9.72222E-01 0.00000E+00
 -1       779 2.17593E+00 9.25926E-01 0.00000E+00
 -1       780 2.12963E+00 1.06482E+00 0.00000E+00
 -1       781 2.03704E+00 1.06482E+00 0.00000E+00
 -1       782 2.08333E+00 1.01852E+00 0.00000E+00
 -1       783 2.03704E+00 9.72222E-01 0.00000E+00
 -1       784 2.08333E+00 9.25926E-01 0.00000E+00
 -1       785 1.94444E+00 5.09259E-01 0.00000E+00
 -1       786 1.99074E+00 4.62963E-01 0.00000E+00
 -1       787 1.89815E+00 4.62963E-01 0.00000E+00
 -1       788 1.89815E+00 3.70370E-01 0.00000E+00
 -1       789 1.94444E+00 4.16667E-01 0.00000E+00
 -1       790 1.99074E+00 3.70370E-01 0.00000E+00
 -1       791 2.08333E+00 8.33333E-01 0.00000E+00
 -1       792 2.12963E+00 8.79630E-01 0.00000E+00
 -1       793 2.08333E+00 7.40741E-01 0.00000E+00
 -1       794 2.12963E+00 7.87037E-01 0.00000E+00
 -1       795 2.17593E+00 7.40741E-01 0.00000E+00
 -1       796 2.17593E+00 8.33333E-01 0.00000E+00
 -1       797 1.71296E+00 9.25926E-01 0.00000E+00
 -1       798 1.75926E+00 9.72222E-01 0.00000E+00
 -1       799 1.71296E+00 1.01852E+00 0.00000E+00
 -1       800 1.80555E+00 9.25926E-01 0.00000E+00
 -1       801 1.85185E+00 9.72222E-01 0.00000E+00
 -1       802 1.80555E+00 1.01852E+00 0.00000E+00
 -1       803 1.85185E+00 1.06482E+00 0.00000E+00
 -1       804 1.75926E+00 1.06482E+00 0.00000E+00
 -1       805 1.94444E+00 1.06482E+00 0.00000E+00
 -1       806 1.99074E+00 1.01852E+00 0.00000E+00
 -1       807 1.89815E+00 1.01852E+00 0.00000E+00
 -1       808 1.94444E+00 9.72222E-01 0.00000E+00
 -1       809 1.25000E+00 9.25926E-01 0.00000E+00
 -1       810 1.20370E+00 8.79630E-01 0.00000E+00
 -1       811 1.25000E+00 8.33333E-01 0.00000E+00
 -1       812 1.15741E+00 9.25926E-01 0.00000E+00
 -1       813 1.15741E+00 8.33333E-01 0.00000E+00
 -1       814 1.20370E+00 7.87037E-01 0.00000E+00
 -1       815 1.80555E+00 8.33333E-01 0.00000E+00
 -1       816 1.75926E+00 7.87037E-01 0.00000E+00
 -1       817 1.75926E+00 8.79630E-01 0.00000E+00
 -1       818 1.71296E+00 8.33333E-01 0.00000E+00
 -1       819 2.12963E+00 4.62960E-02 0.00000E+00
 -1       820 2.08333E+00 9.25930E-02 0.00000E+00
 -1       821 2.17593E+00 9.25930E-02 0.00000E+00
 -1       822 2.17593E+00 1.85185E-01 0.00000E+00
 -1       823 2.12963E+00 1.38889E-01 0.00000E+00
 -1       824 2.08333E+00 1.85185E-01 0.00000E+00
 -1       825 1.15741E+00 9.25930E-02 0.00000E+00
 -1       826 1.20370E+00 1.38889E-01 0.00000E+00
 -1       827 1.15741E+00 1.85185E-01 0.00000E+00
 -1       828 1.20370E+00 4.62960E-02 0.00000E+00
 -1       829 1.29630E+00 4.62960E-02 0.00000E+00
 -1       830 1.25000E+00 9.25930E-02 0.00000E+00
 -1       831 1.29630E+00 1.38889E-01 0.00000E+00
 -1       832 1.25000E+00 1.85185E-01 0.00000E+00
 -1       833 1.34259E+00 9.25930E-02 0.00000E+00
 -1       834 1.38889E+00 1.38889E-01 0.00000E+00
 -1       835 1.34259E+00 1.85185E-01 0.00000E+00
 -1       836 1.38889E+00 4.62960E-02 0.00000E+00
 -1       837 1.48148E+00 4.62960E-02 0.00000E+00
 -1       838 1.43518E+00 9.25930E-02 0.00000E+00
 -1       839 1.48148E+00 1.38889E-01 0.00000E+00
 -1       840 1.43518E+00 1.85185E-01 0.00000E+00
 -1       841 2.17593E+00 6.48148E-01 0.00000E+00
 -1       842 2.12963E+00 6.01852E-01 0.00000E+00
 -1       843 2.12963E+00 6.94444E-01 0.00000E+00
 -1       844 2.08333E+00 6.48148E-01 0.00000E+00
 -1       845 1.57407E+00 5.09259E-01 0.00000E+00
 -1       846 1.62037E+00 4.62963E-01 0.00000E+00
 -1       847 1.48148E+00 5.09259E-01 0.00000E+00
 -1       848 1.52778E+00 4.62963E-01 0.00000E+00
 -1       849 1.48148E+00 4.16667E-01 0.00000E+00
 -1       850 1.52778E+00 3.70370E-01 0.00000E+00
 -1       851 1.57407E+00 4.16667E-01 0.00000E+00
 -1       852 1.62037E+00 3.70370E-01 0.00000E+00
 -1       853 1.20370E+00 1.06482E+00 0.00000E+00
 -1       854 1.25000E+00 1.01852E+00 0.00000E+00
 -1       855 1.15741E+00 1.01852E+00 0.00000E+00
 -1       856 1.20370E+00 9.72222E-01 0.00000E+00
 -1       857 1.29630E+00 5.09259E-01 0.00000E+00
 -1       858 1.34259E+00 4.62963E-01 0.00000E+00
 -1       859 1.38889E+00 5.09259E-01 0.00000E+00
 -1       860 1.29630E+00 4.16667E-01 0.00000E+00
 -1       861 1.34259E+00 3.70370E-01 0.00000E+00
 -1       862 1.38889E+00 4.16667E-01 0.00000E+00
 -1       863 1.43518E+00 3.70370E-01 0.00000E+00
 -1       864 1.43518E+00 4.62963E-01 0.00000E+00
 -1       865 2.03704E+00 3.24074E-01 0.00000E+00
 -1       866 2.08333E+00 2.77778E-01 0.00000E+00
 -1       867 2.12963E+00 3.24074E-01 0.00000E+00
 -1       868 2.03704E+00 2.31481E-01 0.00000E+00
 -1       869 2.12963E+00 2.31481E-01 0.00000E+00
 -1       870 2.17593E+00 2.77778E-01 0.00000E+00
 -1       871 1.48148E+00 2.31481E-01 0.00000E+00
 -1       872 1.43518E+00 2.77778E-01 0.00000E+00
 -1       873 1.38889E+00 2.31481E-01 0.00000E+00
 -1       874 1.48148E+00 3.24074E-01 0.00000E+00
 -1       875 1.38889E+00 3.24074E-01 0.00000E+00
 -1       876 1.29630E+00 3.24074E-01 0.00000E+00
 -1       877 1.34259E+00 2.77778E-01 0.00000E+00
 -1       878 1.29630E+00 2.31481E-01 0.00000E+00
 -1       879 1.15741E+00 2.77778E-01 0.00000E+00
 -1       880 1.20370E+00 3.24074E-01 0.00000E+00
 -1       881 1.15741E+00 3.70370E-01 0.00000E+00
 -1       882 1.20370E+00 2.31481E-01 0.00000E+00
 -1       883 1.25000E+00 2.77778E-01 0.00000E+00
 -1       884 1.25000E+00 3.70370E-01 0.00000E+00
 -1       885 1.52778E+00 9.25930E-02 0.00000E+00
 -1       886 1.57407E+00 1.38889E-01 0.00000E+00
 -1       887 1.52778E+00 1.85185E-01 0.00000E+00
 -1       888 1.57407E+00 4.62960E-02 0.00000E+00
 -1       889 1.62037E+00 9.25930E-02 0.00000E+00
 -1       890 1.62037E+00 1.85185E-01 0.00000E+00
 -1       891 1.25000E+00 4.62963E-01 0.00000E+00
 -1       892 1.20370E+00 4.16667E-01 0.00000E+00
 -1       893 1.20370E+00 5.09259E-01 0.00000E+00
 -1       894 1.15741E+00 4.62963E-01 0.00000E+00
 -1       895 1.62037E+00 2.77778E-01 0.00000E+00
 -1       896 1.57407E+00 2.31481E-01 0.00000E+00
 -1       897 1.57407E+00 3.24074E-01 0.00000E+00
 -1       898 1.52778E+00 2.77778E-01 0.00000E+00
 -1       899 1.99074E+00 2.77778E-01 0.00000E+00
 -1       900 1.94444E+00 2.31481E-01 0.00000E+00
 -1       901 1.94444E+00 3.24074E-01 0.00000E+00
 -1       902 1.89815E+00 2.77778E-01 0.00000E+00
 -3
    3C                           276                                     1
 -1         1   10    0    1
 -2       188       191       195       194       278       279       280       281
 -1         2   10    0    1
 -2       191       169       192       195       282       283       284       279
 -1         3   10    0    1
 -2       195       192       180       193       284       285       286       287
 -1         4   10    0    1
 -2       194       195       193       190       280       287       288       289
 -1         5   10    0    1
 -2       174       196       200       199       290       291       292       293
 -1         6   10    0    1
 -2       196       171       197       200       294       295       296       291
 -1         7   10    0    1
 -2       200       197       179       198       296       297       298       299
 -1         8   10    0    1
 -2       199       200       198       183       292       299       300       301
 -1         9   10    0    1
 -2       109       110       204       203       117       302       303       304
 -1        10   10    0    1
 -2       110       111       201       204       118       305       306       302
 -1        11   10    0    1
 -2       204       201       184       202       306       307       308       309
 -1        12   10    0    1
 -2       203       204       202       175       303       309       310       311
 -1        13   10    0    1
 -2        25       205       207        24       312       313       314        32
 -1        14   10    0    1
 -2       205       173       206       207       315       316       317       313
 -1        15   10    0    1
 -2       207       206        14        15       317       318        22       319
 -1        16   10    0    1
 -2        24       207        15         3       314       319        23        31
 -1        17   10    0    1
 -2         7       108       209        95       115       320       321       107
 -1        18   10    0    1
 -2       108       109       203       209       116       304       322       320
 -1        19   10    0    1
 -2       209       203       175       208       322       311       323       324
 -1        20   10    0    1
 -2        95       209       208        94       321       324       325       106
 -1        21   10    0    1
 -2       184       210       212       202       326       327       328       308
 -1        22   10    0    1
 -2       210       190       193       212       329       288       330       327
 -1        23   10    0    1
 -2       212       193       180       211       330       286       331       332
 -1        24   10    0    1
 -2       202       212       211       175       328       332       333       310
 -1        25   10    0    1
 -2       180       213       214       211       334       335       336       331
 -1        26   10    0    1
 -2       213        92        93       214       337       104       338       335
 -1        27   10    0    1
 -2       214        93        94       208       338       105       325       339
 -1        28   10    0    1
 -2       211       214       208       175       336       339       323       333
 -1        29   10    0    1
 -2       173       205       217       216       315       340       341       342
 -1        30   10    0    1
 -2       205        25        26       217       312        33       343       340
 -1        31   10    0    1
 -2       217        26        27       215       343        34       344       345
 -1        32   10    0    1
 -2       216       217       215       183       341       345       346       347
 -1        33   10    0    1
 -2       187       218       222       221       348       349       350       351
 -1        34   10    0    1
 -2       218       170       219       222       352       353       354       349
 -1        35   10    0    1
 -2       222       219       185       220       354       355       356       357
 -1        36   10    0    1
 -2       221       222       220       179       350       357       358       359
 -1        37   10    0    1
 -2       170       223       227       226       360       361       362       363
 -1        38   10    0    1
 -2       223       188       224       227       364       365       366       361
 -1        39   10    0    1
 -2       227       224       178       225       366       367       368       369
 -1        40   10    0    1
 -2       226       227       225       186       362       369       370       371
 -1        41   10    0    1
 -2       178       228       230       225       372       373       374       368
 -1        42   10    0    1
 -2       228        10        11       230       375        18       376       373
 -1        43   10    0    1
 -2       230        11        12       229       376        19       377       378
 -1        44   10    0    1
 -2       225       230       229       186       374       378       379       370
 -1        45   10    0    1
 -2        10       231       233         9       380       381       382        17
 -1        46   10    0    1
 -2       231       176       232       233       383       384       385       381
 -1        47   10    0    1
 -2       233       232       113       114       385       386       121       387
 -1        48   10    0    1
 -2         9       233       114         1       382       387       122        16
 -1        49   10    0    1
 -2       174       234       236       196       388       389       390       290
 -1        50   10    0    1
 -2       234       147       148       236       391       159       392       389
 -1        51   10    0    1
 -2       236       148       149       235       392       160       393       394
 -1        52   10    0    1
 -2       196       236       235       171       390       394       395       294
 -1        53   10    0    1
 -2       181       237       241       240       396       397       398       399
 -1        54   10    0    1
 -2       237       189       238       241       400       401       402       397
 -1        55   10    0    1
 -2       241       238       187       239       402       403       404       405
 -1        56   10    0    1
 -2       240       241       239       177       398       405       406       407
 -1        57   10    0    1
 -2       181       240       244       243       399       408       409       410
 -1        58   10    0    1
 -2       240       177       242       244       407       411       412       408
 -1        59   10    0    1
 -2       244       242       151       152       412       413       163       414
 -1        60   10    0    1
 -2       243       244       152       153       409       414       164       415
 -1        61   10    0    1
 -2       181       243       247       246       410       416       417       418
 -1        62   10    0    1
 -2       243       153       154       247       415       165       419       416
 -1        63   10    0    1
 -2       247       154       155       245       419       166       420       421
 -1        64   10    0    1
 -2       246       247       245       172       417       421       422       423
 -1        65   10    0    1
 -2       155       156       249       245       167       424       425       420
 -1        66   10    0    1
 -2       156         6        85       249       168        96       426       424
 -1        67   10    0    1
 -2       249        85        86       248       426        97       427       428
 -1        68   10    0    1
 -2       245       249       248       172       425       428       429       422
 -1        69   10    0    1
 -2       149       150       251       235       161       430       431       393
 -1        70   10    0    1
 -2       150       151       242       251       162       413       432       430
 -1        71   10    0    1
 -2       251       242       177       250       432       411       433       434
 -1        72   10    0    1
 -2       235       251       250       171       431       434       435       395
 -1        73   10    0    1
 -2        86        87       254       248        98       436       437       427
 -1        74   10    0    1
 -2        87        88       252       254        99       438       439       436
 -1        75   10    0    1
 -2       254       252       182       253       439       440       441       442
 -1        76   10    0    1
 -2       248       254       253       172       437       442       443       429
 -1        77   10    0    1
 -2       188       255       258       191       444       445       446       278
 -1        78   10    0    1
 -2       255       189       256       258       447       448       449       445
 -1        79   10    0    1
 -2       258       256       182       257       449       450       451       452
 -1        80   10    0    1
 -2       191       258       257       169       446       452       453       282
 -1        81   10    0    1
 -2       189       237       259       256       400       454       455       448
 -1        82   10    0    1
 -2       237       181       246       259       396       418       456       454
 -1        83   10    0    1
 -2       259       246       172       253       456       423       443       457
 -1        84   10    0    1
 -2       256       259       253       182       455       457       441       450
 -1        85   10    0    1
 -2       180       192       261       213       285       458       459       334
 -1        86   10    0    1
 -2       192       169       260       261       283       460       461       458
 -1        87   10    0    1
 -2       261       260        90        91       461       462       102       463
 -1        88   10    0    1
 -2       213       261        91        92       459       463       103       337
 -1        89   10    0    1
 -2        90       260       262        89       462       464       465       101
 -1        90   10    0    1
 -2       260       169       257       262       460       453       466       464
 -1        91   10    0    1
 -2       262       257       182       252       466       451       440       467
 -1        92   10    0    1
 -2        89       262       252        88       465       467       438       100
 -1        93   10    0    1
 -2       177       239       263       250       406       468       469       433
 -1        94   10    0    1
 -2       239       187       221       263       404       351       470       468
 -1        95   10    0    1
 -2       263       221       179       197       470       359       297       471
 -1        96   10    0    1
 -2       250       263       197       171       469       471       295       435
 -1        97   10    0    1
 -2       170       264       266       219       472       473       474       353
 -1        98   10    0    1
 -2       264        14       206       266       475       318       476       473
 -1        99   10    0    1
 -2       266       206       173       265       476       316       477       478
 -1       100   10    0    1
 -2       219       266       265       185       474       478       479       355
 -1       101   10    0    1
 -2       170       218       267       223       352       480       481       360
 -1       102   10    0    1
 -2       218       187       238       267       348       403       482       480
 -1       103   10    0    1
 -2       267       238       189       255       482       401       447       483
 -1       104   10    0    1
 -2       223       267       255       188       481       483       444       364
 -1       105   10    0    1
 -2       184       268       270       269       484       485       486       487
 -1       106   10    0    1
 -2       268       176       231       270       488       383       489       485
 -1       107   10    0    1
 -2       270       231        10       228       489       380       375       490
 -1       108   10    0    1
 -2       269       270       228       178       486       490       372       491
 -1       109   10    0    1
 -2       147       234       272       146       391       492       493       158
 -1       110   10    0    1
 -2       234       174       271       272       388       494       495       492
 -1       111   10    0    1
 -2       272       271        29        30       495       496        37       497
 -1       112   10    0    1
 -2       146       272        30         8       493       497        38       157
 -1       113   10    0    1
 -2       183       215       273       199       346       498       499       301
 -1       114   10    0    1
 -2       215        27        28       273       344        35       500       498
 -1       115   10    0    1
 -2       273        28        29       271       500        36       496       501
 -1       116   10    0    1
 -2       199       273       271       174       499       501       494       293
 -1       117   10    0    1
 -2       176       268       274       232       488       502       503       384
 -1       118   10    0    1
 -2       268       184       201       274       484       307       504       502
 -1       119   10    0    1
 -2       274       201       111       112       504       305       119       505
 -1       120   10    0    1
 -2       232       274       112       113       503       505       120       386
 -1       121   10    0    1
 -2        14       264       275        13       475       506       507        21
 -1       122   10    0    1
 -2       264       170       226       275       472       363       508       506
 -1       123   10    0    1
 -2       275       226       186       229       508       371       379       509
 -1       124   10    0    1
 -2        13       275       229        12       507       509       377        20
 -1       125   10    0    1
 -2       179       220       276       198       358       510       511       298
 -1       126   10    0    1
 -2       220       185       265       276       356       479       512       510
 -1       127   10    0    1
 -2       276       265       173       216       512       477       342       513
 -1       128   10    0    1
 -2       198       276       216       183       511       513       347       300
 -1       129   10    0    1
 -2       184       269       277       210       487       514       515       326
 -1       130   10    0    1
 -2       269       178       224       277       491       367       516       514
 -1       131   10    0    1
 -2       277       224       188       194       516       365       281       517
 -1       132   10    0    1
 -2       210       277       194       190       515       517       289       329
 -1       133   10    0    1
 -2       541       543       547       546       639       640       641       642
 -1       134   10    0    1
 -2       543       542       544       547       643       644       645       640
 -1       135   10    0    1
 -2       547       544       540       545       645       646       647       648
 -1       136   10    0    1
 -2       546       547       545       535       641       648       649       650
 -1       137   10    0    1
 -2       535       548       551       546       651       652       653       650
 -1       138   10    0    1
 -2       548       538       549       551       654       655       656       652
 -1       139   10    0    1
 -2       551       549       537       550       656       657       658       659
 -1       140   10    0    1
 -2       546       551       550       541       653       659       660       642
 -1       141   10    0    1
 -2       534       552       556       555       661       662       663       664
 -1       142   10    0    1
 -2       552       540       553       556       665       666       667       662
 -1       143   10    0    1
 -2       556       553       527       554       667       668       669       670
 -1       144   10    0    1
 -2       555       556       554       523       663       670       671       672
 -1       145   10    0    1
 -2       538       557       560       549       673       674       675       655
 -1       146   10    0    1
 -2       557       528       558       560       676       677       678       674
 -1       147   10    0    1
 -2       560       558       519       559       678       679       680       681
 -1       148   10    0    1
 -2       549       560       559       537       675       681       682       657
 -1       149   10    0    1
 -2       525       561       564       563       683       684       685       686
 -1       150   10    0    1
 -2       561       518       562       564       687       688       689       684
 -1       151   10    0    1
 -2       564       562       130       131       689       690       142       691
 -1       152   10    0    1
 -2       563       564       131       132       685       691       143       692
 -1       153   10    0    1
 -2       130       562       567       129       690       693       694       141
 -1       154   10    0    1
 -2       562       518       565       567       688       695       696       693
 -1       155   10    0    1
 -2       567       565       530       566       696       697       698       699
 -1       156   10    0    1
 -2       129       567       566       128       694       699       700       140
 -1       157   10    0    1
 -2        69        70       571       570        81       701       702       703
 -1       158   10    0    1
 -2        70        71       568       571        82       704       705       701
 -1       159   10    0    1
 -2       571       568       524       569       705       706       707       708
 -1       160   10    0    1
 -2       570       571       569       531       702       708       709       710
 -1       161   10    0    1
 -2       530       565       575       574       697       711       712       713
 -1       162   10    0    1
 -2       565       518       572       575       695       714       715       711
 -1       163   10    0    1
 -2       575       572       536       573       715       716       717       718
 -1       164   10    0    1
 -2       574       575       573       539       712       718       719       720
 -1       165   10    0    1
 -2       542       543       578       577       643       721       722       723
 -1       166   10    0    1
 -2       543       541       576       578       639       724       725       721
 -1       167   10    0    1
 -2       578       576       539       573       725       726       719       727
 -1       168   10    0    1
 -2       577       578       573       536       722       727       717       728
 -1       169   10    0    1
 -2       151       579       581       152       729       730       731       163
 -1       170   10    0    1
 -2       579       519       558       581       732       679       733       730
 -1       171   10    0    1
 -2       581       558       528       580       733       677       734       735
 -1       172   10    0    1
 -2       152       581       580       153       731       735       736       164
 -1       173   10    0    1
 -2       529       582       585       584       737       738       739       740
 -1       174   10    0    1
 -2       582        42        43       585       741        54       742       738
 -1       175   10    0    1
 -2       585        43        44       583       742        55       743       744
 -1       176   10    0    1
 -2       584       585       583       522       739       744       745       746
 -1       177   10    0    1
 -2       531       569       588       587       709       747       748       749
 -1       178   10    0    1
 -2       569       524       586       588       707       750       751       747
 -1       179   10    0    1
 -2       588       586       528       557       751       752       676       753
 -1       180   10    0    1
 -2       587       588       557       538       748       753       673       754
 -1       181   10    0    1
 -2       542       589       591       544       755       756       757       644
 -1       182   10    0    1
 -2       589       522       590       591       758       759       760       756
 -1       183   10    0    1
 -2       591       590       527       553       760       761       668       762
 -1       184   10    0    1
 -2       544       591       553       540       757       762       666       646
 -1       185   10    0    1
 -2       538       548       594       587       654       763       764       754
 -1       186   10    0    1
 -2       548       535       592       594       651       765       766       763
 -1       187   10    0    1
 -2       594       592       520       593       766       767       768       769
 -1       188   10    0    1
 -2       587       594       593       531       764       769       770       749
 -1       189   10    0    1
 -2        69       570       596        68       703       771       772        80
 -1       190   10    0    1
 -2       570       531       593       596       710       770       773       771
 -1       191   10    0    1
 -2       596       593       520       595       773       768       774       775
 -1       192   10    0    1
 -2        68       596       595        67       772       775       776        79
 -1       193   10    0    1
 -2        48        49       599       598        60       777       778       779
 -1       194   10    0    1
 -2        49         5        62       599        61        73       780       777
 -1       195   10    0    1
 -2       599        62        63       597       780        74       781       782
 -1       196   10    0    1
 -2       598       599       597       523       778       782       783       784
 -1       197   10    0    1
 -2       522       589       601       584       758       785       786       746
 -1       198   10    0    1
 -2       589       542       577       601       755       723       787       785
 -1       199   10    0    1
 -2       601       577       536       600       787       728       788       789
 -1       200   10    0    1
 -2       584       601       600       529       786       789       790       740
 -1       201   10    0    1
 -2       523       554       603       598       671       791       792       784
 -1       202   10    0    1
 -2       554       527       602       603       669       793       794       791
 -1       203   10    0    1
 -2       603       602        46        47       794       795        58       796
 -1       204   10    0    1
 -2       598       603        47        48       792       796        59       779
 -1       205   10    0    1
 -2       520       604       606       595       797       798       799       774
 -1       206   10    0    1
 -2       604       534       605       606       800       801       802       798
 -1       207   10    0    1
 -2       606       605        65        66       802       803        77       804
 -1       208   10    0    1
 -2       595       606        66        67       799       804        78       776
 -1       209   10    0    1
 -2        63        64       607       597        75       805       806       781
 -1       210   10    0    1
 -2        64        65       605       607        76       803       807       805
 -1       211   10    0    1
 -2       607       605       534       555       807       801       664       808
 -1       212   10    0    1
 -2       597       607       555       523       806       808       672       783
 -1       213   10    0    1
 -2       524       608       609       586       809       810       811       750
 -1       214   10    0    1
 -2       608       155       154       609       812       166       813       810
 -1       215   10    0    1
 -2       609       154       153       580       813       165       736       814
 -1       216   10    0    1
 -2       586       609       580       528       811       814       734       752
 -1       217   10    0    1
 -2       540       552       610       545       665       815       816       647
 -1       218   10    0    1
 -2       552       534       604       610       661       800       817       815
 -1       219   10    0    1
 -2       610       604       520       592       817       797       767       818
 -1       220   10    0    1
 -2       545       610       592       535       816       818       765       649
 -1       221   10    0    1
 -2       132       133       612       563       144       819       820       692
 -1       222   10    0    1
 -2       133         4        39       612       145        50       821       819
 -1       223   10    0    1
 -2       612        39        40       611       821        51       822       823
 -1       224   10    0    1
 -2       563       612       611       525       820       823       824       686
 -1       225   10    0    1
 -2       147       146       615       614       158       825       826       827
 -1       226   10    0    1
 -2       146         8       123       615       157       134       828       825
 -1       227   10    0    1
 -2       615       123       124       613       828       135       829       830
 -1       228   10    0    1
 -2       614       615       613       526       826       830       831       832
 -1       229   10    0    1
 -2       526       613       618       617       831       833       834       835
 -1       230   10    0    1
 -2       613       124       125       618       829       136       836       833
 -1       231   10    0    1
 -2       618       125       126       616       836       137       837       838
 -1       232   10    0    1
 -2       617       618       616       521       834       838       839       840
 -1       233   10    0    1
 -2        44        45       619       583        56       841       842       743
 -1       234   10    0    1
 -2        45        46       602       619        57       795       843       841
 -1       235   10    0    1
 -2       619       602       527       590       843       793       761       844
 -1       236   10    0    1
 -2       583       619       590       522       842       844       759       745
 -1       237   10    0    1
 -2       541       550       622       576       660       845       846       724
 -1       238   10    0    1
 -2       550       537       620       622       658       847       848       845
 -1       239   10    0    1
 -2       622       620       532       621       848       849       850       851
 -1       240   10    0    1
 -2       576       622       621       539       846       851       852       726
 -1       241   10    0    1
 -2        71        72       623       568        83       853       854       704
 -1       242   10    0    1
 -2        72         6       156       623        84       168       855       853
 -1       243   10    0    1
 -2       623       156       155       608       855       167       812       856
 -1       244   10    0    1
 -2       568       623       608       524       854       856       809       706
 -1       245   10    0    1
 -2       519       624       626       559       857       858       859       680
 -1       246   10    0    1
 -2       624       533       625       626       860       861       862       858
 -1       247   10    0    1
 -2       626       625       532       620       862       863       849       864
 -1       248   10    0    1
 -2       559       626       620       537       859       864       847       682
 -1       249   10    0    1
 -2       529       627       628       582       865       866       867       737
 -1       250   10    0    1
 -2       627       525       611       628       868       824       869       866
 -1       251   10    0    1
 -2       628       611        40        41       869       822        52       870
 -1       252   10    0    1
 -2       582       628        41        42       867       870        53       741
 -1       253   10    0    1
 -2       521       629       631       617       871       872       873       840
 -1       254   10    0    1
 -2       629       532       625       631       874       863       875       872
 -1       255   10    0    1
 -2       631       625       533       630       875       861       876       877
 -1       256   10    0    1
 -2       617       631       630       526       873       877       878       835
 -1       257   10    0    1
 -2       149       148       633       632       160       879       880       881
 -1       258   10    0    1
 -2       148       147       614       633       159       827       882       879
 -1       259   10    0    1
 -2       633       614       526       630       882       832       878       883
 -1       260   10    0    1
 -2       632       633       630       533       880       883       876       884
 -1       261   10    0    1
 -2       521       616       635       634       839       885       886       887
 -1       262   10    0    1
 -2       616       126       127       635       837       138       888       885
 -1       263   10    0    1
 -2       635       127       128       566       888       139       700       889
 -1       264   10    0    1
 -2       634       635       566       530       886       889       698       890
 -1       265   10    0    1
 -2       533       624       636       632       860       891       892       884
 -1       266   10    0    1
 -2       624       519       579       636       857       732       893       891
 -1       267   10    0    1
 -2       636       579       151       150       893       729       162       894
 -1       268   10    0    1
 -2       632       636       150       149       892       894       161       881
 -1       269   10    0    1
 -2       530       574       637       634       713       895       896       890
 -1       270   10    0    1
 -2       574       539       621       637       720       852       897       895
 -1       271   10    0    1
 -2       637       621       532       629       897       850       874       898
 -1       272   10    0    1
 -2       634       637       629       521       896       898       871       887
 -1       273   10    0    1
 -2       525       627       638       561       868       899       900       683
 -1       274   10    0    1
 -2       627       529       600       638       865       790       901       899
 -1       275   10    0    1
 -2       638       600       536       572       901       788       716       902
 -1       276   10    0    1
 -2       561       638       572       518       900       902       714       687
 -3
    1PSTEP                         1           1           1          
  100CL  101 1.000000000         901                     0    1           1
 -4  DISP        4    1
 -5  D1          1    2    1    0
 -5  D2          1    2    2    0
 -5  D3          1    2    3    0
 -5  ALL         1    2    0    0    1ALL
 -1         1 0.00000E+00-4.30248E-03-1.78893E-18
 -1         3 8.95155E-03 0.00000E+00-6.53909E-19
 -1         4 1.41529E-02 0.00000E+00 1.11131E-18
 -1         5 1.33035E-02-9.58439E-04 2.16840E-19
 -1         6 7.11174E-03-1.52738E-03-2.16840E-19
 -1         7 0.00000E+00-5.36732E-03-4.06576E-19
 -1         8 9.89121E-03 0.00000E+00 4.74338E-19
 -1         9 1.82479E-03-4.18377E-03-5.42101E-19
 -1        10 3.55514E-03-3.84448E-03-1.35525E-19
 -1        11 5.11713E-03-3.34021E-03-2.16840E-19
 -1        12 6.45832E-03-2.73385E-03 8.67362E-19
 -1        13 7.52401E-03-2.07314E-03 1.24683E-18
 -1        14 8.32008E-03-1.39081E-03 6.77626E-19
 -1        15 8.79043E-03-6.98225E-04 3.08320E-19
 -1        16 9.15707E-04-4.27594E-03-2.81893E-18
 -1        17 2.70262E-03-4.03894E-03-5.42101E-19
 -1        18 4.35662E-03-3.60639E-03-2.16840E-19
 -1        19 5.81638E-03-3.04568E-03 9.21572E-19
 -1        20 7.02570E-03-2.40505E-03 3.19840E-18
 -1        21 7.95252E-03-1.73151E-03 2.95445E-18
 -1        22 8.59256E-03-1.04615E-03 1.46791E-18
 -1        23 8.91270E-03-3.48769E-04-5.62430E-19
 -1        24 9.09398E-03 0.00000E+00-3.20178E-19
 -1        25 9.16195E-03 0.00000E+00-1.63901E-19
 -1        26 9.22352E-03 0.00000E+00 1.28749E-19
 -1        27 9.30405E-03 0.00000E+00 3.04932E-19
 -1        28 9.41108E-03 0.00000E+00-2.71051E-20
 -1        29 9.54572E-03 0.00000E+00 1.28749E-19
 -1        30 9.70650E-03 0.00000E+00-4.06576E-20
 -1        31 9.04026E-03 0.00000E+00-1.45690E-18
 -1        32 9.13194E-03 0.00000E+00-6.57298E-19
 -1        33 9.19140E-03 0.00000E+00-1.01644E-19
 -1        34 9.26068E-03 0.00000E+00 7.18284E-19
 -1        35 9.35407E-03 0.00000E+00 4.20128E-19
 -1        36 9.47498E-03 0.00000E+00 5.42101E-20
 -1        37 9.62294E-03 0.00000E+00 1.89735E-19
 -1        38 9.79599E-03 0.00000E+00 6.23416E-19
 -1        39 1.41412E-02-1.98509E-05-3.52366E-19
 -1        40 1.41068E-02-4.39116E-05-5.96311E-19
 -1        41 1.40515E-02-7.61207E-05-6.50521E-19
 -1        42 1.39787E-02-1.19883E-04-1.02999E-18
 -1        43 1.38925E-02-1.77834E-04-5.69206E-19
 -1        44 1.37977E-02-2.51621E-04-8.13152E-19
 -1        45 1.36998E-02-3.41727E-04-1.35525E-19
 -1        46 1.36039E-02-4.47311E-04-5.96311E-19
 -1        47 1.35147E-02-5.66084E-04 1.89735E-19
 -1        48 1.34355E-02-6.94269E-04-8.13152E-20
 -1        49 1.33666E-02-8.26715E-04-9.48677E-19
 -1        50 1.41500E-02-9.66354E-06 1.19262E-18
 -1        51 1.41268E-02-3.11128E-05-1.46367E-18
 -1        52 1.40816E-02-5.87910E-05-1.78893E-18
 -1        53 1.40171E-02-9.64014E-05-2.54788E-18
 -1        54 1.39370E-02-1.46992E-04-2.38524E-18
 -1        55 1.38458E-02-2.12728E-04-2.54788E-18
 -1        56 1.37488E-02-2.94697E-04-1.68051E-18
 -1        57 1.36513E-02-3.92734E-04-1.19262E-18
 -1        58 1.35582E-02-5.05287E-04-8.67362E-19
 -1        59 1.34737E-02-6.29311E-04 1.62630E-19
 -1        60 1.33998E-02-7.60274E-04-1.78893E-18
 -1        61 1.33348E-02-8.92723E-04-1.24683E-18
 -1        62 1.28620E-02-1.02079E-03-7.04731E-19
 -1        63 1.24213E-02-1.07727E-03-1.00289E-18
 -1        64 1.19764E-02-1.12313E-03-1.70762E-18
 -1        65 1.15219E-02-1.15803E-03-1.35525E-18
 -1        66 1.10533E-02-1.18411E-03-8.40257E-19
 -1        67 1.05667E-02-1.20488E-03-1.78893E-18
 -1        68 1.00586E-02-1.22483E-03-1.13841E-18
 -1        69 9.52616E-03-1.24928E-03 2.98156E-19
 -1        70 8.96676E-03-1.28438E-03-1.89735E-19
 -1        71 8.37845E-03-1.33712E-03-6.50521E-19
 -1        72 7.76008E-03-1.41528E-03-1.46367E-18
 -1        73 1.30826E-02-9.89797E-04-7.58942E-19
 -1        74 1.26419E-02-1.05024E-03-2.43945E-18
 -1        75 1.21997E-02-1.10167E-03-4.06576E-18
 -1        76 1.17506E-02-1.14189E-03-4.55365E-18
 -1        77 1.12896E-02-1.17201E-03-3.30682E-18
 -1        78 1.08124E-02-1.19492E-03-3.74050E-18
 -1        79 1.03155E-02-1.21466E-03-4.17418E-18
 -1        80 9.79558E-03-1.23615E-03-1.19262E-18
 -1        81 9.24994E-03-1.26510E-03 0.00000E+00
 -1        82 8.67627E-03-1.30809E-03-1.40946E-18
 -1        83 8.07300E-03-1.37250E-03-3.30682E-18
 -1        84 7.43952E-03-1.46653E-03-2.43945E-18
 -1        85 6.43531E-03-1.68227E-03 7.04731E-19
 -1        86 5.73510E-03-1.88845E-03-1.08420E-19
 -1        87 5.01847E-03-2.15298E-03-2.43945E-19
 -1        88 4.29640E-03-2.47980E-03 9.48677E-19
 -1        89 3.58344E-03-2.86752E-03 3.52366E-19
 -1        90 2.89708E-03-3.30708E-03-4.87891E-19
 -1        91 2.25576E-03-3.77939E-03 8.40257E-19
 -1        92 1.67574E-03-4.25457E-03 8.67362E-19
 -1        93 1.16699E-03-4.69314E-03 1.51788E-18
 -1        94 7.28943E-04-5.05062E-03 3.79471E-19
 -1        95 3.48329E-04-5.28536E-03-5.96311E-19
 -1        96 6.77676E-03-1.59889E-03 5.42101E-19
 -1        97 6.08770E-03-1.77840E-03 7.58942E-19
 -1        98 5.37813E-03-2.01299E-03-5.42101E-19
 -1        99 4.65718E-03-2.30842E-03 8.67362E-19
 -1       100 3.93771E-03-2.66628E-03 1.95156E-18
 -1       101 3.23583E-03-3.08163E-03-1.08420E-19
 -1       102 2.56988E-03-3.54065E-03 7.58942E-19
 -1       103 1.95756E-03-4.01886E-03 2.49366E-18
 -1       104 1.41255E-03-4.48120E-03 3.57787E-18
 -1       105 9.39968E-04-4.88491E-03 2.65630E-18
 -1       106 5.32968E-04-5.18579E-03-5.42101E-19
 -1       107 1.72058E-04-5.34687E-03-1.57209E-18
 -1       108 0.00000E+00-5.28983E-03-4.06576E-19
 -1       109 0.00000E+00-5.19335E-03 2.43945E-19
 -1       110 0.00000E+00-5.09505E-03-7.31836E-19
 -1       111 0.00000E+00-5.00216E-03-4.87891E-19
 -1       112 0.00000E+00-4.91184E-03-1.54499E-18
 -1       113 0.00000E+00-4.80768E-03 5.42101E-20
 -1       114 0.00000E+00-4.64441E-03-3.25261E-19
 -1       115 0.00000E+00-5.33256E-03-1.24683E-18
 -1       116 0.00000E+00-5.24263E-03-2.16840E-19
 -1       117 0.00000E+00-5.14371E-03-4.33681E-19
 -1       118 0.00000E+00-5.04771E-03-1.84314E-18
 -1       119 0.00000E+00-4.95717E-03-2.92735E-18
 -1       120 0.00000E+00-4.86339E-03-2.49366E-18
 -1       121 0.00000E+00-4.73916E-03-5.42101E-19
 -1       122 0.00000E+00-4.51107E-03-2.92735E-18
 -1       123 1.01439E-02 0.00000E+00 6.50521E-19
 -1       124 1.04245E-02 0.00000E+00 9.48677E-19
 -1       125 1.07297E-02 0.00000E+00 4.87891E-19
 -1       126 1.10568E-02 0.00000E+00 3.38813E-19
 -1       127 1.14031E-02 0.00000E+00 1.49078E-19
 -1       128 1.17662E-02 0.00000E+00-1.21973E-19
 -1       129 1.21439E-02 0.00000E+00 8.94467E-19
 -1       130 1.25338E-02 0.00000E+00-1.89735E-19
 -1       131 1.29332E-02 0.00000E+00 6.50521E-19
 -1       132 1.33390E-02 0.00000E+00 4.87891E-19
 -1       133 1.37474E-02 0.00000E+00 6.23416E-19
 -1       134 1.00138E-02 0.00000E+00 1.89735E-18
 -1       135 1.02808E-02 0.00000E+00 2.49366E-18
 -1       136 1.05742E-02 0.00000E+00 2.38524E-18
 -1       137 1.08907E-02 0.00000E+00 1.35525E-18
 -1       138 1.12277E-02 0.00000E+00 9.21572E-19
 -1       139 1.15827E-02 0.00000E+00 5.42101E-20
 -1       140 1.19534E-02 0.00000E+00 9.21572E-19
 -1       141 1.23375E-02 0.00000E+00 8.67362E-19
 -1       142 1.27325E-02 0.00000E+00 4.33681E-19
 -1       143 1.31355E-02 0.00000E+00 1.68051E-18
 -1       144 1.35432E-02 0.00000E+00 1.68051E-18
 -1       145 1.39509E-02 0.00000E+00 2.49366E-18
 -1       146 9.84585E-03-3.34422E-05 9.35124E-19
 -1       147 9.71423E-03-7.72394E-05 6.77626E-19
 -1       148 9.50872E-03-1.39710E-04 5.42101E-20
 -1       149 9.24713E-03-2.25736E-04 3.25261E-19
 -1       150 8.94948E-03-3.36330E-04-3.11708E-19
 -1       151 8.63496E-03-4.69213E-04 6.77626E-19
 -1       152 8.31995E-03-6.20082E-04-2.71051E-19
 -1       153 8.01728E-03-7.84114E-04-4.60786E-19
 -1       154 7.73664E-03-9.57392E-04-7.31836E-19
 -1       155 7.48604E-03-1.13800E-03-5.96311E-19
 -1       156 7.27391E-03-1.32672E-03-4.60786E-19
 -1       157 9.87977E-03-1.60523E-05 2.00577E-18
 -1       158 9.79019E-03-5.34696E-05 2.43945E-18
 -1       159 9.61967E-03-1.05762E-04 1.02999E-18
 -1       160 9.38370E-03-1.79645E-04 4.33681E-19
 -1       161 9.10158E-03-2.78054E-04-1.08420E-19
 -1       162 8.79325E-03-4.00230E-04 4.87891E-19
 -1       163 8.47665E-03-5.42703E-04 3.25261E-19
 -1       164 8.16642E-03-7.00719E-04-1.30104E-18
 -1       165 7.87369E-03-8.69753E-04-1.62630E-18
 -1       166 7.60709E-03-1.04678E-03-2.00577E-18
 -1       167 7.37454E-03-1.23116E-03-1.68051E-18
 -1       168 7.18563E-03-1.42520E-03-9.75782E-19
 -1       169 3.58709E-03-2.95334E-03 2.16840E-19
 -1       170 6.34115E-03-1.39308E-03 2.71051E-20
 -1       171 8.64099E-03-2.84249E-04 3.25261E-19
 -1       172 6.27297E-03-1.46185E-03-4.60786E-19
 -1       173 8.68168E-03-3.58412E-04 6.74238E-19
 -1       174 9.29724E-03-8.99665E-05 7.58942E-19
 -1       175 1.10038E-03-4.83152E-03-7.58942E-19
 -1       176 1.26277E-03-4.54579E-03 9.48677E-19
 -1       177 7.78869E-03-6.16891E-04-1.35525E-20
 -1       178 3.46967E-03-3.28848E-03-1.35525E-19
 -1       179 8.13506E-03-4.18817E-04-1.08420E-19
 -1       180 2.27141E-03-3.98404E-03-4.33681E-19
 -1       181 6.96136E-03-1.03477E-03 5.14996E-19
 -1       182 4.96578E-03-2.05191E-03-1.89735E-19
 -1       183 8.97828E-03-1.47057E-04 2.64274E-19
 -1       184 1.59184E-03-4.43834E-03-1.62630E-19
 -1       185 7.88422E-03-6.01214E-04 1.08420E-19
 -1       186 5.24976E-03-2.39643E-03 5.14996E-19
 -1       187 6.95781E-03-9.01262E-04-4.60786E-19
 -1       188 4.16170E-03-2.57882E-03 2.16840E-19
 -1       189 5.78753E-03-1.52814E-03-4.06576E-19
 -1       190 2.61160E-03-3.73653E-03-1.89735E-18
 -1       191 3.84592E-03-2.78567E-03 8.40257E-19
 -1       192 2.91980E-03-3.46567E-03-1.08420E-19
 -1       193 2.43923E-03-3.86592E-03-1.54499E-18
 -1       194 3.36230E-03-3.16573E-03 7.58942E-19
 -1       195 3.13009E-03-3.32746E-03-2.16840E-19
 -1       196 9.00736E-03-1.70109E-04 5.42101E-19
 -1       197 8.38364E-03-3.36111E-04 2.71051E-19
 -1       198 8.60449E-03-2.62763E-04-2.98156E-19
 -1       199 9.12722E-03-1.09996E-04 7.38613E-19
 -1       200 8.79805E-03-2.04175E-04 1.62630E-19
 -1       201 7.61567E-04-4.84266E-03 2.98156E-19
 -1       202 1.32457E-03-4.64279E-03-6.50521E-19
 -1       203 5.38462E-04-5.09603E-03 1.89735E-19
 -1       204 6.42438E-04-4.96872E-03-9.75782E-19
 -1       205 9.03715E-03-1.74587E-04 1.14349E-19
 -1       206 8.48775E-03-6.87194E-04 6.47133E-19
 -1       207 8.93849E-03-3.37986E-04 1.99900E-19
 -1       208 9.45863E-04-4.95087E-03-1.08420E-19
 -1       209 4.60024E-04-5.20043E-03-8.67362E-19
 -1       210 2.11420E-03-4.10535E-03-9.21572E-19
 -1       211 1.67183E-03-4.44879E-03 2.16840E-19
 -1       212 1.88310E-03-4.28428E-03-6.23416E-19
 -1       213 2.01649E-03-4.12722E-03 1.30104E-18
 -1       214 1.46016E-03-4.58011E-03 5.14996E-19
 -1       215 9.21831E-03-6.45311E-05 1.82959E-19
 -1       216 8.82532E-03-2.22071E-04 1.49078E-19
 -1       217 9.11952E-03-1.01903E-04 1.69407E-19
 -1       218 6.62938E-03-1.09427E-03-1.08420E-19
 -1       219 7.16940E-03-9.52699E-04 8.13152E-20
 -1       220 8.00190E-03-4.93541E-04-1.89735E-19
 -1       221 7.55758E-03-6.38353E-04-6.09864E-19
 -1       222 7.34842E-03-7.62399E-04-4.74338E-19
 -1       223 5.13934E-03-1.98241E-03 5.14996E-19
 -1       224 3.80079E-03-2.90462E-03 4.06576E-19
 -1       225 4.31945E-03-2.84300E-03 6.50521E-19
 -1       226 5.81444E-03-1.84904E-03 3.25261E-19
 -1       227 4.72514E-03-2.37314E-03 2.16840E-19
 -1       228 3.40315E-03-3.59124E-03-3.25261E-19
 -1       229 5.75552E-03-2.49361E-03 1.08420E-19
 -1       230 4.57488E-03-3.04215E-03 6.50521E-19
 -1       231 2.11340E-03-4.21115E-03 4.87891E-19
 -1       232 6.16907E-04-4.73188E-03-4.33681E-19
 -1       233 1.03949E-03-4.52235E-03 3.79471E-19
 -1       234 9.49558E-03-7.99993E-05 4.20128E-19
 -1       235 8.94112E-03-2.45911E-04 4.87891E-19
 -1       236 9.25102E-03-1.48834E-04 3.25261E-19
 -1       237 6.38882E-03-1.24454E-03 3.25261E-19
 -1       238 6.34537E-03-1.21030E-03-5.42101E-20
 -1       239 7.38004E-03-7.33438E-04-9.48677E-20
 -1       240 7.36315E-03-8.20463E-04 3.25261E-19
 -1       241 6.86697E-03-9.83784E-04 1.35525E-19
 -1       242 8.21739E-03-5.26346E-04-4.33681E-19
 -1       243 7.49865E-03-8.85559E-04 2.43945E-19
 -1       244 7.84980E-03-6.99753E-04-2.98156E-19
 -1       245 6.88832E-03-1.27299E-03-6.77626E-19
 -1       246 6.60079E-03-1.24919E-03 4.33681E-19
 -1       247 7.17789E-03-1.07740E-03 2.71051E-20
 -1       248 5.98763E-03-1.67022E-03-4.06576E-19
 -1       249 6.63993E-03-1.47184E-03-5.14996E-19
 -1       250 8.22323E-03-4.35435E-04-2.71051E-20
 -1       251 8.58806E-03-3.73161E-04 1.62630E-19
 -1       252 4.63307E-03-2.26524E-03 2.98156E-19
 -1       253 5.62631E-03-1.72017E-03-4.33681E-19
 -1       254 5.31368E-03-1.93340E-03-5.69206E-19
 -1       255 5.00246E-03-1.99054E-03 4.60786E-19
 -1       256 5.35451E-03-1.80060E-03 2.16840E-19
 -1       257 4.27801E-03-2.46960E-03 7.58942E-19
 -1       258 4.61338E-03-2.24771E-03 4.60786E-19
 -1       259 5.98880E-03-1.48754E-03 0.00000E+00
 -1       260 3.27040E-03-3.13484E-03 3.79471E-19
 -1       261 2.62611E-03-3.62909E-03 2.71051E-20
 -1       262 3.94571E-03-2.67066E-03 3.25261E-19
 -1       263 7.89162E-03-5.16488E-04-2.71051E-19
 -1       264 7.29798E-03-1.29801E-03 1.28749E-18
 -1       265 8.31056E-03-4.74547E-04 5.96311E-19
 -1       266 7.85155E-03-8.07971E-04 3.11708E-19
 -1       267 5.76046E-03-1.53674E-03 1.35525E-19
 -1       268 1.43094E-03-4.50429E-03-7.04731E-19
 -1       269 2.41587E-03-3.92248E-03-3.25261E-19
 -1       270 2.24823E-03-4.09143E-03 2.43945E-19
 -1       271 9.47900E-03-3.77416E-05 1.35525E-20
 -1       272 9.65063E-03-3.39096E-05 6.77626E-19
 -1       273 9.33564E-03-4.67031E-05 2.10064E-19
 -1       274 6.91301E-04-4.79670E-03-7.58942E-19
 -1       275 6.57852E-03-1.85150E-03 1.02999E-18
 -1       276 8.45109E-03-3.44649E-04-2.64274E-19
 -1       277 2.90129E-03-3.53876E-03-5.96311E-19
 -1       278 3.99169E-03-2.68738E-03 1.51788E-18
 -1       279 3.48622E-03-3.05445E-03 1.08420E-18
 -1       280 3.24037E-03-3.24952E-03 3.25261E-19
 -1       281 3.75754E-03-2.87177E-03 1.62630E-18
 -1       282 3.71443E-03-2.87415E-03 1.51788E-18
 -1       283 3.25187E-03-3.20638E-03 3.25261E-19
 -1       284 3.02533E-03-3.39931E-03-4.33681E-19
 -1       285 2.59270E-03-3.72663E-03-7.58942E-19
 -1       286 2.35614E-03-3.92632E-03-3.03577E-18
 -1       287 2.78077E-03-3.59939E-03-2.60209E-18
 -1       288 2.52344E-03-3.80263E-03-4.98733E-18
 -1       289 2.97963E-03-3.45587E-03-1.73472E-18
 -1       290 9.16366E-03-1.26087E-04 1.95156E-18
 -1       291 8.90073E-03-1.84734E-04 1.16552E-18
 -1       292 8.97536E-03-1.52669E-04 1.30104E-18
 -1       293 9.20961E-03-9.83528E-05 2.16840E-18
 -1       294 8.83185E-03-2.22754E-04 1.19262E-18
 -1       295 8.51117E-03-3.07042E-04 9.75782E-19
 -1       296 8.59927E-03-2.65219E-04 5.96311E-19
 -1       297 8.25823E-03-3.72752E-04 1.08420E-19
 -1       298 8.37924E-03-3.35527E-04-4.87891E-19
 -1       299 8.69927E-03-2.29608E-04-2.16840E-19
 -1       300 8.80576E-03-2.00121E-04-5.42101E-20
 -1       301 9.05008E-03-1.25775E-04 1.43657E-18
 -1       302 3.16888E-04-5.05804E-03-2.49366E-18
 -1       303 5.90108E-04-5.03221E-03-1.73472E-18
 -1       304 2.66987E-04-5.16672E-03 4.33681E-19
 -1       305 3.72662E-04-4.95420E-03-6.50521E-19
 -1       306 6.98458E-04-4.90557E-03-1.08420E-18
 -1       307 1.16820E-03-4.66878E-03 2.16840E-19
 -1       308 1.44875E-03-4.54302E-03-1.30104E-18
 -1       309 9.78317E-04-4.82856E-03-2.27682E-18
 -1       310 1.21110E-03-4.73875E-03-1.73472E-18
 -1       311 8.15946E-04-4.98291E-03-9.75782E-19
 -1       312 9.12954E-03-8.59442E-05-1.16044E-19
 -1       313 8.99082E-03-2.40537E-04 4.37069E-19
 -1       314 9.05357E-03-1.68891E-04-2.10064E-19
 -1       315 8.88602E-03-2.64633E-04 1.25361E-18
 -1       316 8.58497E-03-4.92388E-04 1.96512E-18
 -1       317 8.74970E-03-5.13943E-04 1.29681E-18
 -1       318 8.39511E-03-9.74226E-04 2.01255E-18
 -1       319 8.87675E-03-4.81679E-04 8.06375E-19
 -1       320 2.27846E-04-5.26630E-03-1.84314E-18
 -1       321 4.09860E-04-5.24693E-03-2.27682E-18
 -1       322 5.02061E-04-5.14935E-03-8.67362E-19
 -1       323 1.02832E-03-4.89265E-03-1.08420E-18
 -1       324 6.98806E-04-5.09402E-03-1.51788E-18
 -1       325 8.48238E-04-5.00441E-03 4.87891E-19
 -1       326 1.85676E-03-4.27851E-03-1.51788E-18
 -1       327 1.99353E-03-4.19676E-03-2.60209E-18
 -1       328 1.60431E-03-4.47373E-03-1.95156E-18
 -1       329 2.36573E-03-3.92313E-03-4.55365E-18
 -1       330 2.16148E-03-4.08016E-03-3.03577E-18
 -1       331 1.96830E-03-4.22375E-03-1.08420E-19
 -1       332 1.77770E-03-4.36828E-03-9.75782E-19
 -1       333 1.38263E-03-4.65333E-03-6.50521E-19
 -1       334 2.15096E-03-4.05782E-03 1.40946E-18
 -1       335 1.73314E-03-4.36104E-03 2.71051E-18
 -1       336 1.57275E-03-4.51631E-03 9.75782E-19
 -1       337 1.86100E-03-4.19266E-03 3.14419E-18
 -1       338 1.32774E-03-4.63945E-03 2.87314E-18
 -1       339 1.19809E-03-4.77854E-03 6.50521E-19
 -1       340 9.07711E-03-1.32059E-04 4.06576E-19
 -1       341 8.99456E-03-1.58853E-04 4.60786E-19
 -1       342 8.75261E-03-2.79832E-04 1.19262E-18
 -1       343 9.19643E-03-4.94428E-05 3.86247E-19
 -1       344 9.28126E-03-3.09359E-05 7.58942E-19
 -1       345 9.16623E-03-8.01409E-05 6.09864E-19
 -1       346 9.11631E-03-1.02613E-04 7.86047E-19
 -1       347 8.90037E-03-1.79068E-04 5.42101E-19
 -1       348 6.79037E-03-9.87762E-04-8.13152E-19
 -1       349 6.99359E-03-9.20923E-04-7.58942E-19
 -1       350 7.44965E-03-6.94084E-04-1.62630E-18
 -1       351 7.25776E-03-7.65211E-04-1.68051E-18
 -1       352 6.47805E-03-1.22685E-03 0.00000E+00
 -1       353 6.76917E-03-1.16313E-03 1.62630E-19
 -1       354 7.25398E-03-8.47077E-04-5.96311E-19
 -1       355 7.54451E-03-7.65142E-04 3.25261E-19
 -1       356 7.94075E-03-5.42296E-04-1.35525E-19
 -1       357 7.68573E-03-6.19720E-04-9.75782E-19
 -1       358 8.06668E-03-4.52859E-04-4.33681E-19
 -1       359 7.85203E-03-5.22548E-04-1.00289E-18
 -1       360 5.71884E-03-1.68160E-03 9.21572E-19
 -1       361 4.93181E-03-2.16767E-03 1.13841E-18
 -1       362 5.25458E-03-2.10698E-03 9.21572E-19
 -1       363 6.08208E-03-1.60813E-03 5.96311E-19
 -1       364 4.62015E-03-2.28447E-03 9.21572E-19
 -1       365 3.97947E-03-2.73457E-03 9.75782E-19
 -1       366 4.23863E-03-2.64095E-03 7.04731E-19
 -1       367 3.62946E-03-3.08938E-03 3.25261E-19
 -1       368 3.88028E-03-3.06703E-03 8.67362E-19
 -1       369 4.52009E-03-2.59887E-03 1.35525E-18
 -1       370 4.77840E-03-2.61772E-03 1.62630E-18
 -1       371 5.53644E-03-2.11292E-03 1.24683E-18
 -1       372 3.41757E-03-3.43810E-03-6.50521E-19
 -1       373 3.98652E-03-3.31977E-03 4.33681E-19
 -1       374 4.41932E-03-2.93277E-03 1.73472E-18
 -1       375 3.44438E-03-3.73655E-03-4.33681E-19
 -1       376 4.79593E-03-3.17417E-03 3.25261E-19
 -1       377 6.07931E-03-2.58837E-03 1.46367E-18
 -1       378 5.17655E-03-2.76888E-03 1.24683E-18
 -1       379 5.48082E-03-2.43222E-03 9.21572E-19
 -1       380 2.74499E-03-4.02028E-03 0.00000E+00
 -1       381 1.57418E-03-4.38516E-03 1.40946E-18
 -1       382 1.36272E-03-4.37273E-03-2.16840E-19
 -1       383 1.63483E-03-4.38994E-03 2.16840E-18
 -1       384 9.36669E-04-4.65214E-03 5.42101E-19
 -1       385 7.97735E-04-4.64000E-03-2.16840E-19
 -1       386 3.03965E-04-4.78370E-03-2.16840E-19
 -1       387 5.13345E-04-4.60597E-03-4.33681E-19
 -1       388 9.39375E-03-8.38845E-05 1.78893E-18
 -1       389 9.38290E-03-1.11154E-04 9.75782E-19
 -1       390 9.12742E-03-1.57647E-04 1.24683E-18
 -1       391 9.60243E-03-7.78956E-05 1.73472E-18
 -1       392 9.37809E-03-1.43028E-04 5.96311E-19
 -1       393 9.09327E-03-2.33920E-04 1.30104E-18
 -1       394 9.10270E-03-1.93697E-04 1.13841E-18
 -1       395 8.79045E-03-2.62402E-04 1.30104E-18
 -1       396 6.67835E-03-1.13113E-03 1.35525E-18
 -1       397 6.62301E-03-1.11370E-03 5.42101E-19
 -1       398 7.11785E-03-8.95013E-04 7.04731E-19
 -1       399 7.15876E-03-9.26830E-04 1.30104E-18
 -1       400 6.09223E-03-1.37641E-03-1.08420E-19
 -1       401 6.05928E-03-1.36928E-03-4.87891E-19
 -1       402 6.60991E-03-1.08828E-03 1.62630E-19
 -1       403 6.64597E-03-1.05341E-03-8.67362E-19
 -1       404 7.17100E-03-8.09989E-04-8.13152E-19
 -1       405 7.12001E-03-8.56398E-04-5.42101E-20
 -1       406 7.58577E-03-6.69591E-04-1.08420E-19
 -1       407 7.57371E-03-7.16729E-04 2.71051E-19
 -1       408 7.60894E-03-7.54344E-04 1.08420E-19
 -1       409 7.67156E-03-7.91498E-04-5.42101E-20
 -1       410 7.23264E-03-9.53536E-04 9.75782E-19
 -1       411 8.00481E-03-5.66859E-04-6.50521E-19
 -1       412 8.03229E-03-6.11061E-04-8.13152E-19
 -1       413 8.42726E-03-4.94138E-04 1.08420E-19
 -1       414 8.08664E-03-6.55382E-04-8.67362E-19
 -1       415 7.76005E-03-8.29504E-04-4.33681E-19
 -1       416 7.33465E-03-9.80912E-04 5.42101E-19
 -1       417 6.89176E-03-1.15618E-03 7.04731E-19
 -1       418 6.77692E-03-1.14207E-03 1.30104E-18
 -1       419 7.45945E-03-1.01156E-03-1.24683E-18
 -1       420 7.18942E-03-1.19938E-03-1.68051E-18
 -1       421 7.02895E-03-1.17470E-03-9.21572E-19
 -1       422 6.58276E-03-1.36007E-03-1.68051E-18
 -1       423 6.43290E-03-1.35569E-03 0.00000E+00
 -1       424 6.95939E-03-1.39321E-03-1.35525E-18
 -1       425 6.75925E-03-1.37146E-03-1.73472E-18
 -1       426 6.53138E-03-1.57500E-03 2.71051E-19
 -1       427 5.85686E-03-1.77721E-03-7.58942E-19
 -1       428 6.31576E-03-1.56382E-03-1.13841E-18
 -1       429 6.12639E-03-1.56553E-03-1.46367E-18
 -1       430 8.76896E-03-3.52019E-04-1.08420E-19
 -1       431 8.76819E-03-3.06004E-04 9.21572E-19
 -1       432 8.40360E-03-4.46876E-04-6.50521E-19
 -1       433 8.00644E-03-5.22905E-04-1.62630E-19
 -1       434 8.40636E-03-4.00614E-04 3.79471E-19
 -1       435 8.43599E-03-3.55632E-04 4.87891E-19
 -1       436 5.16407E-03-2.04118E-03-1.19262E-18
 -1       437 5.65190E-03-1.79349E-03-1.51788E-18
 -1       438 4.46629E-03-2.37085E-03 1.62630E-18
 -1       439 4.97362E-03-2.09061E-03-5.42101E-19
 -1       440 4.79869E-03-2.15968E-03 3.25261E-19
 -1       441 5.29753E-03-1.87662E-03-7.04731E-19
 -1       442 5.46741E-03-1.82699E-03-1.40946E-18
 -1       443 5.95154E-03-1.58218E-03-1.30104E-18
 -1       444 4.58943E-03-2.26969E-03 1.19262E-18
 -1       445 4.79793E-03-2.12375E-03 1.40946E-18
 -1       446 4.23230E-03-2.50666E-03 1.84314E-18
 -1       447 5.40213E-03-1.74327E-03-5.42101E-20
 -1       448 5.56395E-03-1.66692E-03-2.71051E-19
 -1       449 4.98737E-03-2.01216E-03 9.21572E-19
 -1       450 5.15617E-03-1.92882E-03 5.42101E-20
 -1       451 4.62279E-03-2.25172E-03 1.02999E-18
 -1       452 4.44186E-03-2.36284E-03 1.68051E-18
 -1       453 3.93230E-03-2.70435E-03 1.62630E-18
 -1       454 6.18349E-03-1.36720E-03 2.71051E-19
 -1       455 5.67457E-03-1.63432E-03 2.16840E-19
 -1       456 6.29749E-03-1.35951E-03 5.42101E-19
 -1       457 5.80359E-03-1.60506E-03-5.96311E-19
 -1       458 2.77897E-03-3.54980E-03-1.08420E-19
 -1       459 2.31645E-03-3.88011E-03 1.84314E-18
 -1       460 3.43281E-03-3.04644E-03 9.75782E-19
 -1       461 2.94467E-03-3.37926E-03 5.42101E-19
 -1       462 3.09393E-03-3.22070E-03 0.00000E+00
 -1       463 2.45438E-03-3.70498E-03 1.51788E-18
 -1       464 3.60580E-03-2.89647E-03 9.75782E-19
 -1       465 3.77036E-03-2.76804E-03 9.75782E-19
 -1       466 4.11345E-03-2.57199E-03 1.40946E-18
 -1       467 4.28861E-03-2.45981E-03 9.75782E-19
 -1       468 7.63618E-03-6.21033E-04-4.33681E-19
 -1       469 8.05755E-03-4.71676E-04-5.42101E-19
 -1       470 7.72505E-03-5.71367E-04-1.24683E-18
 -1       471 8.14228E-03-4.21197E-04 5.42101E-20
 -1       472 6.78629E-03-1.32376E-03 1.89735E-18
 -1       473 7.58732E-03-1.03591E-03 2.33103E-18
 -1       474 7.50573E-03-8.75368E-04 7.04731E-19
 -1       475 7.83924E-03-1.33103E-03 2.84603E-18
 -1       476 8.18674E-03-7.53338E-04 1.55854E-18
 -1       477 8.50515E-03-4.15612E-04 1.81604E-18
 -1       478 8.09253E-03-6.23563E-04 1.30104E-18
 -1       479 8.10197E-03-5.36128E-04 1.00289E-18
 -1       480 6.18407E-03-1.31163E-03 0.00000E+00
 -1       481 5.45531E-03-1.74291E-03 8.13152E-19
 -1       482 6.05768E-03-1.36009E-03-5.42101E-20
 -1       483 5.36668E-03-1.76468E-03 7.04731E-19
 -1       484 1.51245E-03-4.47295E-03-1.08420E-18
 -1       485 1.80246E-03-4.31181E-03-4.33681E-19
 -1       486 2.32857E-03-4.00899E-03-1.08420E-19
 -1       487 1.97726E-03-4.19751E-03-9.75782E-19
 -1       488 1.34850E-03-4.53006E-03 4.33681E-19
 -1       489 2.17934E-03-4.16255E-03 1.19262E-18
 -1       490 2.78153E-03-3.84895E-03-1.08420E-19
 -1       491 2.91524E-03-3.61768E-03-6.50521E-19
 -1       492 9.58478E-03-5.47509E-05 1.70762E-18
 -1       493 9.74541E-03-3.33450E-05 2.33103E-18
 -1       494 9.40168E-03-6.12504E-05 1.24683E-18
 -1       495 9.56170E-03-3.53088E-05 8.94467E-19
 -1       496 9.52728E-03-1.79037E-05 1.35525E-19
 -1       497 9.69146E-03-1.61626E-05 1.05710E-18
 -1       498 9.27368E-03-5.41583E-05 5.96311E-19
 -1       499 9.24705E-03-7.53958E-05 1.38236E-18
 -1       500 9.39065E-03-2.22071E-05 3.79471E-19
 -1       501 9.40409E-03-4.13943E-05 4.06576E-19
 -1       502 1.05566E-03-4.67144E-03-1.73472E-18
 -1       503 6.54701E-04-4.76828E-03-1.95156E-18
 -1       504 7.26972E-04-4.82067E-03-6.50521E-19
 -1       505 3.39214E-04-4.87702E-03-3.25261E-18
 -1       506 6.95308E-03-1.56563E-03 3.52366E-18
 -1       507 7.04279E-03-1.92598E-03 3.55076E-18
 -1       508 6.16679E-03-1.83017E-03 2.00577E-18
 -1       509 6.18326E-03-2.17033E-03 1.73472E-18
 -1       510 8.23320E-03-4.15498E-04-7.31836E-19
 -1       511 8.52624E-03-2.99068E-04-8.13152E-19
 -1       512 8.37905E-03-4.02145E-04 4.33681E-19
 -1       513 8.65008E-03-2.80446E-04-1.35525E-19
 -1       514 2.66311E-03-3.73129E-03-1.51788E-18
 -1       515 2.49327E-03-3.83300E-03-2.71051E-18
 -1       516 3.33924E-03-3.22732E-03-2.16840E-19
 -1       517 3.13498E-03-3.34941E-03 0.00000E+00
 -1       518 1.24757E-02-1.19717E-04 1.62630E-19
 -1       519 9.51207E-03-4.09869E-04-2.43945E-19
 -1       520 1.06919E-02-9.12064E-04 5.42101E-20
 -1       521 1.09666E-02-9.88763E-05-6.50521E-19
 -1       522 1.29449E-02-3.82759E-04-7.04731E-19
 -1       523 1.25489E-02-8.17679E-04 3.52366E-19
 -1       524 8.62538E-03-9.83948E-04-5.96311E-19
 -1       525 1.32877E-02-1.02899E-04 9.48677E-19
 -1       526 1.03014E-02-8.29077E-05 3.52366E-19
 -1       527 1.27311E-02-5.81188E-04-5.42101E-19
 -1       528 9.03406E-03-6.72139E-04-4.06576E-19
 -1       529 1.31455E-02-2.25523E-04-4.33681E-19
 -1       530 1.16963E-02-1.14358E-04 2.16840E-19
 -1       531 9.69100E-03-9.29135E-04 7.04731E-19
 -1       532 1.07187E-02-2.29063E-04 1.62630E-19
 -1       533 9.96810E-03-2.12044E-04 1.21973E-19
 -1       534 1.16401E-02-8.85923E-04-3.25261E-19
 -1       535 1.09366E-02-6.47984E-04 2.16840E-19
 -1       536 1.23149E-02-2.57669E-04-7.04731E-19
 -1       537 1.03719E-02-4.09887E-04 2.71051E-19
 -1       538 1.00023E-02-6.45379E-04 4.33681E-19
 -1       539 1.15026E-02-2.51251E-04-1.89735E-19
 -1       540 1.18447E-02-6.37651E-04-1.62630E-19
 -1       541 1.12292E-02-4.26839E-04 2.71051E-20
 -1       542 1.20876E-02-4.27888E-04-3.52366E-19
 -1       543 1.16583E-02-4.31206E-04-2.71051E-19
 -1       544 1.19647E-02-5.27671E-04-1.08420E-19
 -1       545 1.13936E-02-6.46669E-04 5.42101E-20
 -1       546 1.10812E-02-5.31657E-04 1.35525E-19
 -1       547 1.15244E-02-5.33560E-04-2.71051E-20
 -1       548 1.04731E-02-6.45921E-04 3.25261E-19
 -1       549 1.01849E-02-5.21037E-04 5.42101E-20
 -1       550 1.08004E-02-4.18448E-04-5.42101E-19
 -1       551 1.06349E-02-5.26005E-04-6.50521E-19
 -1       552 1.17344E-02-7.57447E-04-5.42101E-19
 -1       553 1.22903E-02-6.17042E-04-1.13841E-18
 -1       554 1.26338E-02-6.95259E-04-7.04731E-19
 -1       555 1.20985E-02-8.58504E-04-5.42101E-19
 -1       556 1.21875E-02-7.33543E-04-5.14996E-19
 -1       557 9.52316E-03-6.51965E-04-8.13152E-20
 -1       558 9.26985E-03-5.33874E-04-2.98156E-19
 -1       559 9.94287E-03-4.05413E-04 8.13152E-19
 -1       560 9.73046E-03-5.21748E-04-1.08420E-19
 -1       561 1.28790E-02-1.15052E-04-5.42101E-20
 -1       562 1.25191E-02-5.86642E-05-5.96311E-19
 -1       563 1.33260E-02-5.01568E-05 4.60786E-19
 -1       564 1.29194E-02-5.63455E-05 2.43945E-19
 -1       565 1.20808E-02-1.18952E-04-2.98156E-19
 -1       566 1.17485E-02-5.56849E-05 2.71051E-20
 -1       567 1.21279E-02-5.81724E-05-8.13152E-19
 -1       568 8.47497E-03-1.15538E-03-8.40257E-19
 -1       569 9.16694E-03-9.48345E-04 3.79471E-19
 -1       570 9.58407E-03-1.08562E-03 1.35525E-19
 -1       571 9.04074E-03-1.11196E-03 1.35525E-19
 -1       572 1.24064E-02-1.85398E-04 1.62630E-19
 -1       573 1.19057E-02-2.57726E-04-3.79471E-19
 -1       574 1.16127E-02-1.78774E-04-3.52366E-19
 -1       575 1.20052E-02-1.84771E-04 2.16840E-19
 -1       576 1.13723E-02-3.33555E-04 1.35525E-19
 -1       577 1.22066E-02-3.38116E-04 2.16840E-19
 -1       578 1.17879E-02-3.39481E-04 4.60786E-19
 -1       579 9.07723E-03-4.28900E-04 1.89735E-19
 -1       580 8.53298E-03-7.13347E-04-7.58942E-19
 -1       581 8.80078E-03-5.64068E-04-4.33681E-19
 -1       582 1.35631E-02-1.85008E-04-3.79471E-19
 -1       583 1.33720E-02-3.31399E-04-8.13152E-19
 -1       584 1.30499E-02-2.99183E-04-1.24683E-18
 -1       585 1.34720E-02-2.52251E-04-8.13152E-19
 -1       586 8.81564E-03-8.22652E-04-1.89735E-19
 -1       587 9.83418E-03-7.81855E-04 4.60786E-19
 -1       588 9.33169E-03-7.94621E-04 1.62630E-19
 -1       589 1.25166E-02-4.13146E-04-1.08420E-19
 -1       590 1.28367E-02-4.76789E-04-1.08420E-19
 -1       591 1.24021E-02-5.10103E-04-2.16840E-19
 -1       592 1.08039E-02-7.75212E-04-4.60786E-19
 -1       593 1.01988E-02-9.19128E-04-1.08420E-19
 -1       594 1.03245E-02-7.77398E-04 6.23416E-19
 -1       595 1.06095E-02-1.05639E-03 0.00000E+00
 -1       596 1.01064E-02-1.06919E-03-4.60786E-19
 -1       597 1.24784E-02-9.46302E-04 2.16840E-19
 -1       598 1.29933E-02-7.62510E-04-2.71051E-20
 -1       599 1.29236E-02-8.90530E-04 5.42101E-20
 -1       600 1.27287E-02-2.48142E-04-1.89735E-19
 -1       601 1.26276E-02-3.26038E-04 4.06576E-19
 -1       602 1.31682E-02-5.26261E-04-1.46367E-18
 -1       603 1.30751E-02-6.40178E-04-5.69206E-19
 -1       604 1.11718E-02-9.02532E-04-1.08420E-19
 -1       605 1.15674E-02-1.02080E-03-1.19262E-18
 -1       606 1.10957E-02-1.04180E-03-6.50521E-19
 -1       607 1.20273E-02-9.89742E-04-4.60786E-19
 -1       608 8.06529E-03-1.04412E-03-8.94467E-19
 -1       609 8.28452E-03-8.73912E-04-5.42101E-19
 -1       610 1.12736E-02-7.70065E-04 4.60786E-19
 -1       611 1.36985E-02-8.04791E-05 3.52366E-19
 -1       612 1.37350E-02-3.86603E-05 4.87891E-19
 -1       613 1.03931E-02-3.82173E-05 1.19262E-18
 -1       614 9.99726E-03-7.79386E-05 4.87891E-19
 -1       615 1.01064E-02-3.48925E-05 1.01644E-18
 -1       616 1.10339E-02-4.73131E-05 4.06576E-19
 -1       617 1.06251E-02-9.03508E-05-8.13152E-20
 -1       618 1.07031E-02-4.25723E-05 1.21973E-18
 -1       619 1.32688E-02-4.22887E-04-1.51788E-18
 -1       620 1.05531E-02-3.12568E-04 1.76183E-19
 -1       621 1.11067E-02-2.40855E-04-2.03288E-19
 -1       622 1.09607E-02-3.23515E-04-4.60786E-19
 -1       623 7.88600E-03-1.22399E-03-8.13152E-19
 -1       624 9.74901E-03-3.02143E-04 8.13152E-20
 -1       625 1.03392E-02-2.18496E-04 0.00000E+00
 -1       626 1.01495E-02-3.04156E-04 8.67362E-19
 -1       627 1.32264E-02-1.60652E-04-2.16840E-19
 -1       628 1.36401E-02-1.28411E-04-5.42101E-20
 -1       629 1.08594E-02-1.58475E-04-4.74338E-19
 -1       630 1.01563E-02-1.39577E-04 2.16840E-19
 -1       631 1.05011E-02-1.47873E-04-7.18284E-19
 -1       632 9.60460E-03-2.13069E-04-5.42101E-19
 -1       633 9.82554E-03-1.35887E-04 2.16840E-19
 -1       634 1.13243E-02-1.07267E-04 3.38813E-19
 -1       635 1.13831E-02-5.18695E-05 1.45012E-18
 -1       636 9.34994E-03-3.11044E-04-6.50521E-19
 -1       637 1.12303E-02-1.69393E-04 0.00000E+00
 -1       638 1.28142E-02-1.78336E-04 2.71051E-20
 -1       639 1.14437E-02-4.29756E-04-3.79471E-19
 -1       640 1.15914E-02-4.81038E-04-2.16840E-19
 -1       641 1.13031E-02-5.33336E-04 2.71051E-19
 -1       642 1.11553E-02-4.77798E-04-5.42101E-20
 -1       643 1.18730E-02-4.30737E-04-7.58942E-19
 -1       644 1.20262E-02-4.76510E-04-7.58942E-19
 -1       645 1.17449E-02-5.31833E-04-2.71051E-19
 -1       646 1.19039E-02-5.81399E-04-4.33681E-19
 -1       647 1.16199E-02-6.43374E-04-1.08420E-19
 -1       648 1.14581E-02-5.88787E-04-5.42101E-20
 -1       649 1.11659E-02-6.48030E-04 2.71051E-19
 -1       650 1.10079E-02-5.88407E-04 3.25261E-19
 -1       651 1.07057E-02-6.47082E-04 8.67362E-19
 -1       652 1.05529E-02-5.84456E-04-3.79471E-19
 -1       653 1.08584E-02-5.29032E-04-7.58942E-19
 -1       654 1.02387E-02-6.45125E-04 1.19262E-18
 -1       655 1.00925E-02-5.81615E-04 8.13152E-19
 -1       656 1.04104E-02-5.23136E-04-7.04731E-19
 -1       657 1.02785E-02-4.63762E-04 4.87891E-19
 -1       658 1.05862E-02-4.13933E-04-3.79471E-19
 -1       659 1.07177E-02-4.70654E-04-1.57209E-18
 -1       660 1.10148E-02-4.22912E-04-8.67362E-19
 -1       661 1.16849E-02-8.20716E-04-1.30104E-18
 -1       662 1.19618E-02-7.47115E-04-1.51788E-18
 -1       663 1.21410E-02-7.95075E-04-1.40946E-18
 -1       664 1.18704E-02-8.73756E-04-1.30104E-18
 -1       665 1.17879E-02-6.96376E-04-1.02999E-18
 -1       666 1.20682E-02-6.29026E-04-1.84314E-18
 -1       667 1.22374E-02-6.74151E-04-2.33103E-18
 -1       668 1.25113E-02-6.01250E-04-2.43945E-18
 -1       669 1.26811E-02-6.37087E-04-2.00577E-18
 -1       670 1.24114E-02-7.16361E-04-1.73472E-18
 -1       671 1.25896E-02-7.55535E-04-3.25261E-19
 -1       672 1.23246E-02-8.39866E-04-4.87891E-19
 -1       673 9.76388E-03-6.47395E-04 5.42101E-19
 -1       674 9.62550E-03-5.85205E-04-3.79471E-19
 -1       675 9.95835E-03-5.20340E-04-1.08420E-19
 -1       676 9.27997E-03-6.59908E-04-8.13152E-19
 -1       677 9.15046E-03-6.01349E-04-1.02999E-18
 -1       678 9.50105E-03-5.25988E-04-5.96311E-19
 -1       679 9.39087E-03-4.69954E-04-7.04731E-19
 -1       680 9.72782E-03-4.06190E-04 8.67362E-19
 -1       681 9.83670E-03-4.61760E-04 9.21572E-19
 -1       682 1.01575E-02-4.06851E-04 1.57209E-18
 -1       683 1.30829E-02-1.10068E-04 1.24683E-18
 -1       684 1.29024E-02-8.52640E-05 4.33681E-19
 -1       685 1.31222E-02-5.38160E-05 9.21572E-19
 -1       686 1.33099E-02-7.60536E-05 2.00577E-18
 -1       687 1.26765E-02-1.18180E-04 2.71051E-19
 -1       688 1.25008E-02-8.87500E-05-4.33681E-19
 -1       689 1.27183E-02-5.79167E-05-3.79471E-19
 -1       690 1.25301E-02-2.91819E-05-1.02999E-18
 -1       691 1.29297E-02-2.80246E-05 1.02999E-18
 -1       692 1.33358E-02-2.49166E-05 1.35525E-18
 -1       693 1.23221E-02-5.87152E-05-1.89735E-18
 -1       694 1.21399E-02-2.89217E-05 1.08420E-19
 -1       695 1.22771E-02-1.19907E-04-2.16840E-19
 -1       696 1.21081E-02-8.80813E-05-1.46367E-18
 -1       697 1.18871E-02-1.17047E-04 0.00000E+00
 -1       698 1.17265E-02-8.44709E-05 3.79471E-19
 -1       699 1.19366E-02-5.71345E-05-1.02999E-18
 -1       700 1.17618E-02-2.76536E-05-1.62630E-19
 -1       701 8.99626E-03-1.19715E-03-2.71051E-19
 -1       702 9.31512E-03-1.09712E-03 5.42101E-19
 -1       703 9.54811E-03-1.16671E-03 4.33681E-19
 -1       704 8.41895E-03-1.24493E-03-2.22261E-18
 -1       705 8.76071E-03-1.13105E-03-1.08420E-18
 -1       706 8.54437E-03-1.06840E-03-2.16840E-18
 -1       707 8.89840E-03-9.63605E-04-3.25261E-19
 -1       708 9.09821E-03-1.02898E-03 5.96311E-19
 -1       709 9.43107E-03-9.37160E-04 1.57209E-18
 -1       710 9.63224E-03-1.00634E-03 1.24683E-18
 -1       711 1.20463E-02-1.51095E-04-1.08420E-19
 -1       712 1.18078E-02-1.82316E-04-2.16840E-19
 -1       713 1.16581E-02-1.45695E-04-1.08420E-19
 -1       714 1.24441E-02-1.51853E-04 5.42101E-19
 -1       715 1.22048E-02-1.85892E-04 4.87891E-19
 -1       716 1.23631E-02-2.20607E-04-7.58942E-19
 -1       717 1.21096E-02-2.58689E-04-1.51788E-18
 -1       718 1.19582E-02-2.20246E-04-2.16840E-19
 -1       719 1.17033E-02-2.55138E-04-8.67362E-19
 -1       720 1.15606E-02-2.13885E-04-8.67362E-19
 -1       721 1.17241E-02-3.84049E-04 3.79471E-19
 -1       722 1.19969E-02-3.39916E-04 7.58942E-19
 -1       723 1.21480E-02-3.81789E-04-1.08420E-19
 -1       724 1.13019E-02-3.78780E-04 1.08420E-19
 -1       725 1.15797E-02-3.37230E-04 8.67362E-19
 -1       726 1.14395E-02-2.91093E-04 0.00000E+00
 -1       727 1.18487E-02-2.97424E-04 2.71051E-19
 -1       728 1.22625E-02-2.96795E-04-4.87891E-19
 -1       729 8.85730E-03-4.45920E-04 1.19262E-18
 -1       730 8.93866E-03-4.94512E-04-2.16840E-19
 -1       731 8.56210E-03-5.88308E-04-1.24683E-18
 -1       732 9.29535E-03-4.17167E-04-2.71051E-19
 -1       733 9.03656E-03-5.46251E-04-1.02999E-18
 -1       734 8.78518E-03-6.89601E-04-1.78893E-18
 -1       735 8.66511E-03-6.37126E-04-1.95156E-18
 -1       736 8.27716E-03-7.44453E-04-1.84314E-18
 -1       737 1.33544E-02-2.07877E-04-1.24683E-18
 -1       738 1.35190E-02-2.17219E-04-2.16840E-18
 -1       739 1.32610E-02-2.78638E-04-3.08998E-18
 -1       740 1.30992E-02-2.61185E-04-2.33103E-18
 -1       741 1.37714E-02-1.56051E-04-2.05998E-18
 -1       742 1.36825E-02-2.19066E-04-2.00577E-18
 -1       743 1.35850E-02-2.95661E-04-2.43945E-18
 -1       744 1.34227E-02-2.90309E-04-2.43945E-18
 -1       745 1.31586E-02-3.60113E-04-2.38524E-18
 -1       746 1.29982E-02-3.39698E-04-2.71051E-18
 -1       747 9.24526E-03-8.70173E-04 6.50521E-19
 -1       748 9.58454E-03-7.86783E-04 1.19262E-18
 -1       749 9.75878E-03-8.54236E-04 1.51788E-18
 -1       750 8.71629E-03-9.02003E-04-1.24683E-18
 -1       751 9.07545E-03-8.06250E-04-1.08420E-19
 -1       752 8.92202E-03-7.45963E-04-1.02999E-18
 -1       753 9.42478E-03-7.21822E-04 1.08420E-19
 -1       754 9.91580E-03-7.12175E-04 1.40946E-18
 -1       755 1.23022E-02-4.22194E-04-4.87891E-19
 -1       756 1.24594E-02-4.60381E-04-3.79471E-19
 -1       757 1.21837E-02-5.20593E-04-5.42101E-19
 -1       758 1.27309E-02-4.00212E-04-1.30104E-18
 -1       759 1.28908E-02-4.28473E-04-1.30104E-18
 -1       760 1.26197E-02-4.95694E-04-7.04731E-19
 -1       761 1.27832E-02-5.27732E-04-1.24683E-18
 -1       762 1.23455E-02-5.62343E-04-2.11419E-18
 -1       763 1.03966E-02-7.10284E-04 1.46367E-18
 -1       764 1.00808E-02-7.78982E-04 1.68051E-18
 -1       765 1.08682E-02-7.10300E-04-5.42101E-20
 -1       766 1.05655E-02-7.76364E-04 1.62630E-19
 -1       767 1.07448E-02-8.42551E-04-5.96311E-19
 -1       768 1.04471E-02-9.15583E-04-1.08420E-19
 -1       769 1.02582E-02-8.47087E-04 5.42101E-19
 -1       770 9.94685E-03-9.23391E-04 8.67362E-19
 -1       771 9.84774E-03-1.07657E-03-5.42101E-19
 -1       772 1.00761E-02-1.14652E-03-2.38524E-18
 -1       773 1.01478E-02-9.93269E-04-7.58942E-19
 -1       774 1.06464E-02-9.83474E-04 1.62630E-19
 -1       775 1.03602E-02-1.06269E-03-8.67362E-19
 -1       776 1.05825E-02-1.13038E-03-2.71051E-18
 -1       777 1.31452E-02-8.59070E-04-1.30104E-18
 -1       778 1.29571E-02-8.25981E-04 5.42101E-20
 -1       779 1.32144E-02-7.29848E-04-2.16840E-19
 -1       780 1.28924E-02-9.55610E-04-1.08420E-18
 -1       781 1.24484E-02-1.01186E-03-1.24683E-18
 -1       782 1.27016E-02-9.19796E-04 3.25261E-19
 -1       783 1.25118E-02-8.81398E-04 7.04731E-19
 -1       784 1.27717E-02-7.91858E-04 1.62630E-19
 -1       785 1.25730E-02-3.68398E-04 1.08420E-19
 -1       786 1.28387E-02-3.14758E-04-1.30104E-18
 -1       787 1.24169E-02-3.33653E-04 7.58942E-19
 -1       788 1.25213E-02-2.54299E-04-1.08420E-18
 -1       789 1.26798E-02-2.86007E-04 2.16840E-19
 -1       790 1.29369E-02-2.38741E-04-9.21572E-19
 -1       791 1.28549E-02-6.69949E-04-1.84314E-18
 -1       792 1.30327E-02-7.00458E-04-7.04731E-19
 -1       793 1.29500E-02-5.56382E-04-2.98156E-18
 -1       794 1.31204E-02-5.82034E-04-2.81893E-18
 -1       795 1.33860E-02-4.90202E-04-2.98156E-18
 -1       796 1.32948E-02-6.05687E-04-5.42101E-19
 -1       797 1.09334E-02-9.07912E-04-1.62630E-19
 -1       798 1.11300E-02-9.71517E-04-1.30104E-18
 -1       799 1.08546E-02-1.04962E-03-8.67362E-19
 -1       800 1.14073E-02-8.95367E-04-6.50521E-19
 -1       801 1.16007E-02-9.52774E-04-2.38524E-18
 -1       802 1.13332E-02-1.03235E-03-2.60209E-18
 -1       803 1.15409E-02-1.08947E-03-3.74050E-18
 -1       804 1.10698E-02-1.11288E-03-2.33103E-18
 -1       805 1.19992E-02-1.05655E-03-3.57787E-18
 -1       806 1.22538E-02-9.69626E-04-5.42101E-19
 -1       807 1.17987E-02-1.00671E-03-2.71051E-18
 -1       808 1.20605E-02-9.23544E-04-1.51788E-18
 -1       809 8.34768E-03-1.01041E-03-2.27682E-18
 -1       810 8.17061E-03-9.57839E-04-2.22261E-18
 -1       811 8.55206E-03-8.44834E-04-1.19262E-18
 -1       812 7.77806E-03-1.08624E-03-2.05998E-18
 -1       813 8.01277E-03-9.11020E-04-1.89735E-18
 -1       814 8.40572E-03-7.92341E-04-2.00577E-18
 -1       815 1.15050E-02-7.64944E-04 0.00000E+00
 -1       816 1.13318E-02-7.07140E-04 6.50521E-19
 -1       817 1.12199E-02-8.35284E-04 3.25261E-19
 -1       818 1.10399E-02-7.73305E-04 1.08420E-19
 -1       819 1.37443E-02-1.91324E-05 1.57209E-18
 -1       820 1.35305E-02-4.51843E-05 1.40946E-18
 -1       821 1.39389E-02-3.03264E-05 3.79471E-19
 -1       822 1.39033E-02-6.42673E-05-6.50521E-19
 -1       823 1.37197E-02-5.89899E-05 1.19262E-18
 -1       824 1.34931E-02-9.31899E-05 1.78893E-18
 -1       825 9.97262E-03-3.38671E-05 2.87314E-18
 -1       826 1.00603E-02-5.49410E-05 2.43945E-18
 -1       827 9.85298E-03-7.69164E-05 1.84314E-18
 -1       828 1.01344E-02-1.69242E-05 2.54788E-18
 -1       829 1.04166E-02-1.86952E-05 3.14419E-18
 -1       830 1.02466E-02-3.63804E-05 3.25261E-18
 -1       831 1.03544E-02-5.93856E-05 2.38524E-18
 -1       832 1.01468E-02-8.00152E-05 1.19262E-18
 -1       833 1.05453E-02-4.03094E-05 3.46945E-18
 -1       834 1.06703E-02-6.55114E-05 1.73472E-18
 -1       835 1.04609E-02-8.64134E-05 2.16840E-19
 -1       836 1.07230E-02-2.09548E-05 2.38524E-18
 -1       837 1.10510E-02-2.33868E-05 1.30104E-18
 -1       838 1.08660E-02-4.49315E-05 2.33103E-18
 -1       839 1.10056E-02-7.23160E-05 2.16840E-19
 -1       840 1.07937E-02-9.45575E-05-1.13841E-18
 -1       841 1.34843E-02-3.86261E-04-2.60209E-18
 -1       842 1.33204E-02-3.75629E-04-3.19840E-18
 -1       843 1.32178E-02-4.73172E-04-4.22839E-18
 -1       844 1.30530E-02-4.52779E-04-2.49366E-18
 -1       845 1.08818E-02-3.69413E-04-1.30104E-18
 -1       846 1.11660E-02-3.28853E-04-5.96311E-19
 -1       847 1.04638E-02-3.59485E-04 6.50521E-19
 -1       848 1.07564E-02-3.17947E-04-3.79471E-19
 -1       849 1.06385E-02-2.69128E-04 5.96311E-19
 -1       850 1.09117E-02-2.34974E-04-1.08420E-19
 -1       851 1.10360E-02-2.80706E-04-9.21572E-19
 -1       852 1.13037E-02-2.46386E-04-5.42101E-19
 -1       853 7.81534E-03-1.31803E-03-3.30682E-18
 -1       854 8.18338E-03-1.18599E-03-2.43945E-18
 -1       855 7.58276E-03-1.27050E-03-1.95156E-18
 -1       856 7.96989E-03-1.13276E-03-2.43945E-18
 -1       857 9.63198E-03-3.53866E-04-1.62630E-19
 -1       858 9.94896E-03-3.02084E-04 1.30104E-18
 -1       859 1.00476E-02-3.52850E-04 2.49366E-18
 -1       860 9.86160E-03-2.54860E-04 3.25261E-19
 -1       861 1.01527E-02-2.14559E-04 3.79471E-19
 -1       862 1.02472E-02-2.59389E-04 1.08420E-18
 -1       863 1.05279E-02-2.23454E-04 2.16840E-19
 -1       864 1.03509E-02-3.07815E-04 1.62630E-18
 -1       865 1.31881E-02-1.92094E-04-1.08420E-18
 -1       866 1.34333E-02-1.46658E-04-2.71051E-19
 -1       867 1.36037E-02-1.55502E-04-7.04731E-19
 -1       868 1.32597E-02-1.31018E-04 1.02999E-18
 -1       869 1.36719E-02-1.03521E-04 2.71051E-19
 -1       870 1.38464E-02-1.05203E-04-1.13841E-18
 -1       871 1.09176E-02-1.27471E-04-1.46367E-18
 -1       872 1.06786E-02-1.53016E-04-1.51788E-18
 -1       873 1.05684E-02-1.17661E-04-1.13841E-18
 -1       874 1.07927E-02-1.92257E-04-5.42101E-19
 -1       875 1.04243E-02-1.81401E-04-9.75782E-19
 -1       876 1.00669E-02-1.73686E-04 3.25261E-19
 -1       877 1.03270E-02-1.43303E-04-7.58942E-19
 -1       878 1.02350E-02-1.09473E-04 7.58942E-19
 -1       879 9.66540E-03-1.36639E-04 4.87891E-19
 -1       880 9.72027E-03-1.71927E-04-2.16840E-19
 -1       881 9.42526E-03-2.17638E-04-3.25261E-19
 -1       882 9.91845E-03-1.04732E-04 9.21572E-19
 -1       883 9.98917E-03-1.36993E-04 8.13152E-19
 -1       884 9.78547E-03-2.11383E-04-5.42101E-19
 -1       885 1.12063E-02-4.96494E-05 2.54788E-18
 -1       886 1.13583E-02-7.89196E-05 2.54788E-18
 -1       887 1.11435E-02-1.03162E-04-5.42101E-19
 -1       888 1.13980E-02-2.57113E-05 2.11419E-18
 -1       889 1.15639E-02-5.39058E-05 2.22261E-18
 -1       890 1.15086E-02-1.11049E-04 8.13152E-19
 -1       891 9.54946E-03-3.04911E-04-8.67362E-19
 -1       892 9.48049E-03-2.59473E-04-1.62630E-18
 -1       893 9.21491E-03-3.67621E-04-7.04731E-19
 -1       894 9.15013E-03-3.21241E-04-1.30104E-18
 -1       895 1.14201E-02-1.74390E-04-3.79471E-19
 -1       896 1.12814E-02-1.37314E-04 4.87891E-19
 -1       897 1.11717E-02-2.03828E-04-3.79471E-19
 -1       898 1.10433E-02-1.64013E-04-6.50521E-19
 -1       899 1.30199E-02-1.71044E-04-3.25261E-19
 -1       900 1.28494E-02-1.45999E-04-1.08420E-19
 -1       901 1.27737E-02-2.12324E-04-2.71051E-19
 -1       902 1.26096E-02-1.82997E-04 2.16840E-19
 -3
    1PSTEP                         2           1           1          
  100CL  101 1.000000000         901                     0    1           1
 -4  STRESS      6    1
 -5  SXX         1    4    1    1
 -5  SYY         1    4    2    2
 -5  SZZ         1    4    3    3
 -5  SXY         1    4    1    2
 -5  SYZ         1    4    2    3
 -5  SZX         1    4    3    1
 -1         1 4.10419E+03 4.21787E+01 5.48307E+02-7.03010E+00 2.57527E-12 4.33076E-12
 -1         3-4.24390E+01-1.63869E+03-4.51838E+02 1.73786E+00 6.70852E-13 7.64944E-13
 -1         4 1.00223E+03 2.67292E+02 3.09030E+01 7.92954E-02-8.14871E-13 4.75425E-13
 -1         5 9.98910E+02-1.11446E+00-1.11746E+01 6.35124E-01 1.47354E-12 9.66579E-13
 -1         6 1.52195E+03 1.95653E+00 5.76500E+01-1.86022E+00 3.11418E-14-1.77636E-15
 -1         7 7.11367E+02-1.18155E+01-1.86680E+02-1.44410E-01 8.72080E-14 2.40721E-13
 -1         8 5.67319E+02 9.89527E+01-4.86475E+00-3.59610E-01 2.40224E-13 7.10543E-14
 -1         9 3.68457E+03 1.58859E+02 4.88402E+02-6.94293E+02 1.08535E-12 1.04805E-12
 -1        10 2.58548E+03 4.30666E+02 3.26913E+02-1.02831E+03-8.81073E-13 3.69482E-13
 -1        11 1.41088E+03 6.27306E+02 1.60311E+02-8.94653E+02-4.12115E-13-4.19220E-13
 -1        12 3.91367E+02 3.91249E+02-7.13675E+01-4.29656E+02-1.36424E-12-1.42109E-13
 -1        13-1.23840E+02-1.50615E+02-2.48207E+02 6.48555E+01 1.98952E-13 1.42109E-13
 -1        14-1.85996E+02-7.74122E+02-3.37502E+02 2.83026E+02 3.58824E-13-7.28306E-14
 -1        15-5.96653E+01-1.41440E+03-4.16214E+02 2.55568E+02 6.67910E-13 7.46292E-13
 -1        16 4.02796E+03 1.17193E+02 5.56053E+02-3.55443E+02 3.80496E-12 3.44968E-12
 -1        17 3.19118E+03 2.44997E+02 4.03565E+02-9.15481E+02 2.59348E-12 1.56319E-12
 -1        18 2.03041E+03 5.93611E+02 2.69182E+02-1.00594E+03 3.90799E-13 9.94760E-14
 -1        19 8.58516E+02 5.27005E+02 3.62107E+01-6.91428E+02-2.03215E-12 2.07478E-12
 -1        20 1.17201E+02 1.47093E+02-1.55016E+02-1.64758E+02-1.79057E-12-1.13687E-13
 -1        21-2.13418E+02-4.96529E+02-3.17040E+02 2.12169E+02 8.24230E-13-7.53175E-13
 -1        22-1.28327E+02-1.16538E+03-3.94320E+02 3.19655E+02 9.23706E-13 8.81073E-13
 -1        23-6.37000E+01-1.59152E+03-4.50946E+02 1.39753E+02 2.46914E-12 4.00402E-13
 -1        24-1.31368E+02-8.84544E+02-2.69847E+02 2.33468E-01 3.72369E-13 3.19744E-14
 -1        25-3.24119E+01-4.56140E+02-1.47981E+02-1.67120E+00 1.07012E-13-3.55271E-13
 -1        26 9.18917E+01-2.28706E+02-8.36940E+01-6.72846E-01-1.43774E-13 8.45546E-13
 -1        27 2.12751E+02-9.53140E+01-4.76240E+01-5.56177E-01-8.70588E-14 5.68434E-14
 -1        28 3.20429E+02-1.31490E+01-2.74076E+01-3.60531E-01 6.30274E-13-5.20473E-13
 -1        29 4.14757E+02 4.00229E+01-1.56611E+01-3.06347E-01-3.99070E-13 1.49214E-13
 -1        30 4.96436E+02 7.52696E+01-8.85768E+00-3.21064E-01 9.94043E-13 4.22773E-13
 -1        31-5.25189E+01-1.16435E+03-3.17885E+02-1.34089E+00 1.83675E-12 1.42819E-12
 -1        32-5.57804E+01-6.22992E+02-1.85698E+02-1.29634E+00 8.70859E-13 2.84217E-13
 -1        33 4.06681E+01-3.22204E+02-1.06394E+02-1.03489E+00 3.15414E-13 1.22924E-12
 -1        34 1.57276E+02-1.52160E+02-6.15756E+01-2.03243E-01-2.17354E-13 6.11067E-13
 -1        35 2.68634E+02-4.94187E+01-3.59770E+01-2.49968E-01 3.69121E-13-1.03029E-12
 -1        36 3.68634E+02 1.59756E+01-2.10105E+01-1.36437E-01 4.46074E-13 3.97904E-13
 -1        37 4.56026E+02 5.90248E+01-1.22385E+01-1.40988E-01 7.46833E-13-2.98428E-13
 -1        38 5.32027E+02 8.78574E+01-7.06067E+00-1.96934E-01 1.40946E-12 1.80478E-12
 -1        39 1.00216E+03 2.62153E+02 3.00166E+01-2.94702E-01-9.73777E-13-1.81680E-12
 -1        40 1.00195E+03 2.47068E+02 2.74121E+01-5.71508E-01 2.67453E-13-1.00919E-13
 -1        41 1.00161E+03 2.23009E+02 2.32502E+01-8.12778E-01-2.22711E-13-8.67389E-13
 -1        42 1.00117E+03 1.91551E+02 1.77944E+01-1.00162E+00 1.42997E-13-1.07735E-12
 -1        43 1.00062E+03 1.54816E+02 1.14054E+01-1.12058E+00-9.42801E-13-2.48822E-13
 -1        44 1.00001E+03 1.15405E+02 4.53910E+00-1.15065E+00 4.91385E-13-7.55080E-13
 -1        45 9.99348E+02 7.63380E+01-2.24871E+00-1.06715E+00 1.83853E-13 1.64966E-12
 -1        46 9.98694E+02 4.09994E+01-8.28854E+00-8.34142E-01 2.02283E-13 7.50306E-13
 -1        47 9.98127E+02 1.30754E+01-1.27822E+01-3.96182E-01 9.46354E-13 5.45529E-13
 -1        48 9.97951E+02-3.53642E+00-1.47433E+01 3.33198E-01-9.26481E-13-8.81031E-14
 -1        49 9.98296E+02-5.75661E+00-1.33980E+01 1.42520E+00 3.21243E-13-8.33510E-13
 -1        50 1.00176E+03 2.64533E+02 3.00946E+01-9.02177E-02-3.73002E-12-1.21830E-12
 -1        51 1.00165E+03 2.54435E+02 2.83737E+01-2.64996E-01-7.83817E-13-1.81061E-12
 -1        52 1.00144E+03 2.34890E+02 2.50385E+01-4.23908E-01 1.44329E-13-1.21630E-12
 -1        53 1.00113E+03 2.07171E+02 2.02987E+01-5.56467E-01-7.51399E-13-1.13748E-12
 -1        54 1.00075E+03 1.73125E+02 1.44629E+01-6.52989E-01 1.24611E-12-6.79012E-13
 -1        55 1.00029E+03 1.35110E+02 7.93433E+00-7.03128E-01-6.45706E-13 5.08621E-14
 -1        56 9.99794E+02 9.59308E+01 1.21275E+00-6.94200E-01 1.78879E-12 2.45434E-12
 -1        57 9.99277E+02 5.87779E+01-5.09987E+00-6.08067E-01-1.05072E-12 2.79644E-12
 -1        58 9.98786E+02 2.71577E+01-1.02882E+01-4.15974E-01 2.29328E-12 2.36750E-12
 -1        59 9.98440E+02 4.73820E+00-1.35236E+01-6.69549E-02-7.02993E-13 1.20728E-12
 -1        60 9.98497E+02-5.03271E+00-1.39289E+01 5.14903E-01-2.12097E-12-1.38148E-12
 -1        61 9.99877E+02-2.21966E+00-1.13917E+01 9.33291E-01 3.07665E-12 6.02213E-13
 -1        62 9.94235E+02-1.71392E+00-1.35223E+01 1.44282E+00-3.25320E-13 8.50431E-13
 -1        63 9.96137E+02-2.12606E+00-1.53712E+01 4.16169E-01-9.71473E-13 8.10463E-13
 -1        64 1.01223E+03-2.16784E+00-1.43809E+01-2.41220E-01-1.65562E-13 6.17284E-14
 -1        65 1.04048E+03-1.93403E+00-1.11484E+01-6.53900E-01-7.75692E-13 1.82965E-13
 -1        66 1.07879E+03-1.68097E+00-6.29222E+00-9.36040E-01 2.18582E-13-6.03961E-14
 -1        67 1.12572E+03-1.43142E+00-1.30372E-01-1.15604E+00-1.47787E-12 4.16556E-13
 -1        68 1.18021E+03-1.16982E+00 7.18871E+00-1.35107E+00-8.55340E-13 1.90958E-14
 -1        69 1.24133E+03-8.56256E-01 1.56092E+01-1.53645E+00 9.45827E-13 2.23821E-13
 -1        70 1.30804E+03-4.41307E-01 2.50849E+01-1.70940E+00 1.64604E-13-3.55271E-14
 -1        71 1.37880E+03 1.29032E-01 3.54930E+01-1.85070E+00 4.43201E-13 5.10259E-13
 -1        72 1.45126E+03 9.04662E-01 4.65363E+01-1.92072E+00-8.46156E-13-5.24469E-13
 -1        73 9.97835E+02-1.56779E-01-1.14147E+01 9.32819E-01 8.88498E-13 2.62645E-12
 -1        74 9.94898E+02-1.55807E+00-1.42414E+01 5.45969E-01-2.37338E-12 8.89511E-13
 -1        75 1.00428E+03-1.71849E+00-1.45381E+01 2.18189E-02-2.23377E-12 1.09646E-12
 -1        76 1.02661E+03-1.58385E+00-1.23728E+01-2.86111E-01-1.28025E-12-4.15668E-13
 -1        77 1.05991E+03-1.37684E+00-8.35009E+00-4.77187E-01-2.23654E-13-7.43405E-13
 -1        78 1.10250E+03-1.17234E+00-2.88144E+00-6.14362E-01-2.61956E-12 2.43539E-12
 -1        79 1.15317E+03-9.67122E-01 3.80846E+00-7.30520E-01-2.65553E-12-1.61648E-12
 -1        80 1.21093E+03-7.37317E-01 1.16170E+01-8.41830E-01 2.70062E-14-3.20988E-12
 -1        81 1.27478E+03-4.48877E-01 2.04874E+01-9.52778E-01 4.40786E-13 6.91003E-13
 -1        82 1.34344E+03-6.12869E-02 3.03296E+01-1.05780E+00-1.08580E-13 8.27782E-13
 -1        83 1.41495E+03 4.66173E-01 4.09293E+01-1.13983E+00-7.41074E-13 2.32347E-12
 -1        84 1.48640E+03 1.17494E+00 5.18455E+01-1.17187E+00-8.73634E-13-3.08908E-12
 -1        85 1.58579E+03 3.29041E+00 6.78344E+01-1.61178E+00 9.12798E-13-3.16192E-13
 -1        86 1.63608E+03 4.90163E+00 7.56214E+01-1.03412E+00 6.57752E-13 5.66658E-13
 -1        87 1.66443E+03 6.67971E+00 7.89759E+01-8.71399E-02-2.71394E-13-4.02567E-13
 -1        88 1.66121E+03 8.15325E+00 7.52808E+01 1.35495E+00 1.37390E-12 4.45199E-14
 -1        89 1.61820E+03 8.81179E+00 6.21234E+01 3.19089E+00 3.15414E-13 5.25247E-13
 -1        90 1.52866E+03 7.84009E+00 3.71572E+01 5.24787E+00-1.11586E-12-8.35554E-13
 -1        91 1.39437E+03 5.50373E+00 5.70182E-01 7.16117E+00-1.34448E-13-2.32481E-13
 -1        92 1.22422E+03 1.51079E+00-4.58161E+01 8.33758E+00 2.12372E-13-7.88258E-13
 -1        93 1.04017E+03-3.17906E+00-9.61646E+01 8.39573E+00 1.54327E-12 7.39409E-13
 -1        94 8.72941E+02-7.49467E+00-1.42075E+02 6.85218E+00-2.16771E-13 9.09939E-13
 -1        95 7.54911E+02-1.05864E+01-1.74601E+02 3.87127E+00 3.83304E-13-5.19584E-14
 -1        96 1.55354E+03 2.09644E+00 6.23065E+01-1.13257E+00 1.96831E-12-2.08367E-12
 -1        97 1.61047E+03 3.25558E+00 7.10891E+01-9.51729E-01 1.65901E-12 1.93801E-12
 -1        98 1.64968E+03 4.57461E+00 7.64520E+01-5.74719E-01 5.34794E-13 7.36300E-13
 -1        99 1.66236E+03 5.96139E+00 7.62007E+01 6.35992E-02 1.63070E-12-3.14504E-12
 -1       100 1.63941E+03 6.87272E+00 6.77644E+01 1.17601E+00 1.18261E-12 1.62492E-12
 -1       101 1.57350E+03 7.02934E+00 4.89371E+01 2.35058E+00-1.11211E-12 2.23732E-12
 -1       102 1.46193E+03 5.88010E+00 1.85009E+01 3.77752E+00 2.38531E-13-3.65219E-12
 -1       103 1.30971E+03 3.27469E+00-2.26943E+01 4.63084E+00 3.75394E-13-2.01617E-13
 -1       104 1.13267E+03-2.19458E-01-7.06518E+01 4.96103E+00 1.14331E-12-1.38201E-12
 -1       105 9.56721E+02-4.09732E+00-1.18541E+02 4.40953E+00 2.26019E-12 2.74092E-12
 -1       106 8.13897E+02-7.09811E+00-1.57487E+02 2.76500E+00 9.83436E-13 2.67653E-12
 -1       107 7.33767E+02-8.31065E+00-1.79246E+02 6.98384E-01 6.70575E-13-4.91385E-13
 -1       108 1.00390E+03 1.47312E+01-1.03695E+02 8.39719E-01-2.61124E-13-3.57041E-14
 -1       109 1.22561E+03 7.69560E+01-4.88921E+01 8.87398E-01-4.58300E-13-1.45557E-12
 -1       110 1.41869E+03 1.58637E+02-7.10254E+00 5.80658E-01 1.27542E-12 3.78343E-13
 -1       111 1.61858E+03 2.49565E+02 3.31877E+01 4.94054E-01-1.03029E-13-5.29382E-13
 -1       112 1.87078E+03 3.38186E+02 8.47435E+01 6.77914E-01 1.52767E-13 1.93009E-12
 -1       113 2.25161E+03 4.10895E+02 1.69649E+02 1.62930E+00-9.27258E-13 1.71428E-12
 -1       114 2.91835E+03 4.14345E+02 3.25961E+02 3.34158E+00-1.45661E-13-1.66533E-12
 -1       115 8.75730E+02 9.34409E+00-1.34511E+02 5.79421E-01 6.03961E-14-1.05493E-12
 -1       116 1.12425E+03 5.09562E+01-7.02855E+01 8.71782E-01-1.60583E-12-8.54844E-13
 -1       117 1.32430E+03 1.19390E+02-2.58784E+01 3.39399E-01 3.16902E-12-1.58862E-12
 -1       118 1.51119E+03 2.01363E+02 1.06366E+01-2.66955E-01-1.24345E-12 2.27596E-13
 -1       119 1.73016E+03 2.86534E+02 5.26606E+01-3.25721E-01 3.22586E-12 2.48151E-12
 -1       120 2.03071E+03 3.56643E+02 1.12398E+02-3.74139E-01-5.34328E-12 5.36654E-13
 -1       121 2.50965E+03 3.66994E+02 2.10133E+02 1.05619E+00 1.16529E-12-4.16778E-13
 -1       122 3.37804E+03 1.87102E+02 3.80621E+02 5.73830E+00 4.78551E-12 2.45448E-12
 -1       123 6.41349E+02 1.17368E+02-2.11321E+00-2.90110E-01 2.40998E-13-2.62013E-13
 -1       124 7.04395E+02 1.28167E+02-7.39769E-01-2.13967E-01-9.38694E-14 1.08358E-13
 -1       125 7.58860E+02 1.34107E+02 4.24109E-03-1.64635E-01 7.60005E-14-4.83169E-13
 -1       126 8.06281E+02 1.37159E+02 4.57071E-01-1.30983E-01 8.19017E-13 1.27898E-13
 -1       127 8.47782E+02 1.38966E+02 8.28526E-01-1.07691E-01-1.00579E-13-6.33271E-13
 -1       128 8.84155E+02 1.41048E+02 1.28652E+00-9.15711E-02 4.40855E-13-4.57412E-13
 -1       129 9.15920E+02 1.44934E+02 2.02106E+00-8.02199E-02-1.31143E-12 4.70290E-13
 -1       130 9.43340E+02 1.52304E+02 3.31503E+00-7.19586E-02 4.10520E-13-6.67022E-13
 -1       131 9.66398E+02 1.65161E+02 5.64629E+00-6.55815E-02-1.25327E-12 1.03428E-12
 -1       132 9.84716E+02 1.86081E+02 9.85958E+00-5.72819E-02-2.21768E-13 4.79616E-13
 -1       133 9.97355E+02 2.18549E+02 1.74446E+01-6.80004E-02-4.53195E-13 1.59428E-13
 -1       134 6.04505E+02 1.08787E+02-3.83680E+00-9.39773E-02 1.03596E-12 9.23706E-13
 -1       135 6.72780E+02 1.23002E+02-1.86549E+00-8.06529E-02 1.27724E-12 7.78044E-13
 -1       136 7.31496E+02 1.31163E+02-7.85668E-01-6.00499E-02 7.34933E-13-1.00187E-12
 -1       137 7.82403E+02 1.35486E+02-1.66941E-01-4.82411E-02 7.65523E-13-9.18376E-13
 -1       138 8.26824E+02 1.37748E+02 2.54655E-01-4.08162E-02 9.61120E-13 2.48690E-14
 -1       139 8.65709E+02 1.39514E+02 6.60008E-01-3.64078E-02 1.29910E-12-6.21725E-13
 -1       140 8.99705E+02 1.42290E+02 1.21798E+00-3.44054E-02-1.90988E-12 2.82796E-12
 -1       141 9.29193E+02 1.47655E+02 2.14992E+00-3.46860E-02-2.15617E-12-3.62554E-12
 -1       142 9.54274E+02 1.57415E+02 3.80847E+00-3.74908E-02-1.07219E-12 2.11209E-12
 -1       143 9.74715E+02 1.73800E+02 6.80615E+00-4.20994E-02-8.75244E-13-9.68114E-13
 -1       144 9.89843E+02 1.99773E+02 1.22456E+01-5.90341E-02-8.49792E-13 4.49418E-13
 -1       145 9.98211E+02 2.39378E+02 2.20482E+01-1.25399E-02-2.00674E-12 8.07354E-13
 -1       146 5.85666E+02 9.21363E+01-4.75166E+00-7.93034E+01 3.31735E-13 2.13163E-14
 -1       147 6.37816E+02 7.33202E+01-4.43497E+00-1.48705E+02-4.40536E-13-2.59348E-13
 -1       148 7.16034E+02 4.68853E+01-3.94778E+00-2.00569E+02-3.01092E-13-1.92735E-13
 -1       149 8.10029E+02 1.86036E+01-3.28099E+00-2.31058E+02-1.50102E-13-2.35367E-13
 -1       150 9.09589E+02-5.92474E+00-2.34558E+00-2.40331E+02 1.24345E-13 1.13243E-13
 -1       151 1.00682E+03-2.27311E+01-9.79229E-01-2.31646E+02-1.24345E-13 3.17524E-13
 -1       152 1.09734E+03-3.01471E+01 1.08375E+00-2.09840E+02-3.06422E-13-3.25739E-13
 -1       153 1.18056E+03-2.87636E+01 4.32955E+00-1.79660E+02 3.96128E-13-3.20188E-13
 -1       154 1.25911E+03-2.10780E+01 9.55871E+00-1.44465E+02-3.42837E-13 1.36557E-13
 -1       155 1.33800E+03-1.06851E+01 1.82277E+01-1.05219E+02 2.75335E-14-1.82965E-13
 -1       156 1.42352E+03-1.70292E+00 3.28409E+01-5.97728E+01 3.13971E-13-3.71259E-13
 -1       157 5.70364E+02 9.33105E+01-6.48973E+00-3.98171E+01 1.30207E-12 8.73968E-13
 -1       158 6.06516E+02 8.08175E+01-5.99422E+00-1.14435E+02-7.38964E-13 6.99885E-13
 -1       159 6.73260E+02 5.87542E+01-5.10935E+00-1.75223E+02-1.58451E-12-4.05009E-13
 -1       160 7.61271E+02 3.20803E+01-3.94058E+00-2.16400E+02 6.92779E-13-9.84102E-13
 -1       161 8.59778E+02 6.31148E+00-2.61118E+00-2.36134E+02-1.76215E-12-1.01252E-12
 -1       162 9.59376E+02-1.39212E+01-1.12273E+00-2.36199E+02 2.61124E-12 4.56524E-13
 -1       163 1.05376E+03-2.58519E+01 6.81715E-01-2.20697E+02-2.47269E-12 7.54952E-14
 -1       164 1.14041E+03-2.89755E+01 3.14169E+00-1.94497E+02-6.21725E-13-9.54375E-13
 -1       165 1.22050E+03-2.47838E+01 6.93427E+00-1.61689E+02-5.61329E-13-5.27578E-13
 -1       166 1.29802E+03-1.62694E+01 1.32023E+01-1.24473E+02 1.88294E-13-3.09086E-13
 -1       167 1.37888E+03-7.20252E+00 2.39420E+01-8.22849E+01 3.83693E-13-3.73035E-13
 -1       168 1.46965E+03-1.46480E+00 4.25210E+01-3.11261E+01 5.13367E-13-1.63425E-12
 -1       169 1.48066E+03-5.91976E+01 1.01014E+01 1.29387E+02 1.60760E-13 3.04645E-13
 -1       170 1.10976E+03-3.61721E+02-3.06050E+01-2.98227E+02-1.42109E-14-3.46390E-13
 -1       171 7.66888E+02-7.08879E+01-9.54702E+00-2.83015E+02 2.66454E-14 2.58460E-13
 -1       172 1.41459E+03-3.28184E+01 2.19732E+01-6.89653E+01-7.46070E-13-1.51879E-13
 -1       173 2.01318E+02-3.95250E+02-1.09853E+02-2.41155E+02-6.39488E-14-4.26326E-13
 -1       174 5.13222E+02 3.59939E+00-1.41528E+01-1.89498E+02 1.27898E-13 8.52651E-14
 -1       175 1.30680E+03 5.40828E+01-3.18404E+01 1.55407E+02 4.79616E-14 5.36238E-13
 -1       176 2.25877E+03 3.15525E+02 1.57649E+02 6.73742E+00-3.25073E-13 1.50102E-12
 -1       177 1.04371E+03-1.16520E+02-4.10450E+00-2.51510E+02 5.50671E-14 5.92859E-14
 -1       178 1.83453E+03-3.59010E+01 6.51679E+01-3.64122E+01-5.56888E-13 6.28830E-13
 -1       179 7.14998E+02-2.03454E+02-2.54977E+01-3.34217E+02-2.02505E-13 2.26485E-13
 -1       180 1.41352E+03-1.22815E+01-9.58441E+00 1.97580E+02 2.15827E-12-5.48006E-13
 -1       181 1.25212E+03-9.52750E+01 3.63154E+00-1.55772E+02-3.76588E-13-5.17142E-13
 -1       182 1.46972E+03-5.96633E+01 1.99570E+01 1.40030E+01 3.89022E-13-8.52651E-13
 -1       183 3.58540E+02-1.31447E+02-4.14285E+01-2.33178E+02-5.00933E-13 3.89022E-13
 -1       184 1.73109E+03 1.55953E+02 4.44111E+01 1.76958E+02-1.29674E-13-5.47118E-13
 -1       185 6.11606E+02-3.30470E+02-5.98525E+01-3.44274E+02-2.62901E-13-2.70894E-13
 -1       186 1.34414E+03-1.36274E+02 7.96826E+00-2.95757E+02-4.97380E-14 2.80664E-13
 -1       187 1.11061E+03-2.48244E+02-9.95006E+00-2.61935E+02 1.50990E-13-4.41869E-14
 -1       188 1.56502E+03-2.04743E+02 8.12502E+00 6.79839E+01 5.28466E-13-3.16192E-13
 -1       189 1.36020E+03-1.86350E+02 1.01231E+00-8.59994E+01-1.58096E-13 4.08562E-14
 -1       190 1.58268E+03-3.19898E+01 1.18576E+01 2.09337E+02 1.42109E-14 1.70886E-12
 -1       191 1.52107E+03-1.27271E+02 8.02491E+00 1.28998E+02-1.04805E-13-1.25233E-13
 -1       192 1.45783E+03-4.07239E+01 1.69765E+00 1.74127E+02-6.90559E-14 4.09894E-13
 -1       193 1.49770E+03-2.04858E+01 1.68125E+00 2.16004E+02 4.41425E-13-4.35207E-14
 -1       194 1.60573E+03-1.19386E+02 1.35213E+01 1.56060E+02-1.34237E-12 9.43245E-13
 -1       195 1.53140E+03-7.63434E+01 8.19692E+00 1.87058E+02 3.03979E-13 1.40510E-12
 -1       196 6.28559E+02-3.31045E+01-1.20851E+01-2.52800E+02-4.17444E-13-1.81188E-13
 -1       197 7.41281E+02-1.30659E+02-1.56499E+01-3.09654E+02 4.26326E-14 4.38760E-13
 -1       198 5.20744E+02-1.67803E+02-3.42302E+01-3.05087E+02 9.41469E-14 1.77636E-14
 -1       199 4.40843E+02-5.21819E+01-2.42158E+01-2.12098E+02 7.99361E-14 2.55795E-13
 -1       200 5.77751E+02-9.10890E+01-2.02718E+01-2.80042E+02-3.55271E-14 5.25802E-13
 -1       201 1.69197E+03 2.42646E+02 4.49513E+01 1.09632E+02 1.06581E-14 6.58140E-13
 -1       202 1.51479E+03 1.10702E+02 7.24531E+00 1.88532E+02 5.32907E-13-3.78364E-13
 -1       203 1.25581E+03 7.38847E+01-4.24226E+01 8.54948E+01 1.07292E-12-2.25042E-13
 -1       204 1.46625E+03 1.56716E+02 1.37017E+00 1.06561E+02-5.47118E-13 2.53575E-13
 -1       205 2.38565E+01-4.46143E+02-1.40154E+02-1.25192E+02 5.70211E-13 2.45137E-13
 -1       206 1.04407E+02-6.32614E+02-1.92736E+02-1.30976E+02 1.95399E-13 7.81597E-14
 -1       207-8.46555E+01-8.25382E+02-2.55657E+02-4.63927E+01 4.90274E-13-2.85993E-13
 -1       208 1.11329E+03 1.05294E+01-7.59887E+01 1.03254E+02 2.46914E-13 6.51035E-13
 -1       209 1.03854E+03 1.45970E+01-9.48486E+01 5.63082E+01-8.77520E-13-1.30618E-13
 -1       210 1.64230E+03 4.78015E+01 2.28098E+01 2.08614E+02-5.06262E-13-1.66800E-12
 -1       211 1.36079E+03 2.16877E+01-2.10211E+01 1.93019E+02 1.15108E-12 8.74856E-14
 -1       212 1.50043E+03 3.74734E+01 1.45171E+00 2.19006E+02 2.46914E-13 5.77316E-14
 -1       213 1.31142E+03-3.07791E+00-2.56605E+01 1.34285E+02-4.52971E-14-7.54619E-13
 -1       214 1.20884E+03 3.72908E+00-5.18624E+01 1.29878E+02 5.61329E-13 4.66183E-13
 -1       215 2.47909E+02-1.07295E+02-4.65623E+01-1.26031E+02 1.50102E-13-2.82441E-13
 -1       216 2.79470E+02-2.44798E+02-6.89024E+01-2.51199E+02-9.76996E-14-1.47438E-13
 -1       217 1.37307E+02-2.36840E+02-8.09330E+01-1.35639E+02 1.21680E-13 2.98428E-13
 -1       218 1.12475E+03-3.24827E+02-1.71869E+01-2.78299E+02-1.56319E-13-1.41220E-13
 -1       219 8.37752E+02-3.66150E+02-5.12346E+01-3.37045E+02-3.94351E-13-4.19220E-13
 -1       220 6.77587E+02-2.61958E+02-3.64688E+01-3.46266E+02-3.90799E-14-2.13163E-14
 -1       221 9.25475E+02-2.35633E+02-1.67121E+01-3.18640E+02-3.80140E-13 1.00808E-13
 -1       222 9.01942E+02-3.02234E+02-2.65415E+01-3.36477E+02 1.20792E-13-5.95413E-13
 -1       223 1.45550E+03-3.04101E+02-2.65997E-01-1.17410E+02-2.09610E-13-3.21521E-13
 -1       224 1.66595E+03-1.72733E+02 2.07905E+01 5.04832E+01 4.19220E-13 4.44089E-13
 -1       225 1.68766E+03-8.35475E+01 5.73180E+01-1.87836E+02 5.48894E-13 3.19744E-14
 -1       226 1.19276E+03-3.13649E+02-3.14714E+01-2.71604E+02-1.38556E-13-2.66454E-13
 -1       227 1.53869E+03-2.47373E+02 1.15800E+01-1.25032E+02-4.72511E-13 2.38032E-13
 -1       228 2.06944E+03 1.85673E+02 1.51639E+02-3.06417E+02-3.09086E-13-4.90274E-13
 -1       229 1.02565E+03 2.97434E+01-1.67349E+01-4.03299E+02-1.81188E-13-2.30926E-13
 -1       230 1.66543E+03 1.48646E+02 1.05873E+02-4.30495E+02 2.52243E-13 1.08713E-12
 -1       231 2.62961E+03 2.69779E+02 2.49350E+02-2.89089E+02 1.38911E-12-1.19371E-12
 -1       232 2.29928E+03 3.91894E+02 1.77663E+02 1.66231E+01-5.00933E-13-3.62377E-13
 -1       233 2.90413E+03 3.54867E+02 3.15784E+02-1.24419E+02 2.30926E-13 1.41043E-12
 -1       234 5.79469E+02 4.45929E+01-7.97982E+00-1.67673E+02-5.10703E-13 1.63425E-13
 -1       235 7.87268E+02-1.98724E+01-5.68748E+00-2.55753E+02-1.77636E-14 1.80300E-13
 -1       236 6.73923E+02 1.31586E+01-6.95369E+00-2.24979E+02 1.21680E-13-3.80140E-13
 -1       237 1.30021E+03-1.40621E+02 2.47011E+00-1.27792E+02-6.39488E-14 4.38982E-13
 -1       238 1.25946E+03-2.31128E+02-5.20967E+00-1.74651E+02 5.56000E-13 2.20268E-13
 -1       239 1.06922E+03-1.79627E+02-7.06377E+00-2.59162E+02-4.38760E-13 1.54654E-13
 -1       240 1.15775E+03-1.13761E+02-8.72541E-01-2.06164E+02 7.26530E-13 7.88467E-14
 -1       241 1.20101E+03-1.70789E+02-2.77234E+00-1.95198E+02 2.50466E-13 8.14904E-14
 -1       242 1.02018E+03-6.40332E+01-2.25950E+00-2.43214E+02 6.96332E-13-4.01457E-13
 -1       243 1.21277E+03-5.84525E+01 4.23679E+00-1.72553E+02 2.27374E-13-4.45644E-13
 -1       244 1.12260E+03-6.72770E+01 3.49051E-01-2.11440E+02-6.75016E-14-2.89102E-13
 -1       245 1.37801E+03-2.05983E+01 2.06056E+01-9.20240E+01-4.26326E-13 3.93907E-13
 -1       246 1.33364E+03-6.53688E+01 1.05628E+01-1.08680E+02-2.13163E-13 6.90559E-14
 -1       247 1.29519E+03-4.09243E+01 1.03916E+01-1.31965E+02-4.36096E-13-5.95968E-13
 -1       248 1.50927E+03-6.19134E+00 4.14900E+01-3.59409E+01 3.63265E-13 6.98108E-13
 -1       249 1.47100E+03-3.67448E+00 3.79627E+01-5.11137E+01 5.55112E-13 1.33227E-15
 -1       250 9.11182E+02-1.00988E+02-6.84423E+00-2.80420E+02-1.79412E-13 4.83613E-13
 -1       251 9.06625E+02-4.74045E+01-4.16829E+00-2.60302E+02-8.10019E-13-9.50351E-14
 -1       252 1.53827E+03-1.20957E+01 3.91467E+01 1.81269E+01 7.63833E-14-7.21201E-13
 -1       253 1.44587E+03-4.69130E+01 2.17709E+01-3.36582E+01 6.30607E-14-2.66454E-13
 -1       254 1.53345E+03-9.17334E+00 4.22824E+01-1.29371E+01-2.63789E-13-2.23155E-13
 -1       255 1.45215E+03-2.20930E+02 1.15984E+00-1.41027E+01 5.32907E-13-6.27054E-13
 -1       256 1.41998E+03-1.21891E+02 9.08346E+00-2.09883E+01 0.00000E+00-2.59792E-13
 -1       257 1.48414E+03-6.38392E+01 1.66516E+01 7.13330E+01-2.72671E-13-3.49942E-13
 -1       258 1.47231E+03-1.37579E+02 8.23342E+00 5.14626E+01-1.23457E-13-7.63833E-14
 -1       259 1.37468E+03-9.44678E+01 9.87547E+00-7.20861E+01 7.81597E-14 2.97096E-13
 -1       260 1.47692E+03-1.25128E+01 1.80539E+01 9.15329E+01-1.77858E-13 4.44783E-13
 -1       261 1.40606E+03-8.65438E+00-1.07393E+00 1.20011E+02 7.64833E-13-2.99316E-13
 -1       262 1.52162E+03-1.31937E+01 3.16674E+01 5.45843E+01-1.06581E-13 3.68816E-13
 -1       263 9.13639E+02-1.63971E+02-1.11582E+01-3.00852E+02-1.06581E-13-2.68230E-13
 -1       264 5.22068E+02-3.62134E+02-1.12548E+02-2.75760E+02 7.10543E-14-3.44613E-13
 -1       265 3.94579E+02-3.50985E+02-8.33349E+01-3.09373E+02-2.06057E-13-5.43565E-13
 -1       266 4.51242E+02-4.06568E+02-1.02120E+02-2.92737E+02-1.56319E-13-5.01876E-13
 -1       267 1.34033E+03-2.92312E+02-6.92392E+00-1.48481E+02-1.95399E-14-2.15827E-13
 -1       268 1.92776E+03 2.38072E+02 8.35965E+01 1.10190E+02-4.56524E-13-4.54747E-13
 -1       269 1.86250E+03 7.61732E+01 6.39839E+01 1.15076E+02-1.04272E-12 7.81597E-14
 -1       270 2.10866E+03 1.90299E+02 1.22597E+02-2.78936E+01-2.13163E-14-8.84626E-13
 -1       271 4.38396E+02 2.94279E+01-1.54519E+01-1.01587E+02 6.27498E-13-3.90799E-14
 -1       272 5.17207E+02 6.68172E+01-8.67307E+00-8.96581E+01 4.79616E-14 9.34364E-13
 -1       273 3.49318E+02-2.50103E+01-2.69214E+01-1.14262E+02 6.75016E-14 7.99361E-14
 -1       274 1.93206E+03 3.23060E+02 9.44267E+01 6.83690E+01 5.00933E-13 9.89431E-13
 -1       275 6.87217E+02-2.50217E+02-1.06437E+02-2.96796E+02-8.73968E-13 4.51195E-13
 -1       276 4.66699E+02-2.48661E+02-5.19287E+01-3.18455E+02-3.73035E-13-1.26121E-13
 -1       277 1.70178E+03-5.27654E+01 2.73354E+01 1.55012E+02-1.00675E-12 6.67910E-13
 -1       278 1.54485E+03-1.64208E+02 8.23912E+00 1.00359E+02 1.33937E-12 7.31859E-13
 -1       279 1.52803E+03-1.02682E+02 7.95532E+00 1.57510E+02-2.06946E-13 2.90257E-12
 -1       280 1.56364E+03-9.90842E+01 8.72647E+00 1.72969E+02-3.07027E-12 1.90781E-12
 -1       281 1.59262E+03-1.55473E+02 1.38506E+01 1.13788E+02 1.02673E-12-8.52651E-13
 -1       282 1.49598E+03-9.56173E+01 6.71009E+00 1.29808E+02-1.52767E-12 5.43565E-13
 -1       283 1.46925E+03-5.12069E+01 5.49326E+00 1.50510E+02-2.55795E-13 9.76996E-13
 -1       284 1.48815E+03-6.07879E+01 2.45985E+00 1.80244E+02-1.78080E-13 2.38387E-12
 -1       285 1.43530E+03-2.70999E+01-4.34507E+00 1.84539E+02 2.27018E-12 8.62421E-13
 -1       286 1.45336E+03-1.70356E+01-4.68248E+00 2.05590E+02 3.78364E-12 2.22045E-13
 -1       287 1.51525E+03-4.81230E+01 4.48501E+00 2.01314E+02 2.07834E-13 4.04299E-12
 -1       288 1.53781E+03-2.67828E+01 5.81816E+00 2.12835E+02 1.01252E-12 1.54543E-12
 -1       289 1.60083E+03-6.80477E+01 1.53156E+01 1.85659E+02-4.25615E-12 5.62039E-12
 -1       290 5.65232E+02-1.68955E+01-1.45317E+01-2.22029E+02-7.24754E-13-4.76064E-13
 -1       291 6.03823E+02-5.98389E+01-1.55816E+01-2.65230E+02-5.32907E-13 1.30029E-12
 -1       292 5.02312E+02-7.43596E+01-2.40567E+01-2.46927E+02-1.42109E-12 1.21503E-12
 -1       293 4.77909E+02-2.18644E+01-1.85974E+01-1.99871E+02 4.01457E-13 1.91847E-13
 -1       294 6.95109E+02-5.30308E+01-1.13253E+01-2.68744E+02-4.29878E-13 3.55271E-15
 -1       295 7.54577E+02-9.85369E+01-1.19158E+01-2.95014E+02-6.18172E-13 2.48690E-14
 -1       296 6.56004E+02-1.12247E+02-1.87642E+01-2.95625E+02 3.83693E-13 1.33937E-12
 -1       297 7.28580E+02-1.64708E+02-1.96911E+01-3.20755E+02-2.13163E-13 1.10845E-12
 -1       298 6.14035E+02-1.86783E+02-3.06054E+01-3.20311E+02 6.11067E-13-2.48690E-14
 -1       299 5.50361E+02-1.26323E+02-2.61280E+01-2.91342E+02-3.90799E-13 1.79767E-12
 -1       300 4.32332E+02-1.52311E+02-3.95094E+01-2.69770E+02-1.54898E-12 7.38964E-13
 -1       301 4.01429E+02-8.77419E+01-3.13979E+01-2.21498E+02-3.73035E-13 1.23634E-12
 -1       302 1.44429E+03 1.64518E+02-1.42738E+00 5.35664E+01 6.03961E-13-4.73399E-13
 -1       303 1.36224E+03 1.16349E+02-1.88165E+01 9.52183E+01 3.69482E-12 1.04805E-13
 -1       304 1.24225E+03 8.02374E+01-4.40894E+01 4.22435E+01 8.10019E-13-2.75335E-13
 -1       305 1.65862E+03 2.56145E+02 4.05863E+01 5.64148E+01 1.56319E-13 1.95755E-12
 -1       306 1.57121E+03 1.96742E+02 2.04050E+01 1.07552E+02-3.68772E-12-4.08562E-13
 -1       307 1.71933E+03 2.09292E+02 4.71815E+01 1.45875E+02-4.40536E-13-1.25766E-12
 -1       308 1.61979E+03 1.31802E+02 2.40911E+01 1.83548E+02-1.28608E-12-1.00897E-12
 -1       309 1.49404E+03 1.39519E+02 5.80426E+00 1.48521E+02-3.76588E-13 6.44818E-13
 -1       310 1.41141E+03 8.30229E+01-1.13211E+01 1.71002E+02-3.19744E-13 5.00933E-13
 -1       311 1.28238E+03 6.73762E+01-3.61580E+01 1.19863E+02 8.31335E-13-2.42029E-12
 -1       312-1.84129E+01-4.58250E+02-1.46912E+02-6.15034E+01 7.70939E-13 4.97380E-13
 -1       313-6.06563E+00-5.94856E+02-1.76796E+02-8.60604E+01 1.30740E-12 1.35003E-13
 -1       314-1.08006E+02-8.50902E+02-2.56631E+02-2.09114E+01 1.37845E-12 6.53699E-13
 -1       315 9.59841E+01-4.29499E+02-1.29746E+02-1.79977E+02 1.49925E-12-1.42109E-13
 -1       316 1.51099E+02-5.14706E+02-1.49320E+02-1.88211E+02 3.12639E-13 0.00000E+00
 -1       317 8.75613E+00-7.25727E+02-2.19363E+02-7.59942E+01 1.17950E-12-1.74083E-13
 -1       318-1.85500E+01-7.14840E+02-2.56414E+02 6.47824E+01 6.25278E-13-1.84741E-13
 -1       319-5.21096E+01-1.05044E+03-3.05091E+02 8.86178E+01 1.52767E-12-2.80664E-13
 -1       320 1.02231E+03 1.80914E+01-9.77895E+01 2.73298E+01-1.43530E-12-1.23612E-12
 -1       321 9.12720E+02 9.00520E+00-1.24916E+02 3.06386E+01 2.94875E-13 8.41549E-13
 -1       322 1.15528E+03 4.86612E+01-6.32695E+01 7.05851E+01-3.24718E-12-6.12399E-13
 -1       323 1.21513E+03 3.48738E+01-5.02266E+01 1.28517E+02 2.12808E-12 1.53855E-12
 -1       324 1.07650E+03 1.51043E+01-8.44047E+01 7.81387E+01-2.66454E-13 1.97686E-12
 -1       325 1.00431E+03 6.49268E+00-1.01593E+02 5.61130E+01 1.62004E-12 2.31370E-12
 -1       326 1.68121E+03 9.28049E+01 2.98202E+01 1.93535E+02-1.19371E-12-2.30216E-12
 -1       327 1.57293E+03 4.40171E+01 1.27372E+01 2.14106E+02 6.85674E-13-2.01439E-12
 -1       328 1.50644E+03 7.27457E+01 3.63209E+00 2.03286E+02 3.69482E-13-1.38556E-13
 -1       329 1.60788E+03-1.58200E+00 1.40906E+01 2.09387E+02-2.16005E-12-2.16716E-12
 -1       330 1.49645E+03 5.40194E+00 2.26830E-01 2.16413E+02 1.57740E-12-2.95586E-12
 -1       331 1.38656E+03 4.21187E+00-1.57773E+01 1.93914E+02 3.48521E-12-1.85540E-12
 -1       332 1.43163E+03 3.02998E+01-9.03261E+00 2.04901E+02 2.21689E-12-6.76792E-13
 -1       333 1.33362E+03 3.83351E+01-2.66155E+01 1.73392E+02 1.16529E-12 2.81108E-12
 -1       334 1.36002E+03-8.51289E+00-1.79701E+01 1.65996E+02 4.92051E-12-7.31859E-13
 -1       335 1.26021E+03 8.07700E-01-3.86261E+01 1.29566E+02 1.70886E-12 2.04725E-12
 -1       336 1.28624E+03 1.34676E+01-3.47426E+01 1.60906E+02 8.66862E-13 1.18505E-12
 -1       337 1.26414E+03-2.09843E+00-3.60889E+01 7.27486E+01-1.41220E-12-3.87246E-13
 -1       338 1.12857E+03 2.27061E+00-7.02552E+01 7.04998E+01 3.16547E-12 1.25411E-12
 -1       339 1.16135E+03 8.64457E+00-6.33550E+01 1.14361E+02 1.15108E-12 1.59162E-12
 -1       340 8.91655E+01-3.24605E+02-1.02643E+02-1.29000E+02 7.46070E-13 2.77112E-13
 -1       341 1.96302E+02-2.45004E+02-7.75668E+01-1.93228E+02-4.26326E-14 1.91847E-13
 -1       342 2.40649E+02-3.13900E+02-8.68462E+01-2.43357E+02-2.13163E-13-1.93268E-12
 -1       343 1.00392E+02-2.38194E+02-8.55692E+01-6.78515E+01 1.66978E-13 2.62901E-13
 -1       344 2.17021E+02-1.06421E+02-5.06578E+01-6.32122E+01-3.35731E-13 2.13163E-14
 -1       345 1.96888E+02-1.63335E+02-6.00813E+01-1.29907E+02 3.19744E-14-6.39488E-14
 -1       346 2.91968E+02-1.23609E+02-4.69255E+01-1.80082E+02 2.41585E-13 3.19744E-13
 -1       347 3.21563E+02-1.82286E+02-5.25811E+01-2.40857E+02-7.74492E-13 1.56319E-13
 -1       348 1.11510E+03-2.87334E+02-1.38128E+01-2.67847E+02 3.19744E-13-1.03029E-12
 -1       349 1.00973E+03-3.14602E+02-2.30532E+01-3.08767E+02 6.25278E-13-9.34364E-13
 -1       350 9.11449E+02-2.68443E+02-2.19793E+01-3.25815E+02-7.10543E-14-2.72227E-13
 -1       351 1.02036E+03-2.41476E+02-1.27628E+01-2.90945E+02 4.61853E-13-2.79776E-14
 -1       352 1.11983E+03-3.45314E+02-2.20550E+01-2.84669E+02 3.69482E-13-2.77112E-13
 -1       353 9.63049E+02-3.71098E+02-4.49933E+01-3.17780E+02-8.24230E-13-8.41993E-13
 -1       354 8.78800E+02-3.31795E+02-3.48932E+01-3.34671E+02-7.10543E-13-1.56142E-12
 -1       355 7.24316E+02-3.50949E+02-5.43225E+01-3.43476E+02-9.94760E-13-1.37201E-12
 -1       356 6.52784E+02-2.90509E+02-4.38341E+01-3.45052E+02-6.25278E-13-1.12088E-12
 -1       357 7.80444E+02-2.87054E+02-3.48129E+01-3.42138E+02-1.09424E-12-2.38032E-13
 -1       358 6.95886E+02-2.31018E+02-3.05853E+01-3.39268E+02-3.12639E-13 4.79616E-13
 -1       359 8.19083E+02-2.20249E+02-2.13430E+01-3.27398E+02-1.18661E-12 5.27578E-13
 -1       360 1.30932E+03-3.23705E+02-8.79879E+00-2.07490E+02 8.17124E-13-4.68958E-13
 -1       361 1.48599E+03-2.90036E+02-4.35691E-03-1.16997E+02 1.42109E-14 1.08002E-12
 -1       362 1.39915E+03-2.59258E+02 3.05548E+00-1.98993E+02-1.84741E-13-4.05009E-13
 -1       363 1.13966E+03-3.51240E+02-3.63198E+01-2.83027E+02-4.83169E-13-1.00897E-12
 -1       364 1.53181E+03-2.45514E+02 8.46719E+00-2.04487E+01-5.96856E-13-1.13687E-13
 -1       365 1.60479E+03-2.00986E+02 9.85381E+00 6.17791E+01-2.48690E-13-5.40012E-13
 -1       366 1.63087E+03-1.98656E+02 2.42254E+01-3.31249E+01 3.87246E-13-5.11591E-13
 -1       367 1.73141E+03-1.24814E+02 3.38992E+01 1.36064E+01-3.65930E-13 1.67688E-12
 -1       368 1.76967E+03-5.39797E+01 6.28758E+01-1.13164E+02-1.86873E-12 1.46372E-12
 -1       369 1.58461E+03-1.90110E+02 2.08284E+01-1.48855E+02-1.14397E-12-9.09495E-13
 -1       370 1.51016E+03-1.09410E+02 2.90108E+01-2.45785E+02 5.96856E-13 3.97904E-13
 -1       371 1.25886E+03-2.36078E+02-1.55997E+01-2.79996E+02-2.55795E-13-8.24230E-13
 -1       372 1.91703E+03 4.29868E+01 8.97370E+01-1.59227E+02-2.84217E-14 1.00897E-12
 -1       373 1.86840E+03 1.80592E+02 1.30124E+02-3.81607E+02-1.57030E-12 2.24532E-12
 -1       374 1.64289E+03 3.78165E+00 6.29303E+01-2.97702E+02 0.00000E+00 1.05160E-12
 -1       375 2.23469E+03 2.72563E+02 1.99807E+02-6.27622E+02-4.22773E-13-1.70530E-13
 -1       376 1.49755E+03 3.23722E+02 1.01212E+02-6.34357E+02 1.66267E-12 2.17426E-12
 -1       377 7.81293E+02 2.32219E+02-1.64332E+01-4.27323E+02-3.21165E-12-7.95808E-13
 -1       378 1.32019E+03 9.51485E+01 3.70314E+01-4.26262E+02 1.09424E-12-8.52651E-13
 -1       379 1.21224E+03-4.28987E+01 6.07338E+00-3.47583E+02 8.52651E-13 9.37916E-13
 -1       380 2.70459E+03 3.67821E+02 3.15461E+02-6.44421E+02 1.97709E-12-1.57740E-12
 -1       381 2.74692E+03 2.81048E+02 2.63278E+02-2.28920E+02 1.21858E-12-6.39488E-14
 -1       382 3.22470E+03 2.41142E+02 3.71532E+02-3.83475E+02 3.46567E-12 2.38032E-12
 -1       383 2.46651E+03 3.14294E+02 2.11883E+02-1.26955E+02 1.39266E-12 7.10543E-13
 -1       384 2.28510E+03 3.53721E+02 1.67548E+02 9.18821E+00-2.62901E-12 4.94538E-12
 -1       385 2.54441E+03 3.52597E+02 2.20951E+02-5.81707E+01-2.17426E-12 2.02505E-12
 -1       386 2.27799E+03 4.03017E+02 1.73001E+02 1.06556E+01-1.71241E-12-1.80833E-12
 -1       387 2.90543E+03 3.67153E+02 3.09800E+02-6.54839E+01 1.05160E-12 2.31637E-12
 -1       388 5.46849E+02 2.57513E+01-1.08667E+01-1.77762E+02-2.20268E-13-1.02318E-12
 -1       389 6.22059E+02 2.71586E+01-8.63786E+00-1.97044E+02-2.09610E-13 1.20792E-13
 -1       390 6.51749E+02-8.07263E+00-9.12268E+00-2.37814E+02-2.41585E-13-3.65930E-13
 -1       391 6.08906E+02 6.00140E+01-6.23325E+00-1.57525E+02-9.05942E-13 1.01608E-12
 -1       392 6.95399E+02 3.14239E+01-5.24404E+00-2.11893E+02-1.74083E-13-8.88178E-13
 -1       393 7.99301E+02 1.17923E+00-3.97946E+00-2.42455E+02-3.26850E-13-1.77636E-14
 -1       394 7.28458E+02-4.18511E+00-6.72384E+00-2.41079E+02 4.19220E-13-6.11067E-13
 -1       395 7.77556E+02-4.32384E+01-7.00361E+00-2.68270E+02-2.55795E-13 1.74083E-13
 -1       396 1.27703E+03-1.16502E+02 4.05345E+00-1.42187E+02-2.45137E-13 5.29354E-13
 -1       397 1.25596E+03-1.53804E+02 1.42782E+00-1.60691E+02 4.97380E-13 7.29194E-13
 -1       398 1.18047E+03-1.40066E+02-4.97961E-01-2.00424E+02 8.24230E-13 5.36904E-13
 -1       399 1.20844E+03-1.03319E+02 2.43375E+00-1.80393E+02 4.54747E-13-7.70051E-13
 -1       400 1.33121E+03-1.62890E+02 2.85360E+00-1.07481E+02 1.70530E-13 1.41576E-12
 -1       401 1.31987E+03-2.05004E+02 1.05694E+00-1.28861E+02-8.66862E-13 3.97904E-13
 -1       402 1.23183E+03-1.99214E+02-2.28348E+00-1.84532E+02 6.82121E-13 5.39124E-13
 -1       403 1.19417E+03-2.36647E+02-4.77685E+00-2.17967E+02 9.59233E-13-1.38556E-13
 -1       404 1.08924E+03-2.12618E+02-7.75313E+00-2.59513E+02 3.97904E-13 1.14142E-12
 -1       405 1.14104E+03-1.73083E+02-2.98805E+00-2.26880E+02 4.54747E-13 5.04707E-13
 -1       406 1.05734E+03-1.45646E+02-4.38405E+00-2.54461E+02 2.84217E-13-4.21885E-14
 -1       407 1.10470E+03-1.13747E+02-1.14091E+00-2.28635E+02 9.94760E-13-3.11751E-13
 -1       408 1.14126E+03-8.83185E+01 8.68153E-01-2.08617E+02 8.91731E-13-1.57674E-12
 -1       409 1.16990E+03-6.21079E+01 2.96154E+00-1.91602E+02 1.50280E-12-1.01363E-12
 -1       410 1.23335E+03-7.52553E+01 4.80232E+00-1.64326E+02 4.76064E-13-7.44294E-13
 -1       411 1.03283E+03-8.78769E+01-2.10007E+00-2.46790E+02-9.94760E-14-1.29763E-12
 -1       412 1.07400E+03-6.47313E+01-1.82918E-02-2.27208E+02 4.12115E-13 1.03473E-13
 -1       413 1.01449E+03-4.11676E+01-6.94785E-01-2.36828E+02-6.39488E-14 3.29603E-12
 -1       414 1.11095E+03-4.66749E+01 1.62971E+00-2.10332E+02-5.40012E-13-2.68674E-14
 -1       415 1.19744E+03-4.20534E+01 4.98570E+00-1.76060E+02 4.97380E-14-2.09788E-12
 -1       416 1.25493E+03-4.94642E+01 7.34180E+00-1.51694E+02-3.51719E-13-1.41798E-12
 -1       417 1.31490E+03-5.23197E+01 1.08921E+01-1.20671E+02-1.44595E-12-1.09068E-12
 -1       418 1.29453E+03-7.98424E+01 7.29475E+00-1.31410E+02-1.27898E-13-1.19016E-13
 -1       419 1.27761E+03-3.00794E+01 1.03527E+01-1.38281E+02-7.85150E-13-1.47971E-12
 -1       420 1.35810E+03-1.54234E+01 1.94132E+01-9.86017E+01-2.13163E-14 1.38556E-13
 -1       421 1.33568E+03-3.13599E+01 1.45611E+01-1.11425E+02-1.69820E-12-8.05578E-13
 -1       422 1.39631E+03-2.67120E+01 2.11924E+01-8.07842E+01-9.16600E-13-5.17808E-13
 -1       423 1.37294E+03-4.98162E+01 1.51390E+01-8.80125E+01-2.39453E-12 2.54907E-13
 -1       424 1.44705E+03-3.01278E+00 3.50866E+01-5.51024E+01 5.93303E-13 2.68230E-13
 -1       425 1.42142E+03-1.36961E+01 2.70779E+01-7.11730E+01 4.01457E-13-1.51879E-13
 -1       426 1.52318E+03-2.64887E+00 4.90878E+01-2.66077E+01 3.01092E-12-3.07310E-13
 -1       427 1.56491E+03-4.11847E+00 5.35504E+01-1.86085E+01 7.71827E-13 7.67386E-13
 -1       428 1.48977E+03-5.56562E+00 3.92241E+01-4.34610E+01 9.50351E-13-3.20632E-13
 -1       429 1.45752E+03-2.16677E+01 2.88862E+01-5.18469E+01 2.34479E-13 2.94875E-13
 -1       430 9.08980E+02-2.45371E+01-2.47930E+00-2.49469E+02-7.56728E-13-8.89955E-13
 -1       431 8.47190E+02-3.36045E+01-4.60272E+00-2.58565E+02-6.96332E-13-2.06057E-13
 -1       432 9.65298E+02-5.50735E+01-2.41665E+00-2.51983E+02-1.66622E-12 5.02709E-13
 -1       433 9.80052E+02-1.07863E+02-4.47005E+00-2.66244E+02-6.39488E-14 1.10134E-13
 -1       434 9.09508E+02-7.18490E+01-4.63441E+00-2.69431E+02-1.00542E-12 8.36664E-13
 -1       435 8.39316E+02-8.59060E+01-7.85944E+00-2.82383E+02-1.00897E-12 4.47642E-13
 -1       436 1.58838E+03-5.81757E+00 5.44281E+01-6.40862E+00 6.46594E-13-9.91207E-13
 -1       437 1.52087E+03-8.69180E+00 4.11933E+01-2.47962E+01 2.30926E-13 3.54383E-13
 -1       438 1.58684E+03-7.44911E+00 5.01805E+01 1.01539E+01 1.52589E-12-1.38467E-12
 -1       439 1.53534E+03-1.20078E+01 3.98936E+01 1.71466E+00 5.82645E-13-2.29772E-12
 -1       440 1.49702E+03-3.93282E+01 2.56137E+01 1.69051E+01 1.30207E-12-1.20881E-12
 -1       441 1.45726E+03-5.43312E+01 2.03895E+01-1.10956E+01-2.84217E-13-6.53699E-13
 -1       442 1.48390E+03-3.08123E+01 2.85823E+01-2.24756E+01-4.83169E-13-1.07647E-12
 -1       443 1.43016E+03-4.01925E+01 2.16820E+01-5.20628E+01-1.11910E-12-4.61853E-14
 -1       444 1.50415E+03-2.20012E+02 3.28918E+00 2.67135E+01 7.88702E-13 6.11067E-13
 -1       445 1.46650E+03-1.76645E+02 5.59983E+00 2.03861E+01 3.12639E-13-1.14753E-12
 -1       446 1.49491E+03-1.37152E+02 6.96015E+00 8.83102E+01 8.17124E-14-7.49623E-13
 -1       447 1.40640E+03-2.05764E+02 2.04718E+00-5.12246E+01-7.10543E-14-1.88116E-12
 -1       448 1.39384E+03-1.52463E+02 5.75457E+00-5.20445E+01 1.63425E-12-3.53495E-13
 -1       449 1.44451E+03-1.32934E+02 7.80934E+00 1.31190E+01 5.25802E-13-5.86198E-13
 -1       450 1.44281E+03-9.20589E+01 1.27529E+01-2.44922E+00-9.91207E-13-8.39329E-13
 -1       451 1.47592E+03-6.39783E+01 1.73514E+01 4.09332E+01 3.23297E-13-2.36433E-12
 -1       452 1.47457E+03-1.02859E+02 1.00076E+01 6.20792E+01 6.11067E-13-5.52447E-13
 -1       453 1.48151E+03-6.40169E+01 1.24141E+01 9.84417E+01-6.59028E-13 1.38378E-12
 -1       454 1.34017E+03-1.16692E+02 6.60988E+00-9.88326E+01-7.49623E-13 8.50875E-13
 -1       455 1.39681E+03-1.08864E+02 9.44485E+00-4.78525E+01-3.26850E-13-4.31655E-13
 -1       456 1.35459E+03-7.93500E+01 1.06570E+01-9.11635E+01-7.95808E-13 1.12088E-12
 -1       457 1.40903E+03-7.15002E+01 1.45450E+01-5.18174E+01-1.03739E-12-2.21156E-13
 -1       458 1.42603E+03-2.72421E+01-2.04049E+00 1.47249E+02 4.18332E-13 8.03801E-14
 -1       459 1.35862E+03-6.49724E+00-1.37197E+01 1.24690E+02 2.03038E-12-3.51563E-12
 -1       460 1.47117E+03-3.96000E+01 1.04353E+01 1.10702E+02 4.47642E-13 4.91607E-13
 -1       461 1.44107E+03-1.19592E+01 7.76692E+00 1.03607E+02 2.49578E-13 6.53255E-13
 -1       462 1.48945E+03-7.86343E+00 2.14783E+01 4.95253E+01-2.11609E-12-2.22045E-14
 -1       463 1.39019E+03-5.63999E+00-4.15663E+00 6.49464E+01 2.38809E-12-1.16884E-12
 -1       464 1.49863E+03-1.45889E+01 2.39313E+01 7.12096E+01-8.39329E-13-1.40443E-13
 -1       465 1.55557E+03-8.20773E+00 3.96864E+01 2.96448E+01 8.08242E-14 1.05721E-12
 -1       466 1.49489E+03-4.27004E+01 1.99174E+01 6.34922E+01-1.06404E-12-5.07150E-13
 -1       467 1.52942E+03-1.43800E+01 3.44775E+01 3.50523E+01 2.75335E-13 1.58984E-13
 -1       468 9.94881E+02-1.70606E+02-7.83790E+00-2.80261E+02 3.55271E-13 3.48166E-13
 -1       469 9.12984E+02-1.30146E+02-8.08044E+00-2.89385E+02-5.32907E-13 6.67910E-13
 -1       470 9.18692E+02-1.98250E+02-1.34114E+01-3.08475E+02-2.41585E-13 8.34888E-13
 -1       471 8.27482E+02-1.47425E+02-1.31437E+01-3.05983E+02-1.30740E-12 1.21148E-12
 -1       472 8.63408E+02-3.53053E+02-5.87249E+01-2.97608E+02-1.71951E-12-1.87583E-12
 -1       473 4.81578E+02-4.16035E+02-1.14724E+02-2.89594E+02 2.98428E-13-2.91323E-12
 -1       474 6.73917E+02-3.79488E+02-6.71603E+01-3.26653E+02-3.12639E-13-8.02025E-13
 -1       475 2.06605E+02-4.89921E+02-1.89338E+02-3.47832E+01 1.42109E-12-8.31335E-13
 -1       476 2.80124E+02-4.91484E+02-1.37681E+02-2.19244E+02-6.25278E-13-3.90799E-13
 -1       477 2.92387E+02-3.71350E+02-9.70334E+01-2.72021E+02-2.06057E-13-1.27898E-12
 -1       478 4.18139E+02-3.83510E+02-9.26260E+01-3.07676E+02-9.09495E-13 6.55476E-13
 -1       479 5.17075E+02-3.33143E+02-6.49961E+01-3.29974E+02-1.47793E-12-1.39266E-12
 -1       480 1.24930E+03-3.02789E+02-7.14649E+00-2.14079E+02 3.69482E-13-1.04805E-12
 -1       481 1.39180E+03-3.08667E+02-5.75150E+00-1.31010E+02 3.55271E-14-6.89226E-13
 -1       482 1.30076E+03-2.62702E+02-4.43525E+00-1.60479E+02 2.20268E-13-8.82849E-13
 -1       483 1.41428E+03-2.50132E+02 2.29820E+00-7.81292E+01 5.68434E-13-7.74492E-13
 -1       484 1.81324E+03 1.86317E+02 5.66404E+01 1.46048E+02 1.82609E-12 1.33582E-12
 -1       485 2.05637E+03 2.32582E+02 1.15397E+02 5.60171E+01-2.52243E-12 9.30811E-13
 -1       486 1.96012E+03 1.16665E+02 8.16686E+01 5.36287E+01-1.47438E-12-1.33582E-12
 -1       487 1.81581E+03 1.30393E+02 5.97686E+01 1.55135E+02-4.47642E-13-1.78346E-12
 -1       488 2.06280E+03 2.67868E+02 1.08966E+02 5.97826E+01-5.69855E-12-1.58451E-12
 -1       489 2.27951E+03 2.05853E+02 1.51661E+02-1.41427E+02 4.47642E-13-1.22213E-12
 -1       490 2.16488E+03 2.04001E+02 1.58405E+02-1.55482E+02 1.17062E-12-1.23634E-12
 -1       491 1.87827E+03 3.28766E+01 7.21003E+01 4.54454E+01-6.41265E-13 1.98952E-13
 -1       492 5.41793E+02 5.32795E+01-1.01035E+01-1.29179E+02-6.85674E-13 2.59348E-13
 -1       493 5.51621E+02 8.02913E+01-6.87941E+00-8.41371E+01 7.07878E-13 7.35412E-13
 -1       494 4.67867E+02 1.35315E+01-1.69424E+01-1.46163E+02 2.03570E-12-1.27898E-13
 -1       495 4.78243E+02 4.95490E+01-1.20167E+01-9.51908E+01 9.91207E-13 1.89715E-12
 -1       496 4.17338E+02 3.12875E+01-1.80958E+01-5.10106E+01-3.26850E-13 6.82121E-13
 -1       497 4.99196E+02 6.82244E+01-1.08791E+01-4.50145E+01 1.93001E-12 5.54223E-13
 -1       498 3.00453E+02-6.16274E+01-3.52969E+01-1.19487E+02 3.60600E-13 9.94760E-14
 -1       499 3.85633E+02-4.21624E+01-2.80783E+01-1.63829E+02 1.50990E-12 1.70530E-13
 -1       500 3.23865E+02-2.31812E+01-3.01271E+01-5.73769E+01 5.68434E-13-2.98428E-13
 -1       501 3.94834E+02 4.70006E+00-2.06592E+01-1.07417E+02 9.53904E-13-7.10543E-13
 -1       502 1.94248E+03 2.94714E+02 9.44163E+01 8.99087E+01 3.05533E-13 1.84741E-13
 -1       503 2.08419E+03 3.42041E+02 1.21778E+02 3.97988E+01-1.52767E-12 9.52127E-13
 -1       504 1.79726E+03 2.75105E+02 6.32418E+01 9.00535E+01 2.88480E-12 2.52243E-12
 -1       505 1.90562E+03 3.39479E+02 9.10398E+01 3.69691E+01-5.96856E-13 2.64677E-12
 -1       506 5.81690E+02-3.12679E+02-1.15872E+02-2.77251E+02-1.19371E-12 2.84217E-14
 -1       507 3.99236E+02-1.19925E+02-1.18969E+02-1.66588E+02-6.53699E-13 5.25802E-13
 -1       508 1.01743E+03-2.43384E+02-3.65654E+01-2.93973E+02-1.97531E-12 2.84217E-14
 -1       509 8.36107E+02-1.08341E+02-6.50463E+01-3.49633E+02-1.98952E-12 1.89004E-12
 -1       510 5.67139E+02-2.57013E+02-4.57879E+01-3.32215E+02 1.84741E-13-1.07292E-12
 -1       511 4.94152E+02-2.05864E+02-4.21528E+01-3.10775E+02-5.25802E-13-3.90799E-14
 -1       512 4.33627E+02-2.97899E+02-6.57565E+01-3.13767E+02-4.61853E-13-3.10152E-12
 -1       513 3.66440E+02-2.48963E+02-6.20432E+01-2.84306E+02-1.35003E-12-1.27898E-12
 -1       514 1.76966E+03-5.03725E+00 3.87752E+01 1.40252E+02-1.69109E-12 2.55795E-13
 -1       515 1.68633E+03 1.25544E+01 3.08860E+01 1.88665E+02-1.09779E-12-3.55271E-13
 -1       516 1.70128E+03-9.85854E+01 3.08551E+01 1.07920E+02-1.57918E-12 2.10321E-12
 -1       517 1.64574E+03-1.00030E+02 1.58012E+01 1.57851E+02 3.60822E-13 4.12115E-12
 -1       518 9.50546E+02 1.43526E+02 2.95452E+00-4.85563E+01 2.73948E-14 1.15463E-14
 -1       519 9.90109E+02 3.32912E+01 1.69229E-01-2.02746E+02-1.54543E-13 6.56586E-13
 -1       520 1.10601E+03 1.15487E+01 4.23927E-01-8.06897E+01 1.97176E-13-5.73763E-13
 -1       521 8.31580E+02 1.25452E+02 3.52629E-01-8.49565E+01-8.98170E-13 1.07470E-13
 -1       522 1.00046E+03 9.93501E+01 1.63397E+00-6.00159E+01 3.86358E-14-2.67675E-13
 -1       523 1.01641E+03 1.67825E+01-6.33728E+00-2.60258E+01-2.32370E-13-2.11720E-13
 -1       524 1.25298E+03 1.99258E+00 1.18366E+01-1.11462E+02-2.57572E-13 5.67102E-13
 -1       525 9.86677E+02 1.74611E+02 8.75935E+00-2.97348E+01-3.07643E-13-9.14824E-14
 -1       526 7.46122E+02 1.11331E+02-8.20530E-01-1.10923E+02-5.97300E-13 1.09246E-13
 -1       527 1.00999E+03 5.39608E+01-2.48042E+00-5.08759E+01 9.01501E-14-3.00981E-13
 -1       528 1.12558E+03 1.01561E+01 3.27077E+00-1.75413E+02-1.15463E-14 2.13829E-13
 -1       529 9.92217E+02 1.43086E+02 5.74684E+00-5.18030E+01-1.15463E-13 3.46168E-13
 -1       530 8.98862E+02 1.31864E+02 1.13842E+00-6.54686E+01-2.22378E-13-9.63674E-14
 -1       531 1.17356E+03 8.25103E+00 5.57455E+00-1.00414E+02 2.87770E-13-2.40252E-13
 -1       532 8.99231E+02 9.58856E+01 2.10166E-01-1.45887E+02 4.17888E-13 1.82521E-13
 -1       533 8.53842E+02 7.20665E+01-7.64454E-01-1.83630E+02 3.63265E-13 4.48086E-13
 -1       534 1.05341E+03 1.46475E+01-3.31422E+00-5.55345E+01-2.39364E-13-1.90514E-13
 -1       535 1.05564E+03 4.00835E+01 3.74037E-01-1.24118E+02 8.59313E-13-5.16587E-13
 -1       536 9.70605E+02 1.19370E+02 1.98683E+00-8.49048E+01 4.38337E-13 4.74953E-13
 -1       537 9.90247E+02 6.06139E+01 4.61976E-01-1.69433E+02 8.21565E-14-2.71783E-13
 -1       538 1.08598E+03 2.98740E+01 1.78134E+00-1.53897E+02 2.17160E-13 6.17062E-13
 -1       539 9.39112E+02 1.07275E+02 7.91229E-01-1.14241E+02 5.75096E-13-3.83249E-13
 -1       540 1.03085E+03 4.80456E+01-7.89566E-01-8.97540E+01-2.73198E-13-1.11799E-13
 -1       541 9.95315E+02 7.42368E+01 4.71251E-01-1.35159E+02-1.40776E-13 3.02314E-13
 -1       542 9.99428E+02 8.53303E+01 6.86900E-01-9.99904E+01-3.69857E-13-4.13447E-13
 -1       543 9.97705E+02 7.96081E+01 5.25684E-01-1.17804E+02 2.16605E-13 2.28817E-13
 -1       544 1.01532E+03 6.66783E+01-1.75750E-02-9.80754E+01 9.73527E-14-2.19734E-13
 -1       545 1.04271E+03 4.40882E+01-2.25619E-01-1.07433E+02 3.11307E-13 2.14384E-13
 -1       546 1.02575E+03 5.68868E+01 3.89348E-01-1.33679E+02-1.31894E-13 5.19182E-13
 -1       547 1.02046E+03 6.17670E+01 1.65631E-01-1.16244E+02-4.46643E-13-3.90431E-13
 -1       548 1.06993E+03 3.56138E+01 1.04617E+00-1.39709E+02 8.03801E-13-2.40918E-13
 -1       549 1.03846E+03 4.42724E+01 9.28734E-01-1.66403E+02 6.39488E-14 4.73982E-13
 -1       550 9.92632E+02 6.83219E+01 4.68393E-01-1.52344E+02 1.39000E-13 2.15716E-13
 -1       551 1.03156E+03 5.14017E+01 6.52576E-01-1.50449E+02 2.62457E-13-4.01568E-13
 -1       552 1.04440E+03 3.03187E+01-1.77348E+00-7.53755E+01 4.39232E-14-6.14175E-13
 -1       553 1.01988E+03 5.17465E+01-1.44401E+00-7.10097E+01 3.42171E-13-2.63067E-13
 -1       554 1.01422E+03 3.38646E+01-4.33329E+00-3.99472E+01 1.11300E-12 2.27929E-13
 -1       555 1.03302E+03 1.62610E+01-4.75869E+00-4.11478E+01-2.28817E-13-1.06581E-13
 -1       556 1.02825E+03 3.29317E+01-2.83130E+00-5.81159E+01 2.91989E-13 1.51879E-13
 -1       557 1.10432E+03 2.17986E+01 2.54225E+00-1.66103E+02 3.09974E-13 7.69274E-13
 -1       558 1.05892E+03 1.94650E+01 1.32106E+00-1.94052E+02-3.69482E-13 1.81077E-13
 -1       559 9.89008E+02 4.95488E+01 3.88514E-01-1.86328E+02-5.85310E-13-1.66311E-13
 -1       560 1.04722E+03 3.41514E+01 1.17216E+00-1.81156E+02-4.09450E-13-6.96665E-14
 -1       561 9.70692E+02 1.55556E+02 5.02393E+00-3.97679E+01-3.03646E-13-1.58096E-13
 -1       562 9.45168E+02 1.50073E+02 3.22298E+00-2.50825E+01 3.42164E-13 7.23865E-14
 -1       563 9.85212E+02 1.83167E+02 9.57988E+00-1.53655E+01 8.78186E-14 1.35003E-13
 -1       564 9.67486E+02 1.62721E+02 5.48786E+00-2.05457E+01 5.84643E-13-1.99840E-13
 -1       565 9.26578E+02 1.36240E+02 1.80112E+00-5.69247E+01 1.61537E-13-2.90434E-13
 -1       566 8.87897E+02 1.38701E+02 1.24780E+00-3.38552E+01 2.02616E-13-8.97060E-13
 -1       567 9.18627E+02 1.42720E+02 1.96448E+00-2.94116E+01-1.67394E-13-2.63789E-13
 -1       568 1.31572E+03 6.57291E-01 2.06962E+01-6.41135E+01 1.11910E-13 3.62821E-13
 -1       569 1.21208E+03 5.70894E+00 8.60636E+00-1.07420E+02 1.11022E-14 2.51799E-13
 -1       570 1.21085E+03 1.68937E+00 9.38886E+00-5.76866E+01-6.28164E-13-6.58584E-13
 -1       571 1.26195E+03 1.28973E+00 1.48132E+01-6.17986E+01-1.08358E-13 8.73079E-13
 -1       572 9.59178E+02 1.33080E+02 2.53141E+00-6.89259E+01-4.48259E-13 2.42473E-13
 -1       573 9.56012E+02 1.12535E+02 1.23311E+00-9.95641E+01 2.18492E-13 3.46834E-13
 -1       574 9.16306E+02 1.21110E+02 9.77068E-01-9.28124E+01-4.22995E-13-2.53575E-13
 -1       575 9.39287E+02 1.25950E+02 1.54864E+00-8.07959E+01-1.28619E-13-7.06102E-14
 -1       576 9.65934E+02 9.13285E+01 6.12673E-01-1.28585E+02 5.48450E-14 8.23119E-13
 -1       577 9.84249E+02 1.03174E+02 1.36014E+00-9.54873E+01-1.94227E-13 2.37810E-13
 -1       578 9.75832E+02 9.68052E+01 8.84003E-01-1.12134E+02-1.28120E-13-1.62981E-13
 -1       579 9.95206E+02 9.82227E+00-2.91915E-01-2.18166E+02 2.52243E-13-7.50511E-13
 -1       580 1.15063E+03-6.33869E+00 3.88986E+00-1.80518E+02-3.01981E-14-2.75779E-13
 -1       581 1.07496E+03-1.47029E+00 1.29961E+00-2.04097E+02-1.10667E-12 3.44169E-13
 -1       582 9.98680E+02 1.63112E+02 1.00906E+01-3.00573E+01-9.27702E-13 3.43281E-13
 -1       583 1.00019E+03 1.07354E+02 2.69886E+00-3.46186E+01 2.58904E-13 7.15428E-13
 -1       584 9.96071E+02 1.22113E+02 3.76084E+00-5.79378E+01-3.51053E-13-5.27578E-13
 -1       585 9.99376E+02 1.36238E+02 6.52196E+00-3.35595E+01 4.49862E-13 6.24611E-13
 -1       586 1.18998E+03 4.73522E+00 6.49948E+00-1.47933E+02 1.33227E-13 5.99298E-13
 -1       587 1.13144E+03 1.77869E+01 3.22075E+00-1.32048E+02-1.88738E-13-4.26326E-13
 -1       588 1.15940E+03 1.24445E+01 4.83280E+00-1.41652E+02-2.13607E-13 9.74776E-13
 -1       589 1.00032E+03 9.18937E+01 1.02231E+00-8.11115E+01 5.39901E-13-1.00175E-12
 -1       590 1.00520E+03 7.61830E+01-4.86590E-01-5.76868E+01-3.31069E-13-4.20476E-13
 -1       591 1.01017E+03 7.17048E+01-2.00203E-01-7.88264E+01-4.58189E-13-5.02272E-13
 -1       592 1.08315E+03 2.46413E+01 4.06378E-01-1.06507E+02-4.80505E-13 2.97540E-13
 -1       593 1.13805E+03 1.00651E+01 2.83050E+00-9.13273E+01-1.62093E-14-3.17524E-13
 -1       594 1.10605E+03 2.16060E+01 1.73200E+00-1.20123E+02-6.46816E-13-6.85230E-13
 -1       595 1.12135E+03 2.19122E+00 3.04311E-01-4.60385E+01-8.44491E-13 4.53859E-13
 -1       596 1.16368E+03 1.95921E+00 4.53388E+00-5.23335E+01-6.70353E-13-1.45217E-13
 -1       597 1.01302E+03 3.66639E+00-9.41558E+00-1.14069E+01-4.18443E-13 8.43547E-13
 -1       598 1.00369E+03 1.29077E+01-9.04633E+00-1.14542E+01-1.36224E-13 4.41758E-13
 -1       599 1.00258E+03 2.51211E+00-1.05276E+01-1.87138E+00-3.49276E-13-5.21805E-14
 -1       600 9.82736E+02 1.29086E+02 3.32994E+00-6.94162E+01 3.59712E-14-2.41585E-13
 -1       601 9.91015E+02 1.11354E+02 2.21806E+00-7.78590E+01-3.60489E-13-3.20854E-13
 -1       602 1.00210E+03 5.18942E+01-4.47296E+00-2.84033E+01 5.50227E-13-1.68698E-13
 -1       603 1.00308E+03 2.95061E+01-7.17747E+00-2.10308E+01 4.87610E-13 7.01883E-13
 -1       604 1.07775E+03 1.30194E+01-1.62097E+00-6.87396E+01-5.41289E-13-1.75415E-14
 -1       605 1.05391E+03 2.84937E+00-6.08627E+00-3.07604E+01 6.31717E-14-3.66374E-13
 -1       606 1.08455E+03 2.46723E+00-3.25534E+00-3.88779E+01-1.52212E-13-1.38556E-13
 -1       607 1.02998E+03 3.34010E+00-8.12348E+00-2.15494E+01-1.16740E-12 8.67750E-13
 -1       608 1.29535E+03-3.34607E+00 1.51193E+01-1.11269E+02 2.48690E-14-3.93019E-13
 -1       609 1.22322E+03-6.19985E+00 8.12083E+00-1.49478E+02-3.07310E-13 2.55351E-13
 -1       610 1.06265E+03 2.74564E+01-7.47416E-01-9.15409E+01-6.47260E-14-2.54019E-13
 -1       611 9.97698E+02 2.03737E+02 1.54826E+01-1.72660E+01-4.08562E-13-8.25118E-13
 -1       612 9.97441E+02 2.14785E+02 1.69462E+01-8.92219E+00 5.27356E-15-2.48246E-13
 -1       613 7.15135E+02 1.23756E+02-7.65197E-01-5.81973E+01 2.04725E-13-1.37668E-13
 -1       614 6.95177E+02 9.65918E+01-2.11183E+00-1.27944E+02-1.06803E-12-4.22773E-13
 -1       615 6.55268E+02 1.11882E+02-2.11893E+00-6.76212E+01 3.66596E-13 1.10134E-13
 -1       616 8.12748E+02 1.34135E+02 4.28009E-01-4.41362E+01 1.38001E-13 2.75335E-14
 -1       617 7.91369E+02 1.20237E+02-9.53862E-02-9.68421E+01-8.03135E-13-6.30607E-14
 -1       618 7.67196E+02 1.30500E+02-2.46795E-02-5.05217E+01 2.22045E-14-2.12275E-13
 -1       619 1.00111E+03 7.85224E+01-1.07629E+00-3.29538E+01-3.48388E-13-4.57774E-13
 -1       620 9.43105E+02 7.81944E+01 2.52549E-01-1.62643E+02-2.06946E-13-7.43849E-13
 -1       621 9.20095E+02 1.02231E+02 4.90893E-01-1.29525E+02 1.02585E-13-3.37064E-13
 -1       622 9.54864E+02 8.55960E+01 4.31784E-01-1.45320E+02 2.28262E-13-2.48690E-14
 -1       623 1.37039E+03-3.10787E-01 2.68258E+01-6.37992E+01-2.61124E-13 1.85629E-13
 -1       624 9.20710E+02 5.13079E+01-4.67222E-01-1.99787E+02-1.66089E-13 5.83533E-13
 -1       625 8.76938E+02 8.65034E+01-1.62922E-01-1.63768E+02 2.45137E-13-1.41664E-13
 -1       626 9.31374E+02 6.74277E+01-1.19831E-02-1.80757E+02 5.84865E-13 3.71259E-13
 -1       627 9.89045E+02 1.60961E+02 7.45229E+00-4.21634E+01-6.45928E-13 5.15588E-13
 -1       628 9.98115E+02 1.86126E+02 1.31467E+01-2.44792E+01-2.01839E-13-6.35048E-13
 -1       629 8.61180E+02 1.12192E+02 2.63726E-01-1.19581E+02-1.32783E-13-2.01617E-13
 -1       630 7.93948E+02 9.30984E+01-8.48085E-01-1.53681E+02-2.20268E-13-9.79661E-13
 -1       631 8.29054E+02 1.04858E+02-1.63423E-01-1.35406E+02 1.03473E-13 1.52767E-13
 -1       632 8.30903E+02 5.02532E+01-1.77825E+00-2.05956E+02-6.10179E-13-9.76996E-15
 -1       633 7.56035E+02 7.46413E+01-2.02912E+00-1.75159E+02 1.74971E-13-2.79776E-13
 -1       634 8.67282E+02 1.28787E+02 7.12994E-01-7.46635E+01-6.32050E-13 9.23706E-14
 -1       635 8.52754E+02 1.36352E+02 7.97487E-01-3.86778E+01 1.46549E-13 3.88578E-13
 -1       636 9.12606E+02 2.75963E+01-1.24627E+00-2.19745E+02 1.29674E-13-1.68310E-13
 -1       637 8.90269E+02 1.17043E+02 5.98959E-01-1.05566E+02-2.45359E-13 1.95399E-13
 -1       638 9.75858E+02 1.44113E+02 4.28730E+00-5.64229E+01-1.69309E-14 8.30447E-14
 -1       639 9.96524E+02 7.68884E+01 4.52478E-01-1.26122E+02-7.63833E-14-7.34524E-13
 -1       640 1.00906E+03 7.06672E+01 3.24471E-01-1.17112E+02 8.38440E-13-2.39142E-13
 -1       641 1.02316E+03 5.93787E+01 2.98866E-01-1.24607E+02 1.33227E-14-7.05797E-13
 -1       642 1.01053E+03 6.55499E+01 4.25327E-01-1.34526E+02 3.60600E-13 5.71987E-13
 -1       643 9.98530E+02 8.23114E+01 5.16921E-01-1.08581E+02-5.54223E-13 4.21885E-14
 -1       644 1.00735E+03 7.59783E+01 3.06758E-01-9.90880E+01 5.04319E-13-4.38316E-13
 -1       645 1.01792E+03 6.41970E+01 6.97694E-02-1.06847E+02 2.44249E-14-4.95035E-13
 -1       646 1.02331E+03 5.74457E+01-3.31195E-01-9.39668E+01-9.86988E-14-6.86895E-13
 -1       647 1.03686E+03 4.61395E+01-4.36524E-01-9.82983E+01 2.56128E-13-3.43281E-13
 -1       648 1.03186E+03 5.30294E+01 5.07477E-02-1.11911E+02 1.35891E-13-4.31655E-13
 -1       649 1.04927E+03 4.21986E+01 1.55356E-01-1.15433E+02 2.25597E-13-9.21929E-13
 -1       650 1.04099E+03 4.85970E+01 4.70698E-01-1.28981E+02 3.43725E-13 5.06928E-13
 -1       651 1.06292E+03 3.80797E+01 8.29245E-01-1.31531E+02 6.21725E-13-6.21725E-13
 -1       652 1.05108E+03 4.36264E+01 9.47926E-01-1.45159E+02 2.56417E-12-2.59792E-13
 -1       653 1.02878E+03 5.43552E+01 5.97099E-01-1.41673E+02 7.69163E-13 1.67980E-12
 -1       654 1.07817E+03 3.31458E+01 1.58983E+00-1.46395E+02 9.76108E-13-5.06706E-13
 -1       655 1.06261E+03 3.72038E+01 1.47053E+00-1.60212E+02 8.84626E-13 6.34715E-13
 -1       656 1.03523E+03 4.82716E+01 9.46526E-01-1.58005E+02 8.68638E-13-1.97498E-12
 -1       657 1.01449E+03 5.24768E+01 7.63434E-01-1.68033E+02-5.73763E-13-5.89528E-13
 -1       658 9.91643E+02 6.48842E+01 5.75900E-01-1.60445E+02-2.07834E-13-1.94333E-12
 -1       659 1.01214E+03 5.98650E+01 5.83063E-01-1.51512E+02-7.28306E-14-9.06830E-13
 -1       660 9.94068E+02 7.14381E+01 4.89774E-01-1.43350E+02-5.87086E-13 1.40865E-12
 -1       661 1.05007E+03 2.29991E+01-2.07795E+00-6.54799E+01 7.38742E-13-6.43041E-13
 -1       662 1.03650E+03 3.18852E+01-2.10812E+00-6.65406E+01 3.87246E-13-1.46549E-13
 -1       663 1.03166E+03 2.50714E+01-3.34074E+00-4.96522E+01-6.19504E-14 1.01252E-13
 -1       664 1.04342E+03 1.57966E+01-3.76657E+00-4.81896E+01-7.80487E-13-5.32907E-14
 -1       665 1.03821E+03 3.94325E+01-1.06054E+00-8.26075E+01-9.42912E-13-1.22879E-12
 -1       666 1.02550E+03 5.00608E+01-1.00361E+00-8.01350E+01-1.30562E-13-2.43694E-12
 -1       667 1.02455E+03 4.25464E+01-1.92938E+00-6.45910E+01 1.72151E-12-7.26530E-13
 -1       668 1.01523E+03 5.33363E+01-1.70955E+00-6.07436E+01-3.49942E-13 1.44862E-12
 -1       669 1.01250E+03 4.40616E+01-3.20504E+00-4.54120E+01-2.84217E-13 3.88356E-13
 -1       670 1.02161E+03 3.40193E+01-3.22225E+00-4.88776E+01 1.32205E-12-1.19149E-12
 -1       671 1.01612E+03 2.56947E+01-4.93097E+00-3.30324E+01 2.79554E-12-5.77316E-15
 -1       672 1.02509E+03 1.71522E+01-5.13960E+00-3.35269E+01-1.07470E-13 2.75202E-12
 -1       673 1.09545E+03 2.64491E+01 2.41184E+00-1.59589E+02 4.70735E-13 1.10045E-12
 -1       674 1.07627E+03 2.81360E+01 2.00671E+00-1.73654E+02 1.68754E-13 7.21867E-13
 -1       675 1.04318E+03 3.99265E+01 1.31215E+00-1.73341E+02-3.30402E-13 4.71179E-13
 -1       676 1.11536E+03 1.68310E+01 3.24844E+00-1.70376E+02 2.13163E-13 8.71747E-13
 -1       677 1.09294E+03 1.50339E+01 2.50752E+00-1.84693E+02-1.68754E-13 3.21743E-13
 -1       678 1.05356E+03 2.78518E+01 1.64351E+00-1.87165E+02-5.75540E-13 6.22391E-13
 -1       679 1.02511E+03 2.65796E+01 1.00627E+00-1.98468E+02-2.16716E-13 1.05560E-12
 -1       680 9.90074E+02 4.25426E+01 6.67657E-01-1.94015E+02-8.56204E-13 2.82352E-12
 -1       681 1.01842E+03 4.19438E+01 9.23089E-01-1.83842E+02-2.49045E-12 5.00489E-13
 -1       682 9.89971E+02 5.58191E+01 6.56561E-01-1.77396E+02-9.57456E-13-1.69065E-12
 -1       683 9.77952E+02 1.63493E+02 6.05951E+00-3.46692E+01-7.55396E-13 2.24620E-12
 -1       684 9.68489E+02 1.58873E+02 4.93051E+00-3.01459E+01-7.21201E-13 2.12275E-13
 -1       685 9.75535E+02 1.71181E+02 6.61633E+00-1.79135E+01 3.47278E-13 6.47482E-13
 -1       686 9.85440E+02 1.78656E+02 8.83611E+00-2.24900E+01 1.24878E-12 1.09246E-13
 -1       687 9.60104E+02 1.48391E+02 3.39914E+00-4.40379E+01 5.21805E-15-5.63993E-13
 -1       688 9.47081E+02 1.46473E+02 2.74368E+00-3.68444E+01 1.89425E-12 1.11733E-12
 -1       689 9.55752E+02 1.55122E+02 3.70431E+00-2.27499E+01 5.25524E-13 2.86526E-12
 -1       690 9.43427E+02 1.50842E+02 2.90138E+00-1.25500E+01-1.07687E-12 4.20997E-13
 -1       691 9.66304E+02 1.63660E+02 5.22091E+00-1.02692E+01-9.26370E-13 2.66454E-13
 -1       692 9.84425E+02 1.84376E+02 9.36397E+00-7.66223E+00-1.63758E-13 5.11591E-13
 -1       693 9.31477E+02 1.45467E+02 2.09310E+00-2.71640E+01-1.36974E-13 4.63629E-13
 -1       694 9.16190E+02 1.43390E+02 1.57983E+00-1.47247E+01-4.39132E-12-3.42837E-13
 -1       695 9.38191E+02 1.39053E+02 1.92725E+00-5.25811E+01 9.81326E-13 1.04627E-12
 -1       696 9.21593E+02 1.39070E+02 1.49774E+00-4.32219E+01 1.38412E-12-1.74083E-13
 -1       697 9.12451E+02 1.33474E+02 1.10077E+00-6.10029E+01 7.88258E-14-1.15108E-12
 -1       698 8.92080E+02 1.34771E+02 7.49945E-01-4.97420E+01 5.66880E-13-1.84386E-12
 -1       699 9.02946E+02 1.40042E+02 1.18780E+00-3.15317E+01 1.49325E-13-2.35367E-12
 -1       700 8.84621E+02 1.39323E+02 7.86606E-01-1.69559E+01 5.09703E-13-1.23279E-12
 -1       701 1.28578E+03 5.13011E-01 1.95016E+01-3.20595E+01-9.32587E-13 1.56142E-12
 -1       702 1.23653E+03 1.73672E+00 1.22578E+01-5.91454E+01-9.75220E-13-2.68230E-13
 -1       703 1.22755E+03 8.28722E-01 1.25456E+01-2.98873E+01 3.85025E-13-1.00719E-12
 -1       704 1.34712E+03 5.97019E-02 2.70368E+01-3.33091E+01 4.72511E-13 1.43885E-12
 -1       705 1.28891E+03 1.14646E+00 1.78314E+01-6.23398E+01-5.14255E-13 2.76756E-12
 -1       706 1.28431E+03 1.15617E+00 1.56725E+01-8.78163E+01-5.32907E-13 1.11910E-12
 -1       707 1.23270E+03 4.20543E+00 1.03717E+01-1.08977E+02-7.81597E-14 2.58105E-12
 -1       708 1.23760E+03 3.62172E+00 1.14927E+01-8.46990E+01-5.06262E-13 1.43530E-12
 -1       709 1.19300E+03 7.31987E+00 7.26971E+00-1.03431E+02-1.04805E-13 1.03562E-12
 -1       710 1.19326E+03 5.31954E+00 7.57412E+00-7.91686E+01-1.46194E-12-1.01252E-12
 -1       711 9.32059E+02 1.30737E+02 1.34125E+00-6.89414E+01 1.37224E-12 6.57252E-14
 -1       712 9.27595E+02 1.23084E+02 9.66878E-01-8.65359E+01-7.67386E-13 1.37668E-12
 -1       713 9.06478E+02 1.26047E+02 6.82747E-01-7.92597E+01-1.48592E-12 1.52767E-13
 -1       714 9.54182E+02 1.38014E+02 2.44000E+00-5.87792E+01 5.53169E-14-3.93463E-13
 -1       715 9.48934E+02 1.28834E+02 1.66547E+00-7.46373E+01-6.03073E-13-2.13163E-14
 -1       716 9.64342E+02 1.25987E+02 2.01300E+00-7.69624E+01-2.29639E-12 3.90799E-14
 -1       717 9.63098E+02 1.15448E+02 1.32780E+00-9.19625E+01 5.48894E-13-9.46798E-13
 -1       718 9.46956E+02 1.18954E+02 1.12533E+00-9.02778E+01-1.65268E-12 2.68230E-13
 -1       719 9.47439E+02 1.09609E+02 8.01553E-01-1.06582E+02 5.96856E-13-9.23706E-13
 -1       720 9.26857E+02 1.13848E+02 5.97329E-01-1.03667E+02 2.85105E-13-2.59348E-13
 -1       721 9.86505E+02 8.80865E+01 5.97269E-01-1.15068E+02-1.79856E-12 1.10134E-13
 -1       722 9.79921E+02 9.96674E+01 9.38097E-01-1.03508E+02-1.59095E-13-5.79092E-13
 -1       723 9.91613E+02 9.41440E+01 9.15392E-01-9.77936E+01-1.32511E-12 2.08278E-13
 -1       724 9.80341E+02 8.26568E+01 4.45767E-01-1.32002E+02-9.10383E-14 1.09779E-12
 -1       725 9.70835E+02 9.39142E+01 6.23938E-01-1.20010E+02-9.90319E-14 1.03118E-12
 -1       726 9.51954E+02 9.90650E+01 5.11131E-01-1.21556E+02 9.37028E-13 3.23297E-13
 -1       727 9.65436E+02 1.04462E+02 8.70042E-01-1.05952E+02 2.19846E-12 8.34888E-14
 -1       728 9.77030E+02 1.11095E+02 1.49344E+00-9.02484E+01 2.40574E-12 3.25073E-13
 -1       729 1.00180E+03-4.49954E+00 1.31393E-01-2.24371E+02 8.52651E-14-8.50875E-13
 -1       730 1.03617E+03 4.55838E+00 9.42791E-01-2.11145E+02-1.75149E-12-5.04041E-13
 -1       731 1.08691E+03-1.40784E+01 1.92149E+00-2.06642E+02-1.44951E-12-5.03153E-13
 -1       732 9.93370E+02 2.31159E+01 5.25785E-01-2.09899E+02 2.91323E-13-1.56142E-12
 -1       733 1.06759E+03 1.04010E+01 1.87261E+00-1.98659E+02-8.34888E-13 1.19460E-13
 -1       734 1.13862E+03 3.01341E+00 4.03074E+00-1.77650E+02-7.46070E-14 8.79297E-13
 -1       735 1.11381E+03-3.56214E+00 2.91048E+00-1.92171E+02-9.94760E-13 2.27290E-13
 -1       736 1.16621E+03-1.62283E+01 4.67540E+00-1.79906E+02-1.38556E-13-4.64739E-13
 -1       737 9.94830E+02 1.51778E+02 7.15426E+00-4.08805E+01-1.09690E-12-2.57572E-13
 -1       738 9.98845E+02 1.49587E+02 8.15689E+00-3.15127E+01-1.21414E-12 1.09246E-13
 -1       739 9.97389E+02 1.28456E+02 4.69298E+00-4.56817E+01-1.77636E-14 1.53966E-12
 -1       740 9.93905E+02 1.32483E+02 4.59472E+00-5.47360E+01-2.34479E-12-1.16218E-12
 -1       741 9.99101E+02 1.75502E+02 1.27885E+01-1.57048E+01-7.76268E-13-9.82103E-13
 -1       742 9.99559E+02 1.44572E+02 8.29804E+00-1.75346E+01-1.63425E-13 8.71303E-13
 -1       743 1.00009E+03 1.11414E+02 3.49676E+00-1.80810E+01 2.48690E-14-1.52101E-13
 -1       744 9.99728E+02 1.21767E+02 4.55574E+00-3.37829E+01-1.68754E-13 8.76632E-13
 -1       745 1.00030E+03 1.03285E+02 2.06128E+00-4.72286E+01 4.63629E-13-5.75540E-13
 -1       746 9.98149E+02 1.10668E+02 2.61770E+00-5.88464E+01 1.39311E-12-9.17044E-13
 -1       747 1.18628E+03 9.22604E+00 6.67615E+00-1.24535E+02 2.70006E-13 1.63958E-12
 -1       748 1.14566E+03 1.55855E+01 4.24106E+00-1.36430E+02-1.95399E-14 5.95080E-13
 -1       749 1.15329E+03 1.32939E+01 4.51439E+00-1.16279E+02 7.38076E-13-1.95399E-14
 -1       750 1.22172E+03 3.36184E+00 8.93719E+00-1.29614E+02-1.22746E-12 1.35891E-12
 -1       751 1.17498E+03 9.19133E+00 5.91477E+00-1.44409E+02 2.66454E-13 8.41993E-13
 -1       752 1.15831E+03 7.58870E+00 4.92694E+00-1.61575E+02 6.32383E-13 7.75824E-13
 -1       753 1.13241E+03 1.72914E+01 3.76963E+00-1.53862E+02 6.50147E-13 1.76659E-12
 -1       754 1.10930E+03 2.40341E+01 2.62763E+00-1.43008E+02-1.42109E-14 3.50830E-13
 -1       755 9.99818E+02 8.84083E+01 7.44169E-01-9.02855E+01-3.85469E-13 6.53921E-13
 -1       756 1.00523E+03 8.17747E+01 3.89474E-01-7.99671E+01-2.15827E-13-1.98286E-13
 -1       757 1.01280E+03 6.92017E+01-9.75213E-02-8.81848E+01-9.96536E-13-7.37188E-13
 -1       758 1.00034E+03 9.54545E+01 1.21667E+00-7.03654E+01 4.94271E-13-1.59806E-12
 -1       759 1.00285E+03 8.77586E+01 5.77228E-01-5.87456E+01 1.43086E-12-9.31255E-13
 -1       760 1.00783E+03 7.41465E+01-2.55830E-01-6.80481E+01-1.02451E-12 2.58987E-13
 -1       761 1.00777E+03 6.51271E+01-1.39182E+00-5.42218E+01-9.04166E-13-1.33871E-12
 -1       762 1.01521E+03 6.17889E+01-7.51082E-01-7.49336E+01-2.49600E-12-1.32561E-13
 -1       763 1.08862E+03 2.88466E+01 1.55775E+00-1.29976E+02 8.39329E-13-3.32623E-13
 -1       764 1.11893E+03 2.00441E+01 2.66115E+00-1.25667E+02-7.73603E-13 7.28306E-13
 -1       765 1.07005E+03 3.26228E+01 5.91890E-01-1.15377E+02-1.67555E-12-7.62057E-13
 -1       766 1.09475E+03 2.33678E+01 1.22935E+00-1.12928E+02-1.26832E-12-2.78533E-12
 -1       767 1.09570E+03 1.85477E+01 7.70048E-01-9.36625E+01 1.43396E-12-2.75335E-14
 -1       768 1.12220E+03 1.10935E+01 1.84063E+00-8.55867E+01 3.23741E-13 4.03233E-13
 -1       769 1.12303E+03 1.62115E+01 2.53089E+00-1.05792E+02-1.95488E-12-1.64135E-12
 -1       770 1.15598E+03 9.47262E+00 4.40247E+00-9.54012E+01-5.71987E-13-2.08367E-12
 -1       771 1.18744E+03 2.12057E+00 7.17957E+00-5.44596E+01-1.14930E-12-2.05880E-12
 -1       772 1.17391E+03 1.06072E+00 6.31476E+00-2.70841E+01-1.77791E-12-1.09068E-12
 -1       773 1.15229E+03 6.53973E+00 4.02866E+00-7.19506E+01-1.06049E-12-1.03206E-12
 -1       774 1.11538E+03 7.54154E+00 9.20589E-01-6.34631E+01-1.66978E-13-8.08242E-14
 -1       775 1.14272E+03 2.40530E+00 2.68404E+00-4.87034E+01-2.22222E-12 1.24345E-12
 -1       776 1.12592E+03 1.25718E+00 8.88131E-01-2.38011E+01-4.76430E-12 2.68230E-13
 -1       777 1.00152E+03 4.91522E-01-1.08058E+01-9.84479E-02-3.50386E-13-2.52198E-12
 -1       778 1.00414E+03 8.10041E+00-9.25000E+00-6.89505E+00 2.85993E-13-6.79456E-13
 -1       779 1.00215E+03 7.93923E+00-1.03190E+01-5.44742E+00-5.95080E-13-1.23235E-13
 -1       780 1.00055E+03 1.43971E+00-1.09043E+01-7.67528E-02-2.05336E-12 3.49942E-13
 -1       781 1.00799E+03 2.10963E+00-1.07970E+01-5.36309E+00-3.06444E-12 1.50502E-12
 -1       782 1.00825E+03 4.02197E+00-9.39720E+00-6.86838E+00-1.16285E-12-4.91163E-13
 -1       783 1.01640E+03 1.10718E+01-7.03961E+00-1.87363E+01-4.68514E-13 6.77236E-13
 -1       784 1.01089E+03 1.62959E+01-6.88521E+00-1.87053E+01 4.60076E-13-1.13509E-12
 -1       785 9.95492E+02 1.01534E+02 1.52188E+00-7.94702E+01-1.13975E-12-1.60894E-12
 -1       786 9.93297E+02 1.16160E+02 2.66805E+00-6.77206E+01-2.78888E-13-4.21041E-12
 -1       787 9.87452E+02 1.06809E+02 1.54567E+00-8.64243E+01-8.39329E-14 2.29150E-13
 -1       788 9.76364E+02 1.23512E+02 2.28258E+00-7.69418E+01 9.85878E-14 1.94778E-12
 -1       789 9.86567E+02 1.20075E+02 2.60567E+00-7.36163E+01 1.45195E-12-8.99725E-13
 -1       790 9.87040E+02 1.35116E+02 4.01627E+00-6.04587E+01-5.27578E-13-1.06404E-12
 -1       791 1.00943E+03 3.31517E+01-5.00308E+00-3.03560E+01 1.67422E-12 4.27658E-13
 -1       792 1.00395E+03 2.13860E+01-7.78916E+00-1.63158E+01 1.44418E-12 4.21885E-13
 -1       793 1.00662E+03 5.40618E+01-2.93336E+00-3.95026E+01 4.30767E-13-2.42273E-12
 -1       794 1.00297E+03 4.08330E+01-5.59489E+00-2.46253E+01 2.38209E-12 7.28306E-14
 -1       795 1.00126E+03 4.85796E+01-5.39306E+00-1.47415E+01 7.20313E-13 2.36511E-12
 -1       796 1.00182E+03 2.42973E+01-8.54949E+00-1.07430E+01 1.51879E-12 1.91869E-12
 -1       797 1.09205E+03 1.25497E+01-3.75797E-01-7.43650E+01 2.77556E-14-2.45137E-13
 -1       798 1.08306E+03 8.53341E+00-1.71051E+00-5.38679E+01-1.22913E-12-1.26565E-12
 -1       799 1.10318E+03 2.68749E+00-1.17393E+00-4.20635E+01-1.78502E-12-1.93712E-12
 -1       800 1.06575E+03 1.41019E+01-2.23342E+00-6.18803E+01-1.17649E-12-4.19220E-13
 -1       801 1.05569E+03 9.62981E+00-3.84704E+00-4.31566E+01-2.30971E-12-2.13163E-14
 -1       802 1.06947E+03 3.04634E+00-4.34070E+00-3.45377E+01-7.93032E-13-1.14042E-12
 -1       803 1.05037E+03 1.69561E+00-7.22942E+00-1.58025E+01-4.90219E-13-6.32383E-13
 -1       804 1.08445E+03 1.45928E+00-3.66280E+00-2.00649E+01-5.37348E-13-4.68070E-13
 -1       805 1.02462E+03 1.95827E+00-9.64984E+00-1.08990E+01-3.41516E-12 1.25411E-12
 -1       806 1.02176E+03 4.03763E+00-8.37726E+00-1.65288E+01-1.81766E-12 1.60894E-12
 -1       807 1.04219E+03 3.52701E+00-6.75109E+00-2.60225E+01-1.62070E-12 1.92379E-12
 -1       808 1.03348E+03 1.07171E+01-5.53908E+00-3.13219E+01 2.78888E-13 1.37046E-12
 -1       809 1.27432E+03-3.31666E-01 1.35876E+01-1.10974E+02-3.53495E-13 9.27258E-13
 -1       810 1.25917E+03-4.95393E+00 1.11736E+01-1.30169E+02-1.07292E-12-2.30038E-13
 -1       811 1.20694E+03-6.67881E-03 7.59556E+00-1.48409E+02-2.16716E-13 6.25278E-13
 -1       812 1.31679E+03-6.72816E+00 1.67247E+01-1.07986E+02-1.42109E-13-4.27214E-13
 -1       813 1.24155E+03-1.28257E+01 9.16150E+00-1.46823E+02-2.16716E-13 6.30607E-13
 -1       814 1.18749E+03-6.13090E+00 6.01917E+00-1.64781E+02 5.86198E-13 2.34035E-13
 -1       815 1.05364E+03 2.90432E+01-1.11547E+00-8.31873E+01-2.09277E-13-2.28395E-12
 -1       816 1.05333E+03 3.60397E+01-2.66306E-01-9.95433E+01 1.10112E-12-8.65974E-14
 -1       817 1.07138E+03 2.07403E+01-7.54786E-01-8.01859E+01-1.59339E-12-1.86517E-13
 -1       818 1.07302E+03 2.62203E+01-2.70261E-02-9.86887E+01-4.42313E-13 2.12896E-12
 -1       819 9.96919E+02 2.16437E+02 1.68222E+01-4.41866E+00-2.77667E-13-4.48530E-13
 -1       820 9.90173E+02 1.96516E+02 1.18998E+01-1.21324E+01 2.85771E-13-9.32587E-14
 -1       821 9.98270E+02 2.35040E+02 2.14207E+01-4.66043E+00-1.21836E-12-2.39009E-12
 -1       822 9.98443E+02 2.22309E+02 1.95777E+01-9.01947E+00-6.92779E-13-2.42517E-12
 -1       823 9.97123E+02 2.09046E+02 1.58657E+01-1.29694E+01-3.52163E-13-1.46994E-12
 -1       824 9.91148E+02 1.86956E+02 1.08849E+01-2.34773E+01-7.59837E-13-1.61116E-12
 -1       825 6.20650E+02 1.02740E+02-3.71746E+00-7.30358E+01 1.40332E-13-3.19744E-14
 -1       826 6.71085E+02 1.02718E+02-3.24341E+00-9.81251E+01-1.34470E-12-2.91323E-13
 -1       827 6.66733E+02 8.59690E+01-3.37194E+00-1.37569E+02-1.28608E-12-5.18696E-13
 -1       828 6.43467E+02 1.12858E+02-3.47336E+00-3.39368E+01 1.01652E-12 2.52243E-13
 -1       829 7.06019E+02 1.24579E+02-1.81784E+00-2.91918E+01 7.07434E-13 4.79616E-13
 -1       830 6.85172E+02 1.18159E+02-1.81040E+00-6.25812E+01-4.56524E-13 9.23706E-14
 -1       831 7.27359E+02 1.16334E+02-1.70063E+00-8.48158E+01-2.14673E-12 1.91847E-13
 -1       832 7.20785E+02 1.04585E+02-1.64396E+00-1.18843E+02-1.15108E-12-1.05160E-12
 -1       833 7.41081E+02 1.27234E+02-7.61497E-01-5.41110E+01-6.66134E-13 3.62377E-13
 -1       834 7.76676E+02 1.24394E+02-8.04731E-01-7.38737E+01-3.46922E-12-3.67706E-13
 -1       835 7.68783E+02 1.16106E+02-6.84908E-01-1.03430E+02-1.86517E-12-1.62714E-12
 -1       836 7.60098E+02 1.31212E+02-8.62591E-01-2.53301E+01 1.82765E-12-1.13687E-12
 -1       837 8.07215E+02 1.34778E+02-2.50358E-01-2.21198E+01 3.21965E-13-2.36255E-13
 -1       838 7.89838E+02 1.32229E+02-1.59081E-01-4.71370E+01-7.66054E-13-2.21689E-12
 -1       839 8.20087E+02 1.29006E+02-2.27912E-01-6.46907E+01-2.79554E-12 5.36460E-13
 -1       840 8.11429E+02 1.22916E+02-1.30972E-01-9.05448E+01-1.64224E-12-1.25766E-12
 -1       841 1.00066E+03 7.85199E+01-1.21822E+00-1.71857E+01-6.12843E-14 3.46481E-12
 -1       842 1.00073E+03 9.29711E+01 8.56047E-01-3.35049E+01-1.76925E-12-2.20823E-13
 -1       843 1.00183E+03 6.52976E+01-2.63312E+00-3.04659E+01 2.42473E-13 1.88738E-14
 -1       844 1.00344E+03 7.79316E+01-5.43435E-01-4.52060E+01-4.38760E-13-3.44841E-12
 -1       845 9.73471E+02 7.68370E+01 3.79199E-01-1.48985E+02-1.58096E-13-2.17604E-13
 -1       846 9.60440E+02 8.85257E+01 4.68071E-01-1.36554E+02 9.85878E-14 1.74438E-12
 -1       847 9.66456E+02 6.93040E+01 3.32548E-01-1.66210E+02 3.05533E-13-1.49569E-12
 -1       848 9.49138E+02 8.22287E+01 3.77045E-01-1.53528E+02 2.21156E-13-2.06501E-12
 -1       849 9.20497E+02 8.67710E+01 7.15597E-02-1.54482E+02-1.31450E-13-1.30029E-12
 -1       850 9.09736E+02 9.92508E+01 2.83278E-01-1.37269E+02 2.17604E-13-1.05693E-12
 -1       851 9.36842E+02 9.36541E+01 2.78061E-01-1.37602E+02-7.37188E-13-4.44089E-14
 -1       852 9.29571E+02 1.04684E+02 4.97997E-01-1.21510E+02 3.58824E-13 3.32179E-13
 -1       853 1.40943E+03-5.85556E-01 3.48720E+01-3.31930E+01-1.58273E-12 6.03961E-14
 -1       854 1.34306E+03 2.34595E-01 2.37347E+01-6.33614E+01-6.62581E-13 3.73035E-14
 -1       855 1.39685E+03-1.11640E+00 2.96703E+01-6.12689E+01-3.26850E-13-1.28608E-12
 -1       856 1.33202E+03-2.37179E+00 1.99221E+01-8.74654E+01-7.28306E-14-6.39488E-13
 -1       857 9.55609E+02 4.23560E+01 3.07836E-02-2.01465E+02-7.19425E-13 1.15197E-12
 -1       858 9.26513E+02 6.04330E+01 6.63666E-02-1.89676E+02 3.55271E-13 1.79856E-12
 -1       859 9.60112E+02 5.84408E+01 2.41556E-01-1.83730E+02-1.75859E-13-2.22045E-14
 -1       860 8.86763E+02 6.14824E+01-6.39277E-01-1.92019E+02-2.39808E-13 1.69997E-12
 -1       861 8.65748E+02 8.01634E+01-3.08703E-01-1.73073E+02 6.28830E-13-3.19744E-13
 -1       862 9.03511E+02 7.67085E+01-1.99163E-01-1.72523E+02 2.35012E-12 1.35003E-13
 -1       863 8.88284E+02 9.16983E+01 5.14641E-02-1.54309E+02 1.08891E-12-7.10543E-14
 -1       864 9.37534E+02 7.34759E+01 2.71651E-01-1.71181E+02 7.17648E-13-1.69376E-12
 -1       865 9.90282E+02 1.51859E+02 6.36835E+00-4.68622E+01-6.09290E-13-2.36255E-13
 -1       866 9.92722E+02 1.71712E+02 9.26705E+00-3.32858E+01-1.30029E-12 5.56000E-13
 -1       867 9.98103E+02 1.74477E+02 1.13853E+01-2.70108E+01-8.15348E-13-8.72191E-13
 -1       868 9.87421E+02 1.67582E+02 7.81490E+00-3.58543E+01-3.16325E-12 2.30926E-14
 -1       869 9.97523E+02 1.94747E+02 1.40134E+01-2.06743E+01-1.19815E-12-1.12443E-12
 -1       870 9.98724E+02 2.02015E+02 1.66362E+01-1.27889E+01-5.34239E-13-1.52678E-12
 -1       871 8.44701E+02 1.18180E+02-1.77310E-01-1.02477E+02 5.12479E-13 4.24549E-13
 -1       872 8.45194E+02 1.08814E+02-6.90627E-02-1.27028E+02 3.33067E-13 5.79092E-13
 -1       873 8.08179E+02 1.11781E+02-6.84936E-01-1.16395E+02-1.72040E-12-5.40012E-13
 -1       874 8.79024E+02 1.03581E+02-8.52677E-02-1.32966E+02 1.53921E-12 3.58824E-13
 -1       875 8.51663E+02 9.51700E+01-4.91434E-01-1.49880E+02 1.89893E-12-7.42517E-13
 -1       876 8.22447E+02 8.20347E+01-1.12139E+00-1.69027E+02-3.58824E-13-4.22773E-13
 -1       877 8.11702E+02 9.95845E+01-5.42812E-01-1.43962E+02-7.28306E-14-2.21334E-12
 -1       878 7.67598E+02 1.01306E+02-1.46904E+00-1.32657E+02-3.07310E-13-1.18305E-12
 -1       879 7.36395E+02 6.21558E+01-2.82048E+00-1.86949E+02-7.01661E-13 5.64881E-13
 -1       880 7.91957E+02 6.18726E+01-2.18591E+00-1.91026E+02-2.01794E-12-5.68434E-14
 -1       881 8.21002E+02 3.61769E+01-2.07967E+00-2.17606E+02-6.67910E-13-2.33413E-12
 -1       882 7.22685E+02 8.45319E+01-2.80380E+00-1.52016E+02-7.10543E-13-3.55271E-13
 -1       883 7.75341E+02 8.48605E+01-1.36214E+00-1.63680E+02-7.31859E-13-2.87770E-13
 -1       884 8.42920E+02 6.24857E+01-9.46928E-01-1.94025E+02-7.76268E-13 2.27729E-12
 -1       885 8.32568E+02 1.34974E+02 2.51509E-01-4.12547E+01 1.73639E-13 2.90434E-12
 -1       886 8.58368E+02 1.31933E+02 2.35406E-01-5.67794E+01-2.90168E-12 2.23821E-13
 -1       887 8.49314E+02 1.26971E+02 2.46043E-01-7.95254E+01-1.60227E-12 3.04823E-12
 -1       888 8.48465E+02 1.36966E+02 2.40893E-01-1.93776E+01 3.36797E-12-5.89750E-13
 -1       889 8.70085E+02 1.37069E+02 6.45696E-01-3.61429E+01 5.73319E-13-4.04299E-12
 -1       890 8.82884E+02 1.29967E+02 6.06235E-01-6.98328E+01-1.14575E-12-5.47118E-13
 -1       891 9.17336E+02 4.09848E+01-3.50660E-01-2.09074E+02-1.98952E-13 1.70886E-12
 -1       892 8.71521E+02 3.88191E+01-1.39845E+00-2.13215E+02-2.16716E-13 2.32703E-13
 -1       893 9.54577E+02 1.89398E+01-3.99696E-01-2.19151E+02 2.37677E-12-2.46025E-13
 -1       894 9.11794E+02 1.27933E+01-1.12911E+00-2.29287E+02 4.08562E-13-8.45546E-13
 -1       895 9.03174E+02 1.18857E+02 5.51581E-01-9.88710E+01-8.52651E-13-1.26299E-12
 -1       896 8.77403E+02 1.22381E+02 2.30274E-01-9.02742E+01-9.25926E-13 3.67706E-13
 -1       897 9.04165E+02 1.09235E+02 2.37982E-01-1.17729E+02-4.85834E-13 5.32907E-15
 -1       898 8.75700E+02 1.14637E+02 2.49910E-01-1.12192E+02-1.66089E-13 1.09246E-12
 -1       899 9.81848E+02 1.51218E+02 5.17290E+00-4.91744E+01-8.23341E-13-5.24913E-13
 -1       900 9.72748E+02 1.49599E+02 4.36948E+00-4.80782E+01 1.31894E-13 1.77636E-15
 -1       901 9.78869E+02 1.36405E+02 3.57643E+00-6.28982E+01-5.78648E-13-2.80664E-13
 -1       902 9.67095E+02 1.37640E+02 2.91417E+00-6.24978E+01-3.28404E-13-2.42473E-13
 -3
    1PSTEP                         3           1           1          
  100CL  101 1.000000000         901                     0    1           1
 -4  TOSTRAIN    6    1
 -5  EXX         1    4    1    1
 -5  EYY         1    4    2    2
 -5  EZZ         1    4    3    3
 -5  EXY         1    4    1    2
 -5  EYZ         1    4    2    3
 -5  EZX         1    4    3    1
 -1         1 1.87002E-02-6.44557E-03-3.31240E-03-4.35196E-05 1.59310E-17 2.67802E-17
 -1         3 2.78438E-03-7.09719E-03 2.50008E-04 1.07582E-05 4.14750E-18 4.74338E-18
 -1         4 4.34653E-03-2.03085E-04-1.66644E-03 4.90877E-07-5.04369E-18 2.94312E-18
 -1         5 4.77427E-03-1.41636E-03-1.47863E-03 3.93172E-06 9.12202E-18 5.98259E-18
 -1         6 7.16223E-03-2.24726E-03-1.90249E-03-1.15157E-05 1.90371E-19-1.01644E-20
 -1         7 3.67103E-03-8.05817E-04-1.88831E-03-8.93967E-07 5.31513E-19 1.48940E-18
 -1         8 2.56711E-03-3.32303E-04-9.74982E-04-2.22615E-06 1.48703E-18 4.06576E-19
 -1         9 1.66209E-02-5.20492E-03-3.16489E-03-4.29800E-03 6.71358E-18 6.45100E-18
 -1        10 1.12295E-02-2.10977E-03-2.75205E-03-6.36571E-03-5.47522E-18 2.22261E-18
 -1        11 5.59333E-03 7.42607E-04-2.14831E-03-5.53833E-03-2.49366E-18-2.60209E-18
 -1        12 1.40668E-03 1.40595E-03-1.45787E-03-2.65977E-03-8.40257E-18-9.21572E-19
 -1        13-1.99680E-05-1.85718E-04-7.89861E-04 4.01486E-04 1.32815E-18 9.21572E-19
 -1        14 7.02342E-04-2.93844E-03-2.35556E-04 1.75207E-03 2.05998E-18-4.74338E-19
 -1        15 2.33104E-03-6.05539E-03 1.23830E-04 1.58209E-03 4.13352E-18 4.60617E-18
 -1        16 1.82190E-02-5.99053E-03-3.27378E-03-2.20036E-03 2.35374E-17 2.14401E-17
 -1        17 1.42696E-02-3.96870E-03-2.98709E-03-5.66727E-03 1.61546E-17 9.75782E-18
 -1        18 8.43605E-03-4.58411E-04-2.46678E-03-6.22723E-03 2.22261E-18 5.42101E-19
 -1        19 3.28358E-03 1.23137E-03-1.80688E-03-4.28027E-03-1.26852E-17 1.29020E-17
 -1        20 5.69419E-04 7.54466E-04-1.11574E-03-1.01993E-03-1.09504E-17-3.25261E-19
 -1        21 1.45963E-04-1.60663E-03-4.95501E-04 1.31343E-03 5.20417E-18-4.60786E-18
 -1        22 1.61706E-03-4.80280E-03-2.95602E-05 1.97881E-03 5.96311E-18 5.44812E-18
 -1        23 2.61447E-03-6.84344E-03 2.17233E-04 8.65140E-04 1.52873E-17 2.48731E-18
 -1        24 1.02357E-03-3.63895E-03 1.66316E-04 1.44528E-06 2.29440E-18 1.49078E-19
 -1        25 7.08687E-04-1.91439E-03-6.73999E-06-1.03455E-05 6.66297E-19-2.15485E-18
 -1        26 8.83865E-04-1.10079E-03-2.03094E-04-4.16524E-06-8.90179E-19 5.16351E-18
 -1        27 1.21730E-03-6.89772E-04-3.94549E-04-3.44300E-06-5.38051E-19 3.11708E-19
 -1        28 1.58379E-03-4.81216E-04-5.69483E-04-2.23186E-06 3.90244E-18-3.14419E-18
 -1        29 1.94023E-03-3.79551E-04-7.24262E-04-1.89643E-06-2.46892E-18 9.62229E-19
 -1        30 2.26911E-03-3.38114E-04-8.58902E-04-1.98754E-06 6.15811E-18 2.61564E-18
 -1        31 1.86738E-03-5.01535E-03 2.24640E-04-8.30075E-06 1.13740E-17 8.89046E-18
 -1        32 8.89650E-04-2.62166E-03 8.53975E-05-8.02498E-06 5.40068E-18 1.73472E-18
 -1        33 8.05940E-04-1.44041E-03-1.04442E-04-6.40649E-06 1.96003E-18 7.64363E-18
 -1        34 1.05427E-03-8.61286E-04-3.00525E-04-1.25817E-06-1.35165E-18 3.84892E-18
 -1        35 1.40120E-03-5.67694E-04-4.84484E-04-1.54742E-06 2.28159E-18-6.34258E-18
 -1        36 1.76259E-03-4.20530E-04-6.49492E-04-8.44610E-07 2.76090E-18 2.33103E-18
 -1        37 2.10472E-03-3.52912E-04-7.94065E-04-8.72783E-07 4.62374E-18-1.89735E-18
 -1        38 2.41804E-03-3.31584E-04-9.19172E-04-1.21912E-06 8.72359E-18 1.11944E-17
 -1        39 4.35480E-03-2.26187E-04-1.66322E-03-1.82434E-06-6.02706E-18-1.12480E-17
 -1        40 4.37908E-03-2.94002E-04-1.65378E-03-3.53791E-06 1.65426E-18-6.23946E-19
 -1        41 4.41779E-03-4.02146E-04-1.63875E-03-5.03148E-06-1.38236E-18-5.36966E-18
 -1        42 4.46839E-03-5.43509E-04-1.61915E-03-6.20049E-06 8.91079E-19-6.66869E-18
 -1        43 4.52741E-03-7.08533E-04-1.59632E-03-6.93692E-06-5.82928E-18-1.54022E-18
 -1        44 4.59059E-03-8.85516E-04-1.57183E-03-7.12306E-06 3.04424E-18-4.67442E-18
 -1        45 4.65296E-03-1.06091E-03-1.54740E-03-6.60616E-06 1.14688E-18 1.02121E-17
 -1        46 4.70895E-03-1.21963E-03-1.52475E-03-5.16374E-06 1.24853E-18 4.64455E-18
 -1        47 4.75257E-03-1.34537E-03-1.50544E-03-2.45256E-06 5.86147E-18 3.37664E-18
 -1        48 4.77826E-03-1.42142E-03-1.49080E-03 2.06265E-06-5.73695E-18-5.44854E-19
 -1        49 4.78115E-03-1.43441E-03-1.48171E-03 8.82268E-06 1.98968E-18-5.16095E-18
 -1        50 4.34941E-03-2.14404E-04-1.66569E-03-5.58491E-07-2.30910E-17-7.54368E-18
 -1        51 4.36577E-03-2.59875E-04-1.65930E-03-1.64045E-06-4.85180E-18-1.12096E-17
 -1        52 4.39744E-03-3.47878E-04-1.64696E-03-2.62419E-06 9.04631E-19-7.53161E-18
 -1        53 4.44235E-03-4.72664E-04-1.62949E-03-3.44480E-06-4.64852E-18-7.03779E-18
 -1        54 4.49748E-03-6.25896E-04-1.60809E-03-4.04231E-06 7.69106E-18-4.20361E-18
 -1        55 4.55895E-03-7.96946E-04-1.58422E-03-4.35270E-06-3.99800E-18 3.14249E-19
 -1        56 4.62215E-03-9.73197E-04-1.55955E-03-4.29743E-06 1.10860E-17 1.51936E-17
 -1        57 4.68178E-03-1.14036E-03-1.53579E-03-3.76422E-06-6.50521E-18 1.73113E-17
 -1        58 4.73202E-03-1.28282E-03-1.51462E-03-2.57508E-06 1.42132E-17 1.46562E-17
 -1        59 4.76702E-03-1.38446E-03-1.49751E-03-4.14483E-07-4.36053E-18 7.47432E-18
 -1        60 4.78184E-03-1.43049E-03-1.48556E-03 3.18750E-06-1.31290E-17-8.55207E-18
 -1        61 4.78076E-03-1.42269E-03-1.47947E-03 5.77752E-06 1.90472E-17 3.72716E-18
 -1        62 4.75622E-03-1.40918E-03-1.48228E-03 8.93176E-06-2.01337E-18 5.26600E-18
 -1        63 4.76851E-03-1.41122E-03-1.49321E-03 2.57628E-06-6.01388E-18 5.01105E-18
 -1        64 4.84377E-03-1.43582E-03-1.51142E-03-1.49327E-06-1.02565E-18 3.81165E-19
 -1        65 4.97333E-03-1.47968E-03-1.53672E-03-4.04795E-06-4.80167E-18 1.12825E-18
 -1        66 5.14849E-03-1.54015E-03-1.56869E-03-5.79454E-06 1.35327E-18-3.82859E-19
 -1        67 5.36280E-03-1.61480E-03-1.60675E-03-7.15644E-06-9.14879E-18 2.58176E-18
 -1        68 5.61143E-03-1.70185E-03-1.65011E-03-8.36374E-06-5.29525E-18 1.08420E-19
 -1        69 5.89004E-03-1.79971E-03-1.69778E-03-9.51137E-06 5.85607E-18 1.38913E-18
 -1        70 6.19357E-03-1.90657E-03-1.74855E-03-1.05820E-05 1.01633E-18-2.30393E-19
 -1        71 6.51482E-03-2.01980E-03-1.80088E-03-1.14567E-05 2.74322E-18 3.16113E-18
 -1        72 6.84301E-03-2.13541E-03-1.85293E-03-1.18902E-05-5.24102E-18-3.23567E-18
 -1        73 4.76813E-03-1.40992E-03-1.47961E-03 5.77459E-06 5.50013E-18 1.62605E-17
 -1        74 4.76018E-03-1.40836E-03-1.48687E-03 3.37981E-06-1.46924E-17 5.50910E-18
 -1        75 4.80549E-03-1.42209E-03-1.50145E-03 1.35069E-07-1.38287E-17 6.80337E-18
 -1        76 4.90858E-03-1.45646E-03-1.52325E-03-1.77117E-06-7.92516E-18-2.56143E-18
 -1        77 5.06107E-03-1.50878E-03-1.55195E-03-2.95402E-06-1.38426E-18-4.58075E-18
 -1        78 5.25580E-03-1.57647E-03-1.58705E-03-3.80319E-06-1.62162E-17 1.50907E-17
 -1        79 5.48722E-03-1.65743E-03-1.62787E-03-4.52227E-06-1.64395E-17-1.00356E-17
 -1        80 5.75078E-03-1.75000E-03-1.67352E-03-5.21133E-06 1.67395E-19-1.98816E-17
 -1        81 6.04177E-03-1.85252E-03-1.72292E-03-5.89815E-06 2.72469E-18 4.24194E-18
 -1        82 6.35408E-03-1.96282E-03-1.77468E-03-6.54831E-06-6.68309E-19 5.12286E-18
 -1        83 6.67874E-03-2.07761E-03-1.82713E-03-7.05608E-06-4.58457E-18 1.44063E-17
 -1        84 7.00236E-03-2.19190E-03-1.87823E-03-7.25446E-06-5.40407E-18-1.91226E-17
 -1        85 7.44978E-03-2.34665E-03-1.94710E-03-9.97768E-06 5.64907E-18-1.95156E-18
 -1        86 7.67583E-03-2.42195E-03-1.98416E-03-6.40172E-06 4.07211E-18 3.51010E-18
 -1        87 7.80348E-03-2.45877E-03-2.01122E-03-5.39438E-07-1.67691E-18-2.48350E-18
 -1        88 7.79135E-03-2.44188E-03-2.02633E-03 8.38778E-06 8.50802E-18 2.77827E-19
 -1        89 7.60440E-03-2.35851E-03-2.02848E-03 1.97532E-05 1.95199E-18 3.25134E-18
 -1        90 7.21507E-03-2.19955E-03-2.01807E-03 3.24868E-05-6.90861E-18-5.17452E-18
 -1        91 6.63117E-03-1.96656E-03-1.99710E-03 4.43311E-05-8.32395E-19-1.43657E-18
 -1        92 5.89291E-03-1.67624E-03-1.96922E-03 5.16136E-05 1.31068E-18-4.87891E-18
 -1        93 5.09511E-03-1.36372E-03-1.93934E-03 5.19736E-05 9.55453E-18 4.57228E-18
 -1        94 4.37053E-03-1.07978E-03-1.91290E-03 4.24183E-05-1.33408E-18 5.62769E-18
 -1        95 3.85937E-03-8.79426E-04-1.89476E-03 2.39650E-05 2.36957E-18-3.22720E-19
 -1        96 7.30579E-03-2.29836E-03-1.92563E-03-7.01114E-06 1.21753E-17-1.28749E-17
 -1        97 7.56270E-03-2.38673E-03-1.96680E-03-5.89166E-06 1.02694E-17 1.19872E-17
 -1        98 7.73987E-03-2.44412E-03-1.99916E-03-3.55778E-06 3.31190E-18 4.57398E-18
 -1        99 7.79865E-03-2.45528E-03-2.02046E-03 3.93709E-07 1.00941E-17-1.94818E-17
 -1       100 7.70009E-03-2.40609E-03-2.02914E-03 7.28005E-06 7.31921E-18 1.00589E-17
 -1       101 7.41291E-03-2.28430E-03-2.02487E-03 1.45512E-05-6.88638E-18 1.38507E-17
 -1       102 6.92673E-03-2.08690E-03-2.00877E-03 2.33846E-05 1.47765E-18-2.25887E-17
 -1       103 6.26448E-03-1.82301E-03-1.98377E-03 2.86671E-05 2.32511E-18-1.23328E-18
 -1       104 5.49490E-03-1.51821E-03-1.95422E-03 3.07112E-05 7.07611E-18-8.56520E-18
 -1       105 4.73101E-03-1.21691E-03-1.92537E-03 2.72971E-05 1.39930E-17 1.69610E-17
 -1       106 4.11082E-03-9.71528E-04-1.90251E-03 1.71167E-05 6.09864E-18 1.65680E-17
 -1       107 3.76207E-03-8.31746E-04-1.88992E-03 4.32333E-06 4.16571E-18-3.04762E-18
 -1       108 4.90755E-03-1.21585E-03-1.94897E-03 5.19826E-06-1.59920E-18-2.21380E-19
 -1       109 5.79613E-03-1.31456E-03-2.09362E-03 5.49341E-06-2.76472E-18-9.00950E-18
 -1       110 6.53917E-03-1.26113E-03-2.28714E-03 3.59455E-06 7.94178E-18 2.34514E-18
 -1       111 7.30359E-03-1.17127E-03-2.51074E-03 3.05843E-06-6.23416E-19-3.28077E-18
 -1       112 8.30428E-03-1.18319E-03-2.75212E-03 4.19661E-06 9.75782E-19 1.19482E-17
 -1       113 9.89260E-03-1.50230E-03-2.99572E-03 1.00862E-05-5.74627E-18 1.06231E-17
 -1       114 1.28393E-02-2.66165E-03-3.20880E-03 2.06860E-05-8.40257E-19-1.03139E-17
 -1       115 4.34895E-03-1.01439E-03-1.90492E-03 3.58689E-06 4.47233E-19-6.52999E-18
 -1       116 5.38117E-03-1.26301E-03-2.01355E-03 5.39675E-06-9.94755E-18-5.29184E-18
 -1       117 6.17262E-03-1.28637E-03-2.18565E-03 2.10104E-06 1.94614E-17-9.83405E-18
 -1       118 6.89329E-03-1.21517E-03-2.39586E-03-1.65258E-06-7.42678E-18 1.41116E-18
 -1       119 7.75430E-03-1.18244E-03-2.63023E-03-2.01637E-06 2.00035E-17 1.53770E-17
 -1       120 8.99998E-03-1.36328E-03-2.87528E-03-2.31610E-06-3.30140E-17 3.32227E-18
 -1       121 1.11263E-02-2.13782E-03-3.10886E-03 6.53829E-06 7.15573E-18-2.56820E-18
 -1       122 1.52749E-02-4.47855E-03-3.28057E-03 3.55228E-05 2.96529E-17 1.51737E-17
 -1       123 2.88939E-03-3.54298E-04-1.09394E-03-1.79592E-06 1.49058E-18-1.60597E-18
 -1       124 3.17222E-03-3.94902E-04-1.19290E-03-1.32456E-06-5.80796E-19 6.64074E-19
 -1       125 3.42203E-03-4.45484E-04-1.27565E-03-1.01917E-06 4.69923E-19-2.97478E-18
 -1       126 3.64284E-03-4.99345E-04-1.34560E-03-8.10848E-07 5.06970E-18 7.99599E-19
 -1       127 3.83735E-03-5.50559E-04-1.40570E-03-6.66657E-07-6.22412E-19-3.91668E-18
 -1       128 4.00693E-03-5.93261E-04-1.45845E-03-5.66868E-07 2.72895E-18-2.83925E-18
 -1       129 4.15159E-03-6.21181E-04-1.50588E-03-4.96599E-07-8.11835E-18 2.91379E-18
 -1       130 4.26978E-03-6.27106E-04-1.54942E-03-4.45458E-07 2.54132E-18-4.11997E-18
 -1       131 4.35789E-03-6.02153E-04-1.58963E-03-4.05981E-07-7.75821E-18 6.40357E-18
 -1       132 4.40921E-03-5.34722E-04-1.62562E-03-3.54602E-07-1.37268E-18 2.97478E-18
 -1       133 4.41217E-03-4.09003E-04-1.65394E-03-4.20955E-07-2.80484E-18 9.87640E-19
 -1       134 2.72867E-03-3.40066E-04-1.03726E-03-5.81764E-07 6.41442E-18 5.69206E-18
 -1       135 3.03066E-03-3.72727E-04-1.14571E-03-4.99280E-07 7.90621E-18 4.79759E-18
 -1       136 3.29706E-03-4.19284E-04-1.23611E-03-3.71737E-07 4.55042E-18-6.16640E-18
 -1       137 3.53242E-03-4.72309E-04-1.31206E-03-2.98636E-07 4.73843E-18-5.65140E-18
 -1       138 3.74011E-03-5.25596E-04-1.37675E-03-2.52671E-07 5.95002E-18 1.62630E-19
 -1       139 3.92218E-03-5.73316E-04-1.43289E-03-2.25381E-07 8.04135E-18-3.88958E-18
 -1       140 4.07930E-03-6.09463E-04-1.48276E-03-2.12986E-07-1.18232E-17 1.74963E-17
 -1       141 4.21072E-03-6.27369E-04-1.52812E-03-2.14723E-07-1.33478E-17-2.24633E-17
 -1       142 4.31384E-03-6.19096E-04-1.56999E-03-2.32086E-07-6.63742E-18 1.30714E-17
 -1       143 4.38349E-03-5.74556E-04-1.60832E-03-2.60615E-07-5.41832E-18-6.01055E-18
 -1       144 4.41065E-03-4.80256E-04-1.64114E-03-3.65449E-07-5.26039E-18 2.78504E-18
 -1       145 4.37992E-03-3.17618E-04-1.66299E-03-7.76280E-08-1.24232E-17 5.00088E-18
 -1       146 2.66405E-03-3.91133E-04-9.90916E-04-4.90926E-04 2.04813E-18 1.01644E-19
 -1       147 2.93881E-03-5.55686E-04-1.03703E-03-9.20552E-04-2.73083E-18-1.61275E-18
 -1       148 3.34835E-03-7.94003E-04-1.10868E-03-1.24162E-03-1.86347E-18-1.17229E-18
 -1       149 3.83539E-03-1.06391E-03-1.19939E-03-1.43036E-03-9.21572E-19-1.45690E-18
 -1       150 4.34319E-03-1.32428E-03-1.30212E-03-1.48776E-03 7.52165E-19 6.91179E-19
 -1       151 4.82825E-03-1.54516E-03-1.41050E-03-1.43400E-03-7.99599E-19 1.96850E-18
 -1       152 5.26693E-03-1.71273E-03-1.51940E-03-1.29901E-03-1.89735E-18-2.01848E-18
 -1       153 5.65663E-03-1.82967E-03-1.62481E-03-1.11218E-03 2.44623E-18-1.98290E-18
 -1       154 6.01223E-03-1.91276E-03-1.72310E-03-8.94305E-04-2.14130E-18 8.48727E-19
 -1       155 6.36066E-03-1.98835E-03-1.80937E-03-6.51353E-04 1.62630E-19-1.13164E-18
 -1       156 6.73419E-03-2.08863E-03-1.87478E-03-3.70022E-04 1.92446E-18-2.30054E-18
 -1       157 2.59199E-03-3.61199E-04-9.79010E-04-2.46487E-04 8.05359E-18 5.44812E-18
 -1       158 2.78128E-03-4.73043E-04-1.01045E-03-7.08406E-04-4.54010E-18 4.30970E-18
 -1       159 3.12936E-03-6.74718E-04-1.07006E-03-1.08472E-03-9.86624E-18-2.49366E-18
 -1       160 3.58490E-03-9.29137E-04-1.15212E-03-1.33962E-03 4.33681E-18-6.13929E-18
 -1       161 4.08890E-03-1.19447E-03-1.24971E-03-1.46178E-03-1.09504E-17-6.28837E-18
 -1       162 4.58995E-03-1.43522E-03-1.35600E-03-1.46219E-03 1.61546E-17 2.83248E-18
 -1       163 5.05388E-03-1.62945E-03-1.46520E-03-1.36622E-03-1.53415E-17 4.67562E-19
 -1       164 5.46743E-03-1.77162E-03-1.57280E-03-1.20403E-03-3.90313E-18-5.90911E-18
 -1       165 5.83741E-03-1.87150E-03-1.67515E-03-1.00093E-03-3.46945E-18-3.27294E-18
 -1       166 6.18545E-03-1.95065E-03-1.76821E-03-7.70547E-04 1.17907E-18-1.91091E-18
 -1       167 6.54221E-03-2.03834E-03-1.84554E-03-5.09383E-04 2.37169E-18-2.33103E-18
 -1       168 6.93969E-03-2.16722E-03-1.89493E-03-1.92685E-04 3.18484E-18-1.01508E-17
 -1       169 7.12088E-03-2.41155E-03-1.98255E-03 8.00966E-04 9.99499E-19 1.88888E-18
 -1       170 5.84503E-03-3.26413E-03-1.21436E-03-1.84616E-03-8.13152E-20-2.15485E-18
 -1       171 3.76675E-03-1.41948E-03-1.03975E-03-1.75200E-03 1.89735E-19 1.59920E-18
 -1       172 6.75164E-03-2.20851E-03-1.86933E-03-4.26928E-04-4.59431E-18-9.40207E-19
 -1       173 1.68023E-03-2.01281E-03-2.46065E-04-1.49286E-03-4.20128E-19-2.66985E-18
 -1       174 2.45899E-03-6.95816E-04-8.05710E-04-1.17308E-03 7.79270E-19 5.55654E-19
 -1       175 6.19108E-03-1.56383E-03-2.09574E-03 9.62044E-04 2.84603E-19 3.32545E-18
 -1       176 1.00801E-02-1.94953E-03-2.92685E-03 4.17078E-05-2.10064E-18 9.31059E-18
 -1       177 5.14239E-03-2.04001E-03-1.34411E-03-1.55697E-03 3.65918E-19 3.67612E-19
 -1       178 8.69404E-03-2.88481E-03-2.25914E-03-2.25409E-04-3.45589E-18 3.90313E-18
 -1       179 3.73182E-03-1.95383E-03-8.52195E-04-2.06896E-03-1.28749E-18 1.39591E-18
 -1       180 6.76228E-03-2.06410E-03-2.04741E-03 1.22312E-03 1.33831E-17-3.38813E-18
 -1       181 6.09339E-03-2.24762E-03-1.63534E-03-9.64306E-04-2.29715E-18-3.20178E-18
 -1       182 7.05539E-03-2.41222E-03-1.91933E-03 8.66851E-05 2.41235E-18-5.27363E-18
 -1       183 1.95430E-03-1.07896E-03-5.21696E-04-1.44348E-03-3.08998E-18 2.41235E-18
 -1       184 7.95704E-03-1.79379E-03-2.48429E-03 1.09546E-03-7.99599E-19-3.36103E-18
 -1       185 3.47002E-03-2.36189E-03-6.86635E-04-2.13122E-03-1.59920E-18-1.69068E-18
 -1       186 6.58395E-03-2.58050E-03-1.68758E-03-1.83088E-03-1.62630E-19 1.76183E-18
 -1       187 5.65746E-03-2.75448E-03-1.27933E-03-1.62150E-03 9.21572E-19-2.62580E-19
 -1       188 7.73337E-03-3.22232E-03-1.90456E-03 4.20853E-04 3.25261E-18-1.95156E-18
 -1       189 6.74191E-03-2.83197E-03-1.67211E-03-5.32377E-04-9.89334E-19 2.57498E-19
 -1       190 7.56535E-03-2.43025E-03-2.15881E-03 1.29589E-03 8.80914E-20 1.05845E-17
 -1       191 7.41354E-03-2.79047E-03-1.95293E-03 7.98559E-04-6.50521E-19-7.58942E-19
 -1       192 6.99780E-03-2.27896E-03-2.01635E-03 1.07793E-03-4.25211E-19 2.53432E-18
 -1       193 7.15878E-03-2.23953E-03-2.10230E-03 1.33717E-03 2.73083E-18-2.71051E-19
 -1       194 7.79758E-03-2.88173E-03-2.05896E-03 9.66086E-04-8.30855E-18 5.82759E-18
 -1       195 7.38973E-03-2.56296E-03-2.03962E-03 1.15798E-03 1.88211E-18 8.71427E-18
 -1       196 3.05770E-03-1.03832E-03-9.08198E-04-1.56495E-03-2.57498E-18-1.13841E-18
 -1       197 3.73892E-03-1.65880E-03-9.46839E-04-1.91690E-03 2.57498E-19 2.73083E-18
 -1       198 2.76835E-03-1.49408E-03-6.67203E-04-1.88863E-03 6.09864E-19 9.48677E-20
 -1       199 2.20839E-03-8.43667E-04-6.70544E-04-1.31299E-03 5.01444E-19 1.54499E-18
 -1       200 2.91028E-03-1.23016E-03-7.91764E-04-1.73360E-03-2.30393E-19 3.27294E-18
 -1       201 7.64614E-03-1.32586E-03-2.54968E-03 6.78675E-04 1.08420E-19 4.08609E-18
 -1       202 7.04481E-03-1.64719E-03-2.28763E-03 1.16710E-03 3.33392E-18-2.35814E-18
 -1       203 5.93512E-03-1.38158E-03-2.10158E-03 5.29254E-04 6.66784E-18-1.39337E-18
 -1       204 6.75632E-03-1.35034E-03-2.31200E-03 6.59663E-04-3.38813E-18 1.56871E-18
 -1       205 9.51171E-04-1.95835E-03-6.41336E-05-7.74996E-04 3.51010E-18 1.49078E-18
 -1       206 1.67625E-03-2.88626E-03-1.63207E-04-8.10804E-04 1.16552E-18 4.87891E-19
 -1       207 1.14122E-03-3.44423E-03 8.26394E-05-2.87193E-04 3.04932E-18-1.76183E-18
 -1       208 5.39488E-03-1.43172E-03-1.96730E-03 6.39193E-04 1.53821E-18 4.03018E-18
 -1       209 5.06007E-03-1.27862E-03-1.95614E-03 3.48574E-04-5.42779E-18-8.09340E-19
 -1       210 7.71960E-03-2.15110E-03-2.30581E-03 1.29142E-03-3.15096E-18-1.02864E-17
 -1       211 6.47902E-03-1.81069E-03-2.07507E-03 1.19488E-03 7.13541E-18 5.48877E-19
 -1       212 7.08930E-03-1.96710E-03-2.19009E-03 1.35575E-03 1.54499E-18 3.45589E-19
 -1       213 6.28592E-03-1.85146E-03-1.99126E-03 8.31291E-04-2.81215E-19-4.67562E-18
 -1       214 5.82514E-03-1.63507E-03-1.97921E-03 8.04009E-04 3.48978E-18 2.88161E-18
 -1       215 1.40032E-03-7.98568E-04-4.22602E-04-7.80190E-04 9.28348E-19-1.76183E-18
 -1       216 1.77895E-03-1.46652E-03-3.77638E-04-1.55504E-03-6.23416E-19-9.21572E-19
 -1       217 1.10781E-03-1.20835E-03-2.43205E-04-8.39670E-04 7.72494E-19 1.74828E-18
 -1       218 5.84455E-03-3.12903E-03-1.22459E-03-1.72280E-03-9.62229E-19-8.70750E-19
 -1       219 4.58556E-03-2.86717E-03-9.17691E-04-2.08647E-03-2.38524E-18-2.61225E-18
 -1       220 3.65293E-03-2.16330E-03-7.67416E-04-2.14355E-03-2.03288E-19-1.62630E-19
 -1       221 4.76752E-03-2.42030E-03-1.06507E-03-1.97253E-03-2.30393E-18 6.16640E-19
 -1       222 4.76464E-03-2.68978E-03-9.83113E-04-2.08295E-03 7.86047E-19-3.68740E-18
 -1       223 7.36577E-03-3.52701E-03-1.64612E-03-7.26823E-04-1.32815E-18-1.99222E-18
 -1       224 8.15016E-03-3.23217E-03-2.03417E-03 3.12515E-04 2.58176E-18 2.71051E-18
 -1       225 8.07395E-03-2.89067E-03-2.01865E-03-1.16280E-03 3.41524E-18 2.43945E-19
 -1       226 6.17285E-03-3.15255E-03-1.40574E-03-1.68136E-03-8.67362E-19-1.68051E-18
 -1       227 7.66393E-03-3.39263E-03-1.78959E-03-7.74005E-04-2.85958E-18 1.51788E-18
 -1       228 9.37259E-03-2.28881E-03-2.49950E-03-1.89687E-03-1.91091E-18-2.95445E-18
 -1       229 4.86546E-03-1.29967E-03-1.58739E-03-2.49661E-03-1.05710E-18-1.51788E-18
 -1       230 7.56704E-03-1.82260E-03-2.08739E-03-2.66497E-03 1.58565E-18 6.58653E-18
 -1       231 1.17804E-02-2.82814E-03-2.95461E-03-1.78960E-03 8.59230E-18-7.42678E-18
 -1       232 1.01353E-02-1.67233E-03-2.99852E-03 1.02905E-04-3.15774E-18-2.24294E-18
 -1       233 1.28711E-02-2.91004E-03-3.15198E-03-7.70214E-04 1.40946E-18 8.68717E-18
 -1       234 2.70707E-03-6.04066E-04-9.29516E-04-1.03797E-03-3.17129E-18 1.00289E-18
 -1       235 3.78541E-03-1.21117E-03-1.12336E-03-1.58324E-03-8.13152E-20 1.11808E-18
 -1       236 3.20029E-03-8.90154E-04-1.01466E-03-1.39272E-03 7.52165E-19-2.35136E-18
 -1       237 6.38882E-03-2.53059E-03-1.64479E-03-7.91094E-04-3.93023E-19 2.71559E-18
 -1       238 6.33507E-03-2.89240E-03-1.49386E-03-1.08117E-03 3.44234E-18 1.35525E-18
 -1       239 5.35824E-03-2.37274E-03-1.30449E-03-1.60433E-03-2.72406E-18 9.58841E-19
 -1       240 5.67685E-03-2.19440E-03-1.49557E-03-1.27625E-03 4.52654E-18 4.88493E-19
 -1       241 5.96704E-03-2.52505E-03-1.48495E-03-1.20837E-03 1.57209E-18 5.02291E-19
 -1       242 4.95270E-03-1.75909E-03-1.37668E-03-1.50561E-03 4.28260E-18-2.49197E-18
 -1       243 5.85254E-03-2.01692E-03-1.62885E-03-1.06819E-03 1.41624E-18-2.75625E-18
 -1       244 5.44134E-03-1.92458E-03-1.50595E-03-1.30891E-03-3.93023E-19-1.78978E-18
 -1       245 6.56193E-03-2.09610E-03-1.84103E-03-5.69672E-04-2.64952E-18 2.44284E-18
 -1       246 6.42896E-03-2.23157E-03-1.76152E-03-6.72780E-04-1.28749E-18 4.28599E-19
 -1       247 6.21117E-03-2.05999E-03-1.74232E-03-8.16927E-04-2.68340E-18-3.68798E-18
 -1       248 7.13658E-03-2.24486E-03-1.94969E-03-2.22491E-04 2.26327E-18 4.31987E-18
 -1       249 6.95577E-03-2.17316E-03-1.91540E-03-3.16418E-04 3.45251E-18 3.38813E-21
 -1       250 4.49301E-03-1.77281E-03-1.19001E-03-1.73593E-03-1.11131E-18 2.99172E-18
 -1       251 4.39094E-03-1.51496E-03-1.24731E-03-1.61140E-03-5.00088E-18-5.89535E-19
 -1       252 7.28644E-03-2.31105E-03-1.99383E-03 1.12214E-04 4.84503E-19-4.46217E-18
 -1       253 6.92102E-03-2.32003E-03-1.89484E-03-2.08360E-04 3.99800E-19-1.65341E-18
 -1       254 7.25486E-03-2.29473E-03-1.97620E-03-8.00870E-05-1.63647E-18-1.38744E-18
 -1       255 7.22897E-03-3.12821E-03-1.75337E-03-8.73025E-05 3.31359E-18-3.87602E-18
 -1       256 6.92296E-03-2.62195E-03-1.81116E-03-1.29927E-04-2.03288E-20-1.60597E-18
 -1       257 7.13475E-03-2.44798E-03-1.94971E-03 4.41585E-04-1.68390E-18-2.16163E-18
 -1       258 7.19579E-03-2.77020E-03-1.86756E-03 3.18578E-04-7.58942E-19-4.67562E-19
 -1       259 6.66693E-03-2.42778E-03-1.78185E-03-4.46247E-04 4.67562E-19 1.83806E-18
 -1       260 7.02505E-03-2.19527E-03-2.00604E-03 5.66632E-04-1.10284E-18 2.75476E-18
 -1       261 6.70941E-03-2.04833E-03-2.00140E-03 7.42924E-04 4.73068E-18-1.85331E-18
 -1       262 7.21940E-03-2.28180E-03-2.00409E-03 3.37903E-04-6.67462E-19 2.28402E-18
 -1       263 4.60084E-03-2.07007E-03-1.12409E-03-1.86242E-03-6.36969E-19-1.66696E-18
 -1       264 3.16415E-03-2.30947E-03-7.64420E-04-1.70708E-03 3.79471E-19-2.11419E-18
 -1       265 2.49940E-03-2.11599E-03-4.59110E-04-1.91516E-03-1.16552E-18-3.36780E-18
 -1       266 2.87547E-03-2.43478E-03-5.50105E-04-1.81218E-03-9.48677E-19-3.10395E-18
 -1       267 6.80999E-03-3.29683E-03-1.53014E-03-9.19167E-04-1.08420E-19-1.36881E-18
 -1       268 8.72027E-03-1.73969E-03-2.69596E-03 6.82132E-04-2.77827E-18-2.87314E-18
 -1       269 8.66880E-03-2.38938E-03-2.46484E-03 7.12376E-04-6.45778E-18 5.28549E-19
 -1       270 9.59424E-03-2.28132E-03-2.70043E-03-1.72674E-04-1.35525E-19-5.47522E-18
 -1       271 2.06763E-03-4.64073E-04-7.41900E-04-6.28871E-04 3.87941E-18-2.16840E-19
 -1       272 2.37983E-03-4.08300E-04-8.75621E-04-5.55026E-04 2.91379E-19 5.78693E-18
 -1       273 1.73761E-03-5.79664E-04-5.91494E-04-7.07333E-04 4.06576E-19 4.74338E-19
 -1       274 8.60388E-03-1.35660E-03-2.77195E-03 4.23236E-04 3.14419E-18 6.12574E-18
 -1       275 3.78197E-03-2.02119E-03-1.13113E-03-1.83731E-03-5.14996E-18 2.84603E-18
 -1       276 2.65179E-03-1.77663E-03-5.58762E-04-1.97139E-03-2.30393E-18-7.92823E-19
 -1       277 8.14004E-03-2.72143E-03-2.22557E-03 9.59596E-04-6.23586E-18 4.14707E-18
 -1       278 7.57923E-03-3.00064E-03-1.93311E-03 6.21270E-04 8.23994E-18 4.58075E-18
 -1       279 7.41168E-03-2.68323E-03-1.99833E-03 9.75064E-04-1.28749E-18 1.79978E-17
 -1       280 7.57498E-03-2.71807E-03-2.05067E-03 1.07076E-03-1.90049E-17 1.17365E-17
 -1       281 7.78624E-03-3.03531E-03-1.98712E-03 7.04403E-04 6.34258E-18-5.36680E-18
 -1       282 7.25073E-03-2.60202E-03-1.96857E-03 8.03575E-04-9.43934E-18 3.34747E-18
 -1       283 7.06173E-03-2.35062E-03-1.99962E-03 9.31732E-04-1.58226E-18 6.05120E-18
 -1       284 7.16976E-03-2.41891E-03-2.02738E-03 1.11580E-03-1.09775E-18 1.47180E-17
 -1       285 6.87971E-03-2.17328E-03-2.03241E-03 1.14238E-03 1.40540E-17 5.33970E-18
 -1       286 6.95180E-03-2.15067E-03-2.07419E-03 1.27270E-03 2.33917E-17 1.35525E-18
 -1       287 7.27782E-03-2.40021E-03-2.07454E-03 1.24623E-03 1.30104E-18 2.50044E-17
 -1       288 7.35285E-03-2.33272E-03-2.13090E-03 1.31755E-03 6.26127E-18 9.62229E-18
 -1       289 7.69831E-03-2.63281E-03-2.11675E-03 1.14932E-03-2.63597E-17 3.46945E-17
 -1       290 2.73648E-03-8.67170E-04-8.52537E-04-1.37447E-03-4.47233E-18-2.92735E-18
 -1       291 2.98309E-03-1.12529E-03-8.51319E-04-1.64190E-03-3.36103E-18 7.99599E-18
 -1       292 2.53256E-03-1.03732E-03-7.25917E-04-1.52859E-03-8.89046E-18 7.53521E-18
 -1       293 2.33356E-03-7.60276E-04-7.40052E-04-1.23730E-03 2.41235E-18 1.24683E-18
 -1       294 3.40198E-03-1.22936E-03-9.71185E-04-1.66365E-03-2.65630E-18 5.42101E-20
 -1       295 3.75101E-03-1.53017E-03-9.93942E-04-1.82628E-03-3.87602E-18 2.03288E-19
 -1       296 3.31099E-03-1.44485E-03-8.66149E-04-1.83006E-03 2.30393E-18 8.32125E-18
 -1       297 3.73285E-03-1.79702E-03-8.99298E-04-1.98562E-03-1.30104E-18 6.87113E-18
 -1       298 3.23453E-03-1.72291E-03-7.56101E-04-1.98288E-03 3.68629E-18-2.16840E-19
 -1       299 2.83855E-03-1.35044E-03-7.30187E-04-1.80355E-03-2.52077E-18 1.11673E-17
 -1       300 2.33275E-03-1.28647E-03-5.88170E-04-1.67000E-03-9.59519E-18 4.55365E-18
 -1       301 2.08177E-03-9.46435E-04-5.97639E-04-1.37118E-03-2.24972E-18 7.67073E-18
 -1       302 6.64459E-03-1.27782E-03-2.30510E-03 3.31601E-04 3.79471E-18-2.93412E-18
 -1       303 6.34755E-03-1.36514E-03-2.20188E-03 5.89447E-04 2.30393E-17 6.70850E-19
 -1       304 5.86384E-03-1.32958E-03-2.09922E-03 2.61507E-04 4.87891E-18-1.70423E-18
 -1       305 7.47428E-03-1.20770E-03-2.54211E-03 3.49234E-04 1.08420E-18 1.20889E-17
 -1       306 7.17175E-03-1.33687E-03-2.42848E-03 6.65795E-04-2.30935E-17-2.52077E-18
 -1       307 7.82090E-03-1.52696E-03-2.53050E-03 9.03033E-04-2.71051E-18-7.77915E-18
 -1       308 7.49058E-03-1.72077E-03-2.38755E-03 1.13625E-03-7.80626E-18-6.20706E-18
 -1       309 6.90688E-03-1.47826E-03-2.30602E-03 9.19415E-04-2.38524E-18 4.01155E-18
 -1       310 6.61856E-03-1.60478E-03-2.18881E-03 1.05858E-03-1.95156E-18 3.11708E-18
 -1       311 6.06197E-03-1.45948E-03-2.10040E-03 7.42008E-04 5.20417E-18-1.49688E-17
 -1       312 7.76837E-04-1.94597E-03-1.86335E-05-3.80736E-04 4.78404E-18 3.14419E-18
 -1       313 1.07348E-03-2.57142E-03 1.65716E-05-5.32755E-04 8.15862E-18 7.58942E-19
 -1       314 1.06788E-03-3.53101E-03 1.47818E-04-1.29451E-04 8.48388E-18 3.95734E-18
 -1       315 1.25599E-03-1.99700E-03-1.41391E-04-1.11414E-03 9.32414E-18-8.67362E-19
 -1       316 1.66813E-03-2.45352E-03-1.91612E-04-1.16512E-03 2.00577E-18 0.00000E+00
 -1       317 1.39182E-03-3.15498E-03-2.03387E-05-4.70440E-04 6.99310E-18-1.13841E-18
 -1       318 1.29917E-03-3.01119E-03-1.73321E-04 4.01034E-04 3.90313E-18-1.17229E-18
 -1       319 1.68833E-03-4.49181E-03 1.22255E-04 5.48586E-04 9.37835E-18-1.72117E-18
 -1       320 4.98199E-03-1.23459E-03-1.95195E-03 1.69185E-04-8.89046E-18-7.65210E-18
 -1       321 4.51187E-03-1.08255E-03-1.91159E-03 1.89667E-04 1.87025E-18 5.21772E-18
 -1       322 5.52219E-03-1.32829E-03-2.02120E-03 4.36955E-04-2.00306E-17-3.79344E-18
 -1       323 5.80828E-03-1.49809E-03-2.02490E-03 7.95579E-04 1.30917E-17 9.51726E-18
 -1       324 5.22519E-03-1.34535E-03-1.96136E-03 4.83716E-04-1.54499E-18 1.22345E-17
 -1       325 4.91830E-03-1.25868E-03-1.92779E-03 3.47366E-04 1.00153E-17 1.43352E-17
 -1       326 7.83058E-03-2.00240E-03-2.39230E-03 1.19808E-03-7.42678E-18-1.41759E-17
 -1       327 7.40907E-03-2.05563E-03-2.24927E-03 1.32542E-03 4.20128E-18-1.25225E-17
 -1       328 7.06441E-03-1.81084E-03-2.23868E-03 1.25843E-03 2.30393E-18-8.67362E-19
 -1       329 7.63871E-03-2.32464E-03-2.22762E-03 1.29620E-03-1.34170E-17-1.33899E-17
 -1       330 7.11791E-03-2.11239E-03-2.14442E-03 1.33970E-03 9.78492E-18-1.83366E-17
 -1       331 6.61920E-03-1.93821E-03-2.06195E-03 1.20042E-03 2.15756E-17-1.15061E-17
 -1       332 6.78689E-03-1.88799E-03-2.13148E-03 1.26843E-03 1.37152E-17-4.20128E-18
 -1       333 6.33381E-03-1.68460E-03-2.08667E-03 1.07338E-03 7.20994E-18 1.74014E-17
 -1       334 6.51413E-03-1.95775E-03-2.01630E-03 1.02759E-03 3.05067E-17-4.52485E-18
 -1       335 6.05501E-03-1.74127E-03-1.98538E-03 8.02073E-04 1.06387E-17 1.26631E-17
 -1       336 6.15534E-03-1.72372E-03-2.02216E-03 9.96088E-04 5.42101E-18 7.33361E-18
 -1       337 6.07429E-03-1.76436E-03-1.97477E-03 4.50349E-04-8.72783E-18-2.37847E-18
 -1       338 5.47126E-03-1.50106E-03-1.95003E-03 4.36427E-04 1.96173E-17 7.76560E-18
 -1       339 5.60839E-03-1.52740E-03-1.97311E-03 7.07948E-04 7.15573E-18 9.85438E-18
 -1       340 1.03495E-03-1.52648E-03-1.52436E-04-7.98574E-04 4.60786E-18 1.84314E-18
 -1       341 1.39559E-03-1.33631E-03-2.99791E-04-1.19617E-03-2.98156E-19 1.30104E-18
 -1       342 1.71844E-03-1.71448E-03-3.08908E-04-1.50650E-03-1.24683E-18-1.19262E-17
 -1       343 9.40577E-04-1.15543E-03-2.10612E-04-4.20033E-04 1.02999E-18 1.62630E-18
 -1       344 1.25783E-03-7.44430E-04-3.99228E-04-3.91313E-04-2.05998E-18 1.62630E-19
 -1       345 1.25673E-03-9.73225E-04-3.34034E-04-8.04184E-04 1.62630E-19-3.25261E-19
 -1       346 1.63395E-03-9.38676E-04-4.63968E-04-1.11479E-03 1.46367E-18 2.00577E-18
 -1       347 1.86678E-03-1.25229E-03-4.49353E-04-1.49102E-03-4.82470E-18 8.67362E-19
 -1       348 5.74021E-03-2.94153E-03-1.24830E-03-1.65810E-03 1.78893E-18-6.39002E-18
 -1       349 5.29061E-03-2.90764E-03-1.10282E-03-1.91142E-03 3.74050E-18-5.78693E-18
 -1       350 4.75512E-03-2.54897E-03-1.02324E-03-2.01695E-03-4.87891E-19-1.68390E-18
 -1       351 5.22205E-03-2.58931E-03-1.17347E-03-1.80109E-03 2.81893E-18-1.73642E-19
 -1       352 5.85734E-03-3.21260E-03-1.21148E-03-1.76224E-03 2.38524E-18-1.62630E-18
 -1       353 5.18036E-03-3.07864E-03-1.05990E-03-1.96721E-03-5.25838E-18-5.14996E-18
 -1       354 4.70860E-03-2.78556E-03-9.47594E-04-2.07177E-03-4.49944E-18-9.67650E-18
 -1       355 4.02808E-03-2.62832E-03-7.92060E-04-2.12628E-03-6.12574E-18-8.48981E-18
 -1       356 3.58613E-03-2.25330E-03-7.26269E-04-2.13604E-03-4.11997E-18-6.92534E-18
 -1       357 4.17621E-03-2.43211E-03-8.70618E-04-2.11799E-03-6.83047E-18-1.47045E-18
 -1       358 3.68746E-03-2.05051E-03-8.09742E-04-2.10023E-03-2.05998E-18 2.95445E-18
 -1       359 4.24553E-03-2.18843E-03-9.57110E-04-2.02675E-03-7.31836E-18 3.25261E-18
 -1       360 6.70984E-03-3.39934E-03-1.44991E-03-1.28446E-03 4.93312E-18-2.98156E-18
 -1       361 7.49050E-03-3.50396E-03-1.70853E-03-7.24267E-04 1.08420E-19 6.61363E-18
 -1       362 7.02863E-03-3.23772E-03-1.61387E-03-1.23186E-03-1.13841E-18-2.60209E-18
 -1       363 5.98059E-03-3.24876E-03-1.29926E-03-1.75207E-03-3.08998E-18-6.17995E-18
 -1       364 7.63299E-03-3.36952E-03-1.79725E-03-1.26587E-04-3.74050E-18-6.50521E-19
 -1       365 7.91489E-03-3.26370E-03-1.95851E-03 3.82442E-04-1.57209E-18-3.30682E-18
 -1       366 8.01522E-03-3.31040E-03-1.93066E-03-2.05059E-04 2.38524E-18-3.25261E-18
 -1       367 8.37469E-03-3.11622E-03-2.13371E-03 8.42304E-05-2.29038E-18 1.04083E-17
 -1       368 8.41427E-03-2.87496E-03-2.15157E-03-7.00539E-04-1.16010E-17 8.99888E-18
 -1       369 7.78758E-03-3.19877E-03-1.89295E-03-9.21485E-04-7.04731E-18-5.74627E-18
 -1       370 7.30608E-03-2.71981E-03-1.86292E-03-1.52153E-03 3.63208E-18 2.27682E-18
 -1       371 6.35410E-03-2.90026E-03-1.53540E-03-1.73331E-03-1.62630E-18-5.20417E-18
 -1       372 8.93910E-03-2.66211E-03-2.37270E-03-9.85692E-04-1.21973E-19 5.96311E-18
 -1       373 8.45326E-03-1.99508E-03-2.30749E-03-2.36233E-03-9.78492E-18 1.38778E-17
 -1       374 7.72801E-03-2.41889E-03-2.05273E-03-1.84292E-03 0.00000E+00 6.17995E-18
 -1       375 9.96659E-03-2.17994E-03-2.63034E-03-3.88528E-03-2.52077E-18-1.08420E-18
 -1       376 6.52412E-03-7.42406E-04-2.11985E-03-3.92697E-03 1.00831E-17 1.33357E-17
 -1       377 3.41218E-03 1.31461E-05-1.52613E-03-2.64533E-03-1.96241E-17-4.66207E-18
 -1       378 6.09780E-03-1.48580E-03-1.84557E-03-2.63876E-03 6.88468E-18-5.20417E-18
 -1       379 5.82520E-03-1.94473E-03-1.64157E-03-2.15170E-03 5.31259E-18 5.85469E-18
 -1       380 1.19029E-02-2.56283E-03-2.88696E-03-3.98927E-03 1.22515E-17-9.54098E-18
 -1       381 1.23030E-02-2.96195E-03-3.07196E-03-1.41712E-03 7.58942E-18-4.33681E-19
 -1       382 1.44805E-02-3.98917E-03-3.18200E-03-2.37389E-03 2.13452E-17 1.45825E-17
 -1       383 1.09936E-02-2.32964E-03-2.96361E-03-7.85912E-04 8.53809E-18 4.33681E-18
 -1       384 1.01368E-02-1.81940E-03-2.97190E-03 5.68794E-05-1.61546E-17 3.05203E-17
 -1       385 1.12969E-02-2.27148E-03-3.08643E-03-3.60104E-04-1.33357E-17 1.26039E-17
 -1       386 1.00247E-02-1.58229E-03-3.00620E-03 6.59634E-05-1.04626E-17-1.12215E-17
 -1       387 1.28683E-02-2.84483E-03-3.19988E-03-4.05377E-04 6.45100E-18 1.43928E-17
 -1       388 2.58278E-03-6.43063E-04-8.69746E-04-1.10043E-03-1.36881E-18-6.34258E-18
 -1       389 2.93573E-03-7.46989E-04-9.68586E-04-1.21980E-03-1.20617E-18 8.40257E-19
 -1       390 3.12813E-03-9.56479E-04-9.62979E-04-1.47218E-03-1.46367E-18-2.33103E-18
 -1       391 2.82272E-03-5.75180E-04-9.85282E-04-9.75158E-04-5.61075E-18 6.34258E-18
 -1       392 3.27402E-03-8.36298E-04-1.06329E-03-1.31172E-03-1.08420E-18-5.52943E-18
 -1       393 3.81020E-03-1.13056E-03-1.16249E-03-1.50091E-03-2.11419E-18-1.21973E-19
 -1       394 3.48443E-03-1.05098E-03-1.06669E-03-1.49240E-03 2.54788E-18-3.90313E-18
 -1       395 3.77442E-03-1.30669E-03-1.08238E-03-1.66072E-03-1.62630E-18 1.02999E-18
 -1       396 6.24172E-03-2.38488E-03-1.63859E-03-8.80206E-04-1.51788E-18 3.28649E-18
 -1       397 6.19842E-03-2.52866E-03-1.56770E-03-9.94754E-04 3.08998E-18 4.52993E-18
 -1       398 5.82210E-03-2.35266E-03-1.48866E-03-1.24072E-03 5.06865E-18 3.32037E-18
 -1       399 5.89858E-03-2.22181E-03-1.56715E-03-1.11672E-03 2.81893E-18-4.76710E-18
 -1       400 6.56773E-03-2.68147E-03-1.65544E-03-6.65359E-04 1.11131E-18 8.76849E-18
 -1       401 6.57646E-03-2.86325E-03-1.58764E-03-7.97713E-04-5.50233E-18 2.46656E-18
 -1       402 6.15370E-03-2.70513E-03-1.48603E-03-1.14234E-03 4.20128E-18 3.33392E-18
 -1       403 6.03141E-03-2.82602E-03-1.39064E-03-1.34932E-03 6.01732E-18-8.60585E-19
 -1       404 5.50168E-03-2.55745E-03-1.28924E-03-1.60651E-03 2.60209E-18 7.06680E-18
 -1       405 5.68503E-03-2.44999E-03-1.39702E-03-1.40450E-03 2.87314E-18 3.12301E-18
 -1       406 5.24926E-03-2.19777E-03-1.32329E-03-1.57523E-03 1.73472E-18-2.57498E-19
 -1       407 5.42458E-03-2.11816E-03-1.42107E-03-1.41536E-03 6.07153E-18-1.92785E-18
 -1       408 5.55949E-03-2.05217E-03-1.50006E-03-1.29144E-03 5.44812E-18-9.76121E-18
 -1       409 5.65546E-03-1.97127E-03-1.56846E-03-1.18611E-03 9.32414E-18-6.27397E-18
 -1       410 5.97374E-03-2.12715E-03-1.63155E-03-1.01726E-03 2.92735E-18-4.60447E-18
 -1       411 5.04675E-03-1.89093E-03-1.35993E-03-1.52775E-03-5.69206E-19-8.02310E-18
 -1       412 5.20681E-03-1.84251E-03-1.44191E-03-1.40653E-03 2.46656E-18 6.40357E-19
 -1       413 4.89073E-03-1.64432E-03-1.39377E-03-1.46608E-03-3.52366E-19 2.04033E-17
 -1       414 5.35457E-03-1.81166E-03-1.51263E-03-1.30205E-03-3.30682E-18-1.64324E-19
 -1       415 5.75504E-03-1.91800E-03-1.62681E-03-1.08990E-03 2.98156E-19-1.29867E-17
 -1       416 6.03605E-03-2.03880E-03-1.68714E-03-9.39058E-04-2.22261E-18-8.77187E-18
 -1       417 6.32060E-03-2.14313E-03-1.75182E-03-7.47008E-04-8.99888E-18-6.73561E-18
 -1       418 6.26806E-03-2.23995E-03-1.70053E-03-8.13489E-04-8.67362E-19-7.21672E-19
 -1       419 6.11204E-03-1.98318E-03-1.73289E-03-8.56023E-04-4.87891E-18-9.17167E-18
 -1       420 6.46146E-03-2.04133E-03-1.82567E-03-6.10392E-04-1.35525E-19 8.40257E-19
 -1       421 6.38437E-03-2.07825E-03-1.79397E-03-6.89775E-04-1.04626E-17-4.98733E-18
 -1       422 6.65696E-03-2.15220E-03-1.85565E-03-5.00093E-04-5.69206E-18-3.19840E-18
 -1       423 6.58732E-03-2.22018E-03-1.81808E-03-5.44839E-04-1.47994E-17 1.58565E-18
 -1       424 6.84489E-03-2.13168E-03-1.89583E-03-3.41110E-04 3.64563E-18 1.66696E-18
 -1       425 6.74957E-03-2.13451E-03-1.88210E-03-4.40595E-04 2.43945E-18-9.35124E-19
 -1       426 7.18688E-03-2.25871E-03-1.93843E-03-1.64714E-04 1.86144E-17-1.89058E-18
 -1       427 7.38133E-03-2.33170E-03-1.97470E-03-1.15196E-04 4.76371E-18 4.74338E-18
 -1       428 7.04606E-03-2.21078E-03-1.93351E-03-2.69044E-04 5.84114E-18-2.00577E-18
 -1       429 6.93027E-03-2.22662E-03-1.91367E-03-3.20957E-04 1.40946E-18 1.82959E-18
 -1       430 4.36707E-03-1.41184E-03-1.27530E-03-1.54433E-03-4.66207E-18-5.50233E-18
 -1       431 4.08882E-03-1.36372E-03-1.18418E-03-1.60064E-03-4.28260E-18-1.19262E-18
 -1       432 4.67879E-03-1.63780E-03-1.31183E-03-1.55989E-03-1.02457E-17 3.11708E-18
 -1       433 4.82739E-03-1.90732E-03-1.26727E-03-1.64818E-03-4.33681E-19 6.77626E-19
 -1       434 4.44025E-03-1.63482E-03-1.21872E-03-1.66791E-03-6.09864E-18 5.14996E-18
 -1       435 4.13069E-03-1.59687E-03-1.11373E-03-1.74808E-03-6.20706E-18 2.76472E-18
 -1       436 7.49425E-03-2.37457E-03-2.00162E-03-3.96724E-05 4.01155E-18-6.12913E-18
 -1       437 7.19583E-03-2.27291E-03-1.96410E-03-1.53500E-04 1.36881E-18 2.19551E-18
 -1       438 7.49534E-03-2.37407E-03-2.01732E-03 6.28576E-05 9.44611E-18-8.57197E-18
 -1       439 7.27132E-03-2.30752E-03-1.98622E-03 1.06145E-05 3.59142E-18-1.42200E-17
 -1       440 7.14825E-03-2.36247E-03-1.96044E-03 1.04651E-04 8.05020E-18-7.47083E-18
 -1       441 6.98784E-03-2.36965E-03-1.90710E-03-6.86872E-05-1.78893E-18-4.03865E-18
 -1       442 7.06938E-03-2.30742E-03-1.93974E-03-1.39135E-04-3.02221E-18-6.65429E-18
 -1       443 6.83675E-03-2.26546E-03-1.88243E-03-3.22294E-04-6.96600E-18-2.77827E-19
 -1       444 7.47224E-03-3.20117E-03-1.81882E-03 1.65369E-04 4.85180E-18 3.79471E-18
 -1       445 7.22770E-03-2.94417E-03-1.81599E-03 1.26200E-04 1.87025E-18-7.08797E-18
 -1       446 7.30459E-03-2.79863E-03-1.90651E-03 5.46682E-04 4.87891E-19-4.66207E-18
 -1       447 6.98815E-03-2.99189E-03-1.70544E-03-3.17105E-04-4.87891E-19-1.16281E-17
 -1       448 6.84689E-03-2.72543E-03-1.74599E-03-3.22181E-04 1.00831E-17-2.23617E-18
 -1       449 7.05735E-03-2.70776E-03-1.83649E-03 8.12128E-05 3.25261E-18-3.67273E-18
 -1       450 6.98383E-03-2.51776E-03-1.86892E-03-1.51619E-05-6.09864E-18-5.17707E-18
 -1       451 7.09479E-03-2.43790E-03-1.93443E-03 2.53396E-04 2.00577E-18-1.46367E-17
 -1       452 7.15440E-03-2.61063E-03-1.91193E-03 3.84300E-04 3.84892E-18-3.42879E-18
 -1       453 7.12852E-03-2.43902E-03-1.96587E-03 6.09401E-04-4.06576E-18 8.55164E-18
 -1       454 6.53901E-03-2.47964E-03-1.71635E-03-6.11821E-04-4.68917E-18 5.27193E-18
 -1       455 6.79351E-03-2.52734E-03-1.79495E-03-2.96230E-04-2.03288E-18-2.66985E-18
 -1       456 6.54857E-03-2.32821E-03-1.77103E-03-5.64345E-04-4.93312E-18 6.93889E-18
 -1       457 6.79103E-03-2.37416E-03-1.84150E-03-3.20774E-04-6.42390E-18-1.36881E-18
 -1       458 6.83246E-03-2.16400E-03-2.00799E-03 9.11541E-04 2.60547E-18 4.94667E-19
 -1       459 6.49848E-03-1.95222E-03-1.99693E-03 7.71890E-04 1.25700E-17-2.17603E-17
 -1       460 7.04722E-03-2.30514E-03-1.99540E-03 6.85296E-04 2.78504E-18 3.05271E-18
 -1       461 6.86825E-03-2.12672E-03-2.00461E-03 6.41380E-04 1.54160E-18 4.04543E-18
 -1       462 7.07317E-03-2.19592E-03-2.01428E-03 3.06585E-04-1.30951E-17-1.35525E-19
 -1       463 6.63396E-03-2.00691E-03-1.99773E-03 4.02049E-04 1.47858E-17-7.22350E-18
 -1       464 7.12297E-03-2.24455E-03-2.00610E-03 4.40821E-04-5.19062E-18-8.68209E-19
 -1       465 7.36251E-03-2.31802E-03-2.02153E-03 1.83516E-04 5.08220E-19 6.54418E-18
 -1       466 7.15106E-03-2.36734E-03-1.97971E-03 3.93047E-04-6.61363E-18-3.13402E-18
 -1       467 7.25422E-03-2.30261E-03-2.00016E-03 2.16990E-04 1.68051E-18 9.89334E-19
 -1       468 4.99245E-03-2.22247E-03-1.21486E-03-1.73495E-03 2.27682E-18 2.17518E-18
 -1       469 4.54501E-03-1.91246E-03-1.15682E-03-1.79143E-03-3.27971E-18 4.11997E-18
 -1       470 4.67710E-03-2.23731E-03-1.09307E-03-1.90961E-03-1.51788E-18 5.20417E-18
 -1       471 4.16977E-03-1.86536E-03-1.03410E-03-1.89418E-03-8.07731E-18 7.46744E-18
 -1       472 4.69972E-03-2.83075E-03-1.00872E-03-1.84233E-03-1.08420E-17-1.16010E-17
 -1       473 3.05145E-03-2.50519E-03-6.39938E-04-1.79273E-03 1.51788E-18-1.80384E-17
 -1       474 3.84720E-03-2.67388E-03-7.40424E-04-2.02214E-03-1.84314E-18-4.98733E-18
 -1       475 1.95420E-03-2.35762E-03-4.96874E-04-2.15324E-04 8.67362E-18-5.17707E-18
 -1       476 2.23273E-03-2.54389E-03-3.53681E-04-1.35723E-03-4.11997E-18-2.40557E-18
 -1       477 2.06144E-03-2.04741E-03-3.49260E-04-1.68394E-03-1.13841E-18-7.96889E-18
 -1       478 2.67133E-03-2.29126E-03-4.90547E-04-1.90466E-03-5.63785E-18 4.06576E-18
 -1       479 3.03103E-03-2.23222E-03-5.72266E-04-2.04270E-03-9.21572E-18-8.61941E-18
 -1       480 6.39181E-03-3.21636E-03-1.38619E-03-1.32525E-03 2.16840E-18-6.42390E-18
 -1       481 7.07678E-03-3.44991E-03-1.57472E-03-8.11011E-04 1.08420E-19-4.22839E-18
 -1       482 6.57574E-03-3.10286E-03-1.50407E-03-9.93441E-04 1.24683E-18-5.48877E-18
 -1       483 7.08872E-03-3.21479E-03-1.65213E-03-4.83657E-04 3.55076E-18-4.77049E-18
 -1       484 8.28737E-03-1.78403E-03-2.58679E-03 9.04106E-04 1.13299E-17 8.32125E-18
 -1       485 9.29512E-03-1.99499E-03-2.72042E-03 3.46773E-04-1.55854E-17 5.63785E-18
 -1       486 9.05056E-03-2.36129E-03-2.57793E-03 3.31987E-04-9.05309E-18-8.45678E-18
 -1       487 8.37503E-03-2.05847E-03-2.49567E-03 9.60357E-04-2.65630E-18-1.11673E-17
 -1       488 9.28451E-03-1.82696E-03-2.81064E-03 3.70083E-04-3.52366E-17-9.86624E-18
 -1       489 1.03441E-02-2.49285E-03-2.82832E-03-8.75501E-04 2.81893E-18-7.58942E-18
 -1       490 9.79121E-03-2.34754E-03-2.62980E-03-9.62511E-04 7.23027E-18-7.80626E-18
 -1       491 8.79418E-03-2.62969E-03-2.38688E-03 2.81329E-04-3.96073E-18 1.35525E-18
 -1       492 2.51829E-03-5.05844E-04-8.98215E-04-7.99681E-04-4.21484E-18 1.59920E-18
 -1       493 2.52189E-03-3.95862E-04-9.35490E-04-5.20849E-04 4.38424E-18 4.49944E-18
 -1       494 2.23281E-03-5.79743E-04-7.68391E-04-9.04818E-04 1.25632E-17-7.58942E-19
 -1       495 2.22373E-03-4.30090E-04-8.11211E-04-5.89276E-04 6.15285E-18 1.18449E-17
 -1       496 1.96848E-03-4.21357E-04-7.27063E-04-3.15780E-04-2.00577E-18 4.14707E-18
 -1       497 2.29520E-03-3.72717E-04-8.62406E-04-2.78661E-04 1.19499E-17 3.49655E-18
 -1       498 1.56919E-03-6.72259E-04-5.09260E-04-7.39684E-04 2.22261E-18 5.42101E-19
 -1       499 1.93669E-03-7.11566E-04-6.24379E-04-1.01418E-03 9.40545E-18 1.13841E-18
 -1       500 1.61837E-03-5.30012E-04-5.73010E-04-3.55191E-04 3.51010E-18-1.89735E-18
 -1       501 1.90296E-03-5.12154E-04-6.69140E-04-6.64961E-04 5.88180E-18-4.39102E-18
 -1       502 8.69401E-03-1.50645E-03-2.74639E-03 5.56578E-04 2.11419E-18 1.19262E-18
 -1       503 9.26214E-03-1.52262E-03-2.88616E-03 2.46373E-04-9.43256E-18 5.85469E-18
 -1       504 8.07502E-03-1.34784E-03-2.65937E-03 5.57474E-04 1.78351E-17 1.56125E-17
 -1       505 8.45936E-03-1.23581E-03-2.77376E-03 2.28856E-04-3.57787E-18 1.64121E-17
 -1       506 3.38217E-03-2.15440E-03-9.36075E-04-1.71631E-03-7.69784E-18 0.00000E+00
 -1       507 2.24240E-03-9.71454E-04-9.65533E-04-1.03126E-03-3.90313E-18 3.19840E-18
 -1       508 5.24485E-03-2.56021E-03-1.27991E-03-1.81983E-03-1.20346E-17 3.25261E-19
 -1       509 4.22916E-03-1.61742E-03-1.34941E-03-2.16439E-03-1.21431E-17 1.18178E-17
 -1       510 3.13324E-03-1.96866E-03-6.61076E-04-2.05657E-03 1.13841E-18-6.66784E-18
 -1       511 2.70742E-03-1.62602E-03-6.12568E-04-1.92384E-03-3.25261E-18-2.71051E-19
 -1       512 2.58440E-03-1.94410E-03-5.07023E-04-1.94236E-03-3.03577E-18-1.92988E-17
 -1       513 2.18924E-03-1.62039E-03-4.63267E-04-1.75999E-03-8.34836E-18-7.91468E-18
 -1       514 8.37874E-03-2.60746E-03-2.33624E-03 8.68226E-04-1.04626E-17 1.51788E-18
 -1       515 7.96810E-03-2.39339E-03-2.27990E-03 1.16793E-03-6.81692E-18-2.22261E-18
 -1       516 8.19809E-03-2.94393E-03-2.14264E-03 6.68076E-04-9.76121E-18 1.30646E-17
 -1       517 7.95717E-03-2.84996E-03-2.13291E-03 9.77174E-04 2.23447E-18 2.54788E-17
 -1       518 4.31715E-03-6.78685E-04-1.54889E-03-3.00587E-04 1.69830E-19 7.11508E-20
 -1       519 4.66701E-03-1.25615E-03-1.46120E-03-1.25509E-03-9.55453E-19 4.07084E-18
 -1       520 5.24963E-03-1.52563E-03-1.59450E-03-4.99508E-04 1.22481E-18-3.54568E-18
 -1       521 3.78018E-03-5.91085E-04-1.36551E-03-5.25921E-04-5.56670E-18 6.64074E-19
 -1       522 4.61984E-03-9.58468E-04-1.56338E-03-3.71527E-04 2.38016E-19-1.65553E-18
 -1       523 4.82510E-03-1.36304E-03-1.50616E-03-1.61112E-04-1.43911E-18-1.30951E-18
 -1       524 5.94682E-03-1.79739E-03-1.73645E-03-6.90003E-04-1.60259E-18 3.50333E-18
 -1       525 4.43650E-03-5.90571E-04-1.61727E-03-1.84073E-04-1.90371E-18-5.69206E-19
 -1       526 3.39509E-03-5.34566E-04-1.22884E-03-6.86666E-04-3.69306E-18 6.84403E-19
 -1       527 4.73594E-03-1.18234E-03-1.53174E-03-3.14946E-04 5.59042E-19-1.86220E-18
 -1       528 5.34073E-03-1.56428E-03-1.60691E-03-1.08589E-03-7.45389E-20 1.32391E-18
 -1       529 4.51223E-03-7.44304E-04-1.59450E-03-3.20685E-04-7.14896E-19 2.14469E-18
 -1       530 4.09029E-03-6.57789E-04-1.46704E-03-4.05282E-04-1.37728E-18-5.99699E-19
 -1       531 5.56862E-03-1.64518E-03-1.66175E-03-6.21609E-04 1.77708E-18-1.49078E-18
 -1       532 4.14477E-03-8.28319E-04-1.42059E-03-9.03111E-04 2.59192E-18 1.12825E-18
 -1       533 3.96405E-03-8.75508E-04-1.32637E-03-1.13676E-03 2.22939E-18 2.77488E-18
 -1       534 5.00005E-03-1.43039E-03-1.54158E-03-3.43785E-04-1.48167E-18-1.17738E-18
 -1       535 4.96904E-03-1.31771E-03-1.56353E-03-7.68351E-04 5.31937E-18-3.19755E-18
 -1       536 4.44856E-03-8.20986E-04-1.54765E-03-5.25601E-04 2.71358E-18 2.95106E-18
 -1       537 4.62821E-03-1.12666E-03-1.49903E-03-1.04887E-03 5.04832E-19-1.68560E-18
 -1       538 5.12614E-03-1.41169E-03-1.58560E-03-9.52693E-04 1.34170E-18 3.82012E-18
 -1       539 4.31758E-03-8.31884E-04-1.49107E-03-7.07206E-04 3.56431E-18-2.36492E-18
 -1       540 4.84130E-03-1.24273E-03-1.54504E-03-5.55620E-04-1.69089E-18-6.93296E-19
 -1       541 4.63287E-03-1.06904E-03-1.52569E-03-8.36700E-04-8.70750E-19 1.86940E-18
 -1       542 4.63630E-03-1.02240E-03-1.54638E-03-6.18988E-04-2.28911E-18-2.55804E-18
 -1       543 4.63650E-03-1.04696E-03-1.53652E-03-7.29260E-04 1.34170E-18 1.41709E-18
 -1       544 4.73964E-03-1.13292E-03-1.54580E-03-6.07133E-04 6.02929E-19-1.36012E-18
 -1       545 4.90264E-03-1.27932E-03-1.55365E-03-6.65062E-04 1.92742E-18 1.32730E-18
 -1       546 4.80269E-03-1.19502E-03-1.54477E-03-8.27536E-04-8.14846E-19 3.21462E-18
 -1       547 4.77087E-03-1.16391E-03-1.54525E-03-7.19607E-04-2.76641E-18-2.41738E-18
 -1       548 5.04251E-03-1.36037E-03-1.57436E-03-8.64864E-04 4.97208E-18-1.49163E-18
 -1       549 4.88046E-03-1.27402E-03-1.54233E-03-1.03012E-03 3.96411E-19 2.93391E-18
 -1       550 4.62855E-03-1.09337E-03-1.51342E-03-9.43081E-04 8.52115E-19 1.33577E-18
 -1       551 4.83781E-03-1.22982E-03-1.54398E-03-9.31353E-04 1.62969E-18-2.48541E-18
 -1       552 4.93254E-03-1.34509E-03-1.54375E-03-4.66610E-04 2.72215E-19-3.79979E-18
 -1       553 4.78472E-03-1.20850E-03-1.53777E-03-4.39584E-04 2.12012E-18-1.62884E-18
 -1       554 4.78741E-03-1.28143E-03-1.51789E-03-2.47292E-04 6.88977E-18 1.41031E-18
 -1       555 4.90270E-03-1.39151E-03-1.52163E-03-2.54724E-04-1.41582E-18-6.62380E-19
 -1       556 4.85341E-03-1.30806E-03-1.52945E-03-3.59765E-04 1.80842E-18 9.43595E-19
 -1       557 5.22389E-03-1.47743E-03-1.59663E-03-1.02826E-03 1.91768E-18 4.76287E-18
 -1       558 5.01277E-03-1.42194E-03-1.53426E-03-1.20127E-03-2.28360E-18 1.12020E-18
 -1       559 4.63822E-03-1.17748E-03-1.48180E-03-1.15346E-03-3.62530E-18-1.02999E-18
 -1       560 4.93632E-03-1.33508E-03-1.53924E-03-1.12144E-03-2.54449E-18-4.31775E-19
 -1       561 4.39294E-03-6.53137E-04-1.58500E-03-2.46182E-04-1.87872E-18-9.79170E-19
 -1       562 4.28180E-03-6.40209E-04-1.54928E-03-1.55272E-04 2.11819E-18 4.40457E-19
 -1       563 4.41613E-03-5.48909E-04-1.62349E-03-9.51196E-05 5.43372E-19 8.31786E-19
 -1       564 4.36678E-03-6.15099E-04-1.58845E-03-1.27188E-04 3.61958E-18-1.24006E-18
 -1       565 4.21508E-03-6.77495E-04-1.50973E-03-3.52391E-04 1.00077E-18-1.79910E-18
 -1       566 4.02815E-03-6.09726E-04-1.46063E-03-2.09580E-04 1.25361E-18-5.54976E-18
 -1       567 4.16772E-03-6.35510E-04-1.50686E-03-1.82072E-04-1.03687E-18-1.63986E-18
 -1       568 6.23482E-03-1.90604E-03-1.78198E-03-3.96893E-04 6.97955E-19 2.24633E-18
 -1       569 5.75137E-03-1.71666E-03-1.69872E-03-6.64982E-04 6.43745E-20 1.55854E-18
 -1       570 5.75014E-03-1.73516E-03-1.68749E-03-3.57107E-04-3.89805E-18-4.08270E-18
 -1       571 5.98628E-03-1.81781E-03-1.73409E-03-3.82563E-04-6.64074E-19 5.39729E-18
 -1       572 4.37378E-03-7.40155E-04-1.54831E-03-4.26684E-04-2.77493E-18 1.50094E-18
 -1       573 4.38991E-03-8.31612E-04-1.52062E-03-6.16349E-04 1.35186E-18 2.15316E-18
 -1       574 4.18895E-03-7.33690E-04-1.47737E-03-5.74553E-04-2.61903E-18-1.57209E-18
 -1       575 4.29065E-03-7.44288E-04-1.51439E-03-5.00165E-04-7.95364E-19-4.37069E-19
 -1       576 4.46834E-03-9.45884E-04-1.50746E-03-7.96005E-04 3.42201E-19 5.09406E-18
 -1       577 4.53756E-03-9.16707E-04-1.54698E-03-5.91112E-04-1.20236E-18 1.47045E-18
 -1       578 4.50726E-03-9.34331E-04-1.52813E-03-6.94163E-04-7.92399E-19-1.00966E-18
 -1       579 4.72546E-03-1.37453E-03-1.43714E-03-1.35055E-03 1.54499E-18-4.65021E-18
 -1       580 5.48268E-03-1.67950E-03-1.61618E-03-1.11749E-03-1.89735E-19-1.70762E-18
 -1       581 5.11910E-03-1.54452E-03-1.52737E-03-1.26346E-03-6.85080E-18 2.12902E-18
 -1       582 4.50818E-03-6.64375E-04-1.61165E-03-1.86069E-04-5.74288E-18 2.13198E-18
 -1       583 4.60559E-03-9.21491E-04-1.56935E-03-2.14306E-04 1.60936E-18 4.42956E-18
 -1       584 4.56338E-03-8.46840E-04-1.57950E-03-3.58663E-04-2.17687E-18-3.26785E-18
 -1       585 4.55499E-03-7.88245E-04-1.59125E-03-2.07749E-04 2.79182E-18 3.86755E-18
 -1       586 5.65053E-03-1.68671E-03-1.67579E-03-9.15777E-04 8.36869E-19 3.71000E-18
 -1       587 5.35781E-03-1.53625E-03-1.62642E-03-8.17440E-04-1.17568E-18-2.64782E-18
 -1       588 5.49629E-03-1.60394E-03-1.65106E-03-8.76892E-04-1.33492E-18 6.03087E-18
 -1       589 4.63069E-03-9.92900E-04-1.55544E-03-5.02119E-04 3.34239E-18-6.20282E-18
 -1       590 4.67853E-03-1.07253E-03-1.54715E-03-3.57109E-04-2.04813E-18-2.60320E-18
 -1       591 4.70821E-03-1.10137E-03-1.54650E-03-4.87973E-04-2.84010E-18-3.10882E-18
 -1       592 5.12206E-03-1.43060E-03-1.58062E-03-6.59332E-04-2.97478E-18 1.84145E-18
 -1       593 5.40087E-03-1.58190E-03-1.62669E-03-5.65359E-04-9.99499E-20-1.97020E-18
 -1       594 5.23354E-03-1.47965E-03-1.60268E-03-7.43617E-04-4.01324E-18-4.24194E-18
 -1       595 5.33618E-03-1.59192E-03-1.60361E-03-2.85000E-04-5.22704E-18 2.81215E-18
 -1       596 5.53208E-03-1.65955E-03-1.64361E-03-3.23969E-04-4.15131E-18-8.97855E-19
 -1       597 4.83213E-03-1.41626E-03-1.49725E-03-7.06139E-05-2.58811E-18 5.22111E-18
 -1       598 4.77397E-03-1.35946E-03-1.49536E-03-7.09070E-05-8.45339E-19 2.73592E-18
 -1       599 4.78563E-03-1.40525E-03-1.48597E-03-1.15847E-05-2.16332E-18-3.23143E-19
 -1       600 4.49053E-03-7.93969E-04-1.57246E-03-4.29719E-04 2.23617E-19-1.49417E-18
 -1       601 4.55687E-03-8.88647E-04-1.56425E-03-4.81984E-04-2.23108E-18-1.98629E-18
 -1       602 4.70416E-03-1.17807E-03-1.52701E-03-1.75830E-04 3.40846E-18-1.04354E-18
 -1       603 4.74468E-03-1.28222E-03-1.50930E-03-1.30190E-04 3.01883E-18 4.34613E-18
 -1       604 5.11584E-03-1.47532E-03-1.56596E-03-4.25531E-04-3.35023E-18-1.11808E-19
 -1       605 5.02327E-03-1.48333E-03-1.53865E-03-1.90422E-04 3.90906E-19-2.28021E-18
 -1       606 5.16566E-03-1.53296E-03-1.56838E-03-2.40673E-04-9.42218E-19-8.50421E-19
 -1       607 4.91149E-03-1.44389E-03-1.51485E-03-1.33401E-04-7.22646E-18 5.37019E-18
 -1       608 6.15154E-03-1.88804E-03-1.77373E-03-6.88806E-04 1.59242E-19-2.42590E-18
 -1       609 5.82210E-03-1.78858E-03-1.69992E-03-9.25343E-04-1.91091E-18 1.58734E-18
 -1       610 5.02207E-03-1.38625E-03-1.56085E-03-5.66682E-04-3.99800E-19-1.57040E-18
 -1       611 4.43777E-03-4.77224E-04-1.64261E-03-1.06885E-04-2.53009E-18-5.10761E-18
 -1       612 4.41868E-03-4.26339E-04-1.65106E-03-5.52326E-05 3.21873E-20-1.54499E-18
 -1       613 3.22971E-03-4.31215E-04-1.20206E-03-3.60269E-04 1.26377E-18-8.47033E-19
 -1       614 3.17540E-03-5.30133E-04-1.14115E-03-7.92034E-04-6.61025E-18-2.60886E-18
 -1       615 2.96352E-03-4.00299E-04-1.10602E-03-4.18608E-04 2.26835E-18 6.77626E-19
 -1       616 3.67800E-03-5.22945E-04-1.35065E-03-2.73224E-04 8.55503E-19 1.72795E-19
 -1       617 3.59679E-03-5.57833E-04-1.30275E-03-5.99499E-04-4.97378E-18-3.82859E-19
 -1       618 3.46692E-03-4.74532E-04-1.28254E-03-3.12754E-04 1.35525E-19-1.31460E-18
 -1       619 4.65655E-03-1.05470E-03-1.54745E-03-2.03999E-04-2.15146E-18-2.83374E-18
 -1       620 4.37891E-03-9.75300E-04-1.45780E-03-1.00684E-03-1.26716E-18-4.59769E-18
 -1       621 4.23466E-03-8.28310E-04-1.45813E-03-8.01822E-04 6.31887E-19-2.08709E-18
 -1       622 4.42408E-03-9.57109E-04-1.48432E-03-8.99601E-04 1.41116E-18-1.49078E-19
 -1       623 6.48778E-03-1.99750E-03-1.82951E-03-3.94947E-04-1.60936E-18 1.15535E-18
 -1       624 4.31170E-03-1.07031E-03-1.39082E-03-1.23678E-03-1.02999E-18 3.62530E-18
 -1       625 4.05255E-03-8.40615E-04-1.37712E-03-1.01380E-03 1.51111E-18-8.84302E-19
 -1       626 4.33881E-03-1.00943E-03-1.42692E-03-1.11897E-03 3.62191E-18 2.29207E-18
 -1       627 4.46915E-03-6.57087E-04-1.60738E-03-2.61012E-04-3.99969E-18 3.19501E-18
 -1       628 4.46826E-03-5.58345E-04-1.62917E-03-1.51538E-04-1.24853E-18-3.93023E-18
 -1       629 3.94021E-03-6.96385E-04-1.38928E-03-7.40265E-04-8.21622E-19-1.24344E-18
 -1       630 3.64892E-03-6.89675E-04-1.27125E-03-9.51360E-04-1.36203E-18-6.05120E-18
 -1       631 3.79831E-03-6.84805E-04-1.33494E-03-8.38229E-04 6.40357E-19 9.38513E-19
 -1       632 3.88743E-03-9.45163E-04-1.26726E-03-1.27496E-03-3.78116E-18-7.11508E-20
 -1       633 3.49643E-03-7.21716E-04-1.19634E-03-1.08432E-03 1.07404E-18-1.76183E-18
 -1       634 3.94491E-03-6.26721E-04-1.41956E-03-4.62202E-04-3.91329E-18 5.79371E-19
 -1       635 3.86481E-03-5.70065E-04-1.40921E-03-2.39434E-04 9.07596E-19 2.41574E-18
 -1       636 4.30810E-03-1.17053E-03-1.34908E-03-1.36033E-03 7.79270E-19-1.03338E-18
 -1       637 4.07131E-03-7.15322E-04-1.43616E-03-6.53505E-04-1.52297E-18 1.21634E-18
 -1       638 4.43494E-03-7.13957E-04-1.57954E-03-3.49284E-04-1.05032E-19 5.08220E-19
 -1       639 4.63487E-03-1.05812E-03-1.53129E-03-7.80754E-04-4.74338E-19-4.54348E-18
 -1       640 4.70365E-03-1.10547E-03-1.54093E-03-7.24978E-04 5.18723E-18-1.47807E-18
 -1       641 4.78696E-03-1.17933E-03-1.54507E-03-7.71378E-04 8.13152E-20-4.36889E-18
 -1       642 4.71781E-03-1.13208E-03-1.53524E-03-8.32781E-04 2.23278E-18 3.53721E-18
 -1       643 4.63658E-03-1.03525E-03-1.54160E-03-6.72169E-04-3.42879E-18 2.60886E-19
 -1       644 4.68791E-03-1.07770E-03-1.54615E-03-6.13402E-04 3.12174E-18-2.71389E-18
 -1       645 4.75545E-03-1.14858E-03-1.54556E-03-6.61435E-04 1.52466E-19-3.06499E-18
 -1       646 4.79130E-03-1.18784E-03-1.54551E-03-5.81699E-04-6.10923E-19-4.25211E-18
 -1       647 4.87215E-03-1.26090E-03-1.54922E-03-6.08513E-04 1.58565E-18-2.12436E-18
 -1       648 4.83777E-03-1.22163E-03-1.54959E-03-6.92782E-04 8.41951E-19-2.66900E-18
 -1       649 4.93600E-03-1.29823E-03-1.55850E-03-7.14585E-04 1.39591E-18-5.71239E-18
 -1       650 4.88702E-03-1.25639E-03-1.55432E-03-7.98452E-04 2.14130E-18 3.13826E-18
 -1       651 5.00594E-03-1.33831E-03-1.56891E-03-8.14241E-04 3.86247E-18-3.84384E-18
 -1       652 4.94146E-03-1.29515E-03-1.55935E-03-8.98604E-04 1.58768E-17-1.60852E-18
 -1       653 4.82044E-03-1.21170E-03-1.54449E-03-8.77021E-04 4.75694E-18 1.03984E-17
 -1       654 5.08450E-03-1.38467E-03-1.58002E-03-9.06256E-04 6.05120E-18-3.12725E-18
 -1       655 5.00481E-03-1.34296E-03-1.56416E-03-9.91791E-04 5.46844E-18 3.93023E-18
 -1       656 4.85935E-03-1.25038E-03-1.54335E-03-9.78126E-04 5.38035E-18-1.22252E-17
 -1       657 4.75483E-03-1.20047E-03-1.52060E-03-1.04020E-03-3.54399E-18-3.64902E-18
 -1       658 4.62860E-03-1.10848E-03-1.50658E-03-9.93232E-04-1.29427E-18-1.20346E-17
 -1       659 4.73336E-03-1.16168E-03-1.52866E-03-9.37934E-04-4.47233E-19-5.61244E-18
 -1       660 4.63090E-03-1.08061E-03-1.51982E-03-8.87405E-04-3.63208E-18 8.71089E-18
 -1       661 4.97042E-03-1.38760E-03-1.54284E-03-4.05352E-04 4.57482E-18-3.97428E-18
 -1       662 4.89318E-03-1.32587E-03-1.53631E-03-4.11918E-04 2.40219E-18-9.04631E-19
 -1       663 4.88160E-03-1.34963E-03-1.52552E-03-3.07371E-04-3.84553E-19 6.33581E-19
 -1       664 4.95146E-03-1.40999E-03-1.53110E-03-2.98317E-04-4.83232E-18-3.42201E-19
 -1       665 4.88904E-03-1.29387E-03-1.54454E-03-5.11380E-04-5.83712E-18-7.60636E-18
 -1       666 4.81325E-03-1.22518E-03-1.54129E-03-4.96074E-04-8.11458E-19-1.50874E-17
 -1       667 4.82078E-03-1.25828E-03-1.53361E-03-3.99849E-04 1.06641E-17-4.49774E-18
 -1       668 4.76067E-03-1.19390E-03-1.53466E-03-3.76032E-04-2.15824E-18 8.96500E-18
 -1       669 4.76306E-03-1.23203E-03-1.52464E-03-2.81122E-04-1.76183E-18 2.40219E-18
 -1       670 4.82081E-03-1.29284E-03-1.52338E-03-3.02576E-04 8.18403E-18-7.37257E-18
 -1       671 4.80899E-03-1.32220E-03-1.51178E-03-2.04487E-04 1.72998E-17-3.38813E-20
 -1       672 4.86421E-03-1.37539E-03-1.51339E-03-2.07547E-04-6.64074E-19 1.70321E-17
 -1       673 5.17522E-03-1.44243E-03-1.59123E-03-9.87935E-04 2.92735E-18 6.80845E-18
 -1       674 5.08202E-03-1.40641E-03-1.56816E-03-1.07500E-03 1.02999E-18 4.47064E-18
 -1       675 4.90863E-03-1.30201E-03-1.54105E-03-1.07306E-03-2.04643E-18 2.91633E-18
 -1       676 5.28253E-03-1.51786E-03-1.60194E-03-1.05471E-03 1.32815E-18 5.40068E-18
 -1       677 5.17941E-03-1.49333E-03-1.57088E-03-1.14334E-03-1.08420E-18 1.99180E-18
 -1       678 4.97482E-03-1.37481E-03-1.53705E-03-1.15864E-03-3.56431E-18 3.85231E-18
 -1       679 4.84209E-03-1.33932E-03-1.49763E-03-1.22861E-03-1.30104E-18 6.52893E-18
 -1       680 4.65291E-03-1.21276E-03-1.47199E-03-1.20104E-03-5.27193E-18 1.74794E-17
 -1       681 4.78838E-03-1.25647E-03-1.51041E-03-1.13807E-03-1.54363E-17 3.09675E-18
 -1       682 4.63347E-03-1.14938E-03-1.49086E-03-1.09817E-03-5.96311E-18-1.04727E-17
 -1       683 4.41470E-03-6.27193E-04-1.60178E-03-2.14619E-04-4.67732E-18 1.38913E-17
 -1       684 4.37785E-03-6.34060E-04-1.58704E-03-1.86618E-04-4.46471E-18 1.30104E-18
 -1       685 4.39141E-03-5.87923E-04-1.60666E-03-1.10893E-04 2.14892E-18 4.00477E-18
 -1       686 4.42472E-03-5.69652E-04-1.62092E-03-1.39224E-04 7.72833E-18 6.70850E-19
 -1       687 4.35508E-03-6.69808E-04-1.56738E-03-2.72616E-04 3.38813E-20-3.49655E-18
 -1       688 4.29674E-03-6.59402E-04-1.54916E-03-2.28084E-04 1.17267E-17 6.91179E-18
 -1       689 4.32431E-03-6.31974E-04-1.56932E-03-1.40833E-04 3.25324E-18 1.77267E-17
 -1       690 4.27288E-03-6.33602E-04-1.54943E-03-7.76904E-05-6.66636E-18 2.60209E-18
 -1       691 4.36019E-03-6.08559E-04-1.58937E-03-6.35712E-05-5.73399E-18 1.65341E-18
 -1       692 4.41097E-03-5.41718E-04-1.62513E-03-4.74329E-05-1.01559E-18 3.13741E-18
 -1       693 4.22480E-03-6.40969E-04-1.52853E-03-1.68158E-04-8.47880E-19 2.87314E-18
 -1       694 4.15571E-03-6.28290E-04-1.50616E-03-9.11527E-05-2.71838E-17-2.11419E-18
 -1       695 4.26617E-03-6.80870E-04-1.52974E-03-3.25502E-04 6.07534E-18 6.48488E-18
 -1       696 4.18773E-03-6.56460E-04-1.50810E-03-2.67564E-04 8.56689E-18-1.07065E-18
 -1       697 4.15276E-03-6.69485E-04-1.48894E-03-3.77637E-04 4.91279E-19-7.11508E-18
 -1       698 4.05440E-03-6.33706E-04-1.46336E-03-3.07927E-04 3.51349E-18-1.14248E-17
 -1       699 4.09799E-03-6.24755E-04-1.48433E-03-1.95196E-04 9.21572E-19-1.45690E-17
 -1       700 4.01232E-03-6.01425E-04-1.45903E-03-1.04965E-04 3.15520E-18-7.63007E-18
 -1       701 6.09416E-03-1.86224E-03-1.74469E-03-1.98464E-04-5.78015E-18 9.64940E-18
 -1       702 5.86826E-03-1.77572E-03-1.71059E-03-3.66138E-04-6.03765E-18-1.66696E-18
 -1       703 5.82636E-03-1.76762E-03-1.69508E-03-1.85017E-04 2.39202E-18-6.26127E-18
 -1       704 6.37615E-03-1.96280E-03-1.79580E-03-2.06199E-04 2.92057E-18 8.91756E-18
 -1       705 6.11056E-03-1.86131E-03-1.75803E-03-3.85913E-04-3.18484E-18 1.71168E-17
 -1       706 6.09171E-03-1.85161E-03-1.76175E-03-5.43625E-04-3.27971E-18 6.88468E-18
 -1       707 5.84918E-03-1.75579E-03-1.71762E-03-6.74617E-04-4.47233E-19 1.59581E-17
 -1       708 5.87173E-03-1.76717E-03-1.71844E-03-5.24327E-04-3.14419E-18 8.88368E-18
 -1       709 5.66010E-03-1.67981E-03-1.68012E-03-6.40285E-04-6.84403E-19 6.41712E-18
 -1       710 5.66379E-03-1.69015E-03-1.67620E-03-4.90092E-04-9.03954E-18-6.30193E-18
 -1       711 4.24969E-03-7.10872E-04-1.51189E-03-4.26780E-04 8.49405E-18 3.93023E-19
 -1       712 4.23991E-03-7.40404E-04-1.49637E-03-5.35699E-04-4.74677E-18 8.52454E-18
 -1       713 4.13552E-03-6.95718E-04-1.47179E-03-4.90655E-04-9.19539E-18 9.69006E-19
 -1       714 4.34308E-03-7.09395E-04-1.54866E-03-3.63871E-04 3.42519E-19-2.42590E-18
 -1       715 4.33231E-03-7.44507E-04-1.53174E-03-4.62040E-04-3.73372E-18-1.08420E-19
 -1       716 4.40925E-03-7.80568E-04-1.54803E-03-4.76434E-04-1.42161E-17 2.23617E-19
 -1       717 4.41936E-03-8.27997E-04-1.53446E-03-5.69292E-04 3.39830E-18-5.85469E-18
 -1       718 4.33777E-03-7.87956E-04-1.51737E-03-5.58863E-04-1.02254E-17 1.66696E-18
 -1       719 4.35388E-03-8.32682E-04-1.50625E-03-6.59793E-04 3.69815E-18-5.71239E-18
 -1       720 4.25011E-03-7.82800E-04-1.48388E-03-6.41749E-04 1.76183E-18-1.60597E-18
 -1       721 4.57095E-03-9.90687E-04-1.53229E-03-7.12326E-04-1.11368E-17 6.81014E-19
 -1       722 4.52257E-03-9.26621E-04-1.53780E-03-6.40763E-04-9.84252E-19-3.56431E-18
 -1       723 4.58617E-03-9.69592E-04-1.54672E-03-6.05389E-04-8.20288E-18 1.28071E-18
 -1       724 4.54957E-03-1.00752E-03-1.51645E-03-8.17157E-04-5.59042E-19 6.80676E-18
 -1       725 4.48797E-03-9.40588E-04-1.51810E-03-7.42916E-04-6.13252E-19 6.38324E-18
 -1       726 4.39086E-03-8.88926E-04-1.49902E-03-7.52491E-04 5.79709E-18 2.01933E-18
 -1       727 4.44684E-03-8.83001E-04-1.52428E-03-6.55896E-04 1.36101E-17 5.28549E-19
 -1       728 4.49168E-03-8.68867E-04-1.54735E-03-5.58680E-04 1.48929E-17 2.02610E-18
 -1       729 4.77671E-03-1.45275E-03-1.42409E-03-1.38896E-03 4.87891E-19-5.27871E-18
 -1       730 4.92628E-03-1.45988E-03-1.48226E-03-1.30709E-03-1.08420E-17-3.12047E-18
 -1       731 5.19314E-03-1.62252E-03-1.52347E-03-1.27921E-03-9.02598E-18-3.11030E-18
 -1       732 4.69656E-03-1.30978E-03-1.44962E-03-1.29937E-03 1.78893E-18-9.67650E-18
 -1       733 5.06623E-03-1.47828E-03-1.53107E-03-1.22980E-03-5.12286E-18 7.42001E-19
 -1       734 5.41194E-03-1.61801E-03-1.61171E-03-1.09974E-03-4.60786E-19 5.44473E-18
 -1       735 5.30480E-03-1.61228E-03-1.57221E-03-1.18963E-03-6.13929E-18 1.40713E-18
 -1       736 5.56988E-03-1.74997E-03-1.62057E-03-1.11370E-03-8.94467E-19-2.87483E-18
 -1       737 4.51024E-03-7.08654E-04-1.60394E-03-2.53070E-04-6.78643E-18-1.59920E-18
 -1       738 4.53106E-03-7.26256E-04-1.60177E-03-1.95079E-04-7.52504E-18 6.64074E-19
 -1       739 4.55926E-03-8.19849E-04-1.58600E-03-2.82792E-04-1.21973E-19 9.53420E-18
 -1       740 4.53705E-03-7.95556E-04-1.58725E-03-3.38842E-04-1.45148E-17-7.20317E-18
 -1       741 4.48864E-03-6.09832E-04-1.61711E-03-9.72203E-05-4.79759E-18-6.07323E-18
 -1       742 4.54142E-03-7.51358E-04-1.59496E-03-1.08547E-04-1.00289E-18 5.39391E-18
 -1       743 4.59815E-03-9.03147E-04-1.57121E-03-1.11930E-04 1.69407E-19-9.44018E-19
 -1       744 4.58015E-03-8.54847E-04-1.58044E-03-2.09133E-04-1.04016E-18 5.42609E-18
 -1       745 4.61284E-03-9.40113E-04-1.56674E-03-2.92368E-04 2.86636E-18-3.56431E-18
 -1       746 4.59126E-03-9.02677E-04-1.57156E-03-3.64287E-04 8.61602E-18-5.68529E-18
 -1       747 5.62625E-03-1.66029E-03-1.67608E-03-7.70934E-04 1.65341E-18 1.01373E-17
 -1       748 5.42720E-03-1.56850E-03-1.63873E-03-8.44565E-04-8.13152E-20 3.67951E-18
 -1       749 5.46641E-03-1.59070E-03-1.64505E-03-7.19822E-04 4.54010E-18-1.15196E-19
 -1       750 5.80014E-03-1.74207E-03-1.70756E-03-8.02372E-04-7.60297E-18 8.40257E-18
 -1       751 5.57358E-03-1.64323E-03-1.66351E-03-8.93960E-04 1.65341E-18 5.20417E-18
 -1       752 5.49789E-03-1.62563E-03-1.64211E-03-1.00023E-03 3.88958E-18 4.79759E-18
 -1       753 5.36233E-03-1.54077E-03-1.62448E-03-9.52481E-04 4.03865E-18 1.09301E-17
 -1       754 5.24430E-03-1.47402E-03-1.60654E-03-8.85287E-04-9.48677E-20 2.17518E-18
 -1       755 4.63368E-03-1.00838E-03-1.55107E-03-5.58910E-04-2.38440E-18 4.04882E-18
 -1       756 4.66942E-03-1.04719E-03-1.55100E-03-4.95035E-04-1.33492E-18-1.22820E-18
 -1       757 4.72415E-03-1.11719E-03-1.54618E-03-5.45906E-04-6.16555E-18-4.56286E-18
 -1       758 4.62544E-03-9.76255E-04-1.55963E-03-4.35595E-04 3.06626E-18-9.88487E-18
 -1       759 4.64928E-03-1.01557E-03-1.55526E-03-3.63663E-04 8.85658E-18-5.76406E-18
 -1       760 4.69363E-03-1.08631E-03-1.54690E-03-4.21250E-04-6.34597E-18 1.60333E-18
 -1       761 4.70787E-03-1.12756E-03-1.53934E-03-3.35659E-04-5.59042E-18-8.28483E-18
 -1       762 4.74713E-03-1.15499E-03-1.54214E-03-4.63875E-04-1.54567E-17-8.22469E-19
 -1       763 5.14047E-03-1.42003E-03-1.58896E-03-8.04611E-04 5.17707E-18-2.05660E-18
 -1       764 5.29582E-03-1.50683E-03-1.61444E-03-7.77938E-04-4.80437E-18 4.51299E-18
 -1       765 5.04803E-03-1.37414E-03-1.57243E-03-7.14241E-04-1.03812E-17-4.72306E-18
 -1       766 5.17794E-03-1.45440E-03-1.59145E-03-6.99076E-04-7.84014E-18-1.72422E-17
 -1       767 5.19002E-03-1.47806E-03-1.58812E-03-5.79815E-04 8.88029E-18-1.76183E-19
 -1       768 5.32536E-03-1.55295E-03-1.61023E-03-5.29822E-04 2.00916E-18 2.50722E-18
 -1       769 5.32100E-03-1.53075E-03-1.61544E-03-6.54905E-04-1.21024E-17-1.01712E-17
 -1       770 5.48485E-03-1.61258E-03-1.64397E-03-5.90579E-04-3.54399E-18-1.29020E-17
 -1       771 5.64120E-03-1.69651E-03-1.66519E-03-3.37131E-04-7.11169E-18-1.27665E-17
 -1       772 5.57949E-03-1.68098E-03-1.64845E-03-1.67664E-04-1.09996E-17-6.78304E-18
 -1       773 5.47200E-03-1.62074E-03-1.63629E-03-4.45408E-04-6.55265E-18-6.39679E-18
 -1       774 5.29926E-03-1.55881E-03-1.59979E-03-3.92866E-04-1.02999E-18-5.08220E-19
 -1       775 5.43426E-03-1.62484E-03-1.62311E-03-3.01498E-04-1.37575E-17 7.71139E-18
 -1       776 5.35844E-03-1.60373E-03-1.60602E-03-1.47340E-04-2.94937E-17 1.69407E-18
 -1       777 4.78390E-03-1.41297E-03-1.48291E-03-6.09439E-07-2.16502E-18-1.56125E-17
 -1       778 4.78324E-03-1.38269E-03-1.49010E-03-4.26836E-05 1.77199E-18-4.20298E-18
 -1       779 4.77556E-03-1.37910E-03-1.49213E-03-3.37221E-05-3.68290E-18-7.60636E-19
 -1       780 4.77803E-03-1.40692E-03-1.48334E-03-4.75136E-07-1.27080E-17 2.16671E-18
 -1       781 4.81238E-03-1.41452E-03-1.49442E-03-3.32001E-05-1.89685E-17 9.31736E-18
 -1       782 4.80888E-03-1.40778E-03-1.49085E-03-4.25186E-05-7.20147E-18-3.04932E-18
 -1       783 4.83423E-03-1.38922E-03-1.50133E-03-1.15987E-04-2.90024E-18 4.19790E-18
 -1       784 4.80031E-03-1.35669E-03-1.50019E-03-1.15795E-04 2.84942E-18-7.02699E-18
 -1       785 4.59322E-03-9.40810E-04-1.55993E-03-4.91959E-04-7.05578E-18-9.96111E-18
 -1       786 4.56023E-03-8.69666E-04-1.57223E-03-4.19222E-04-1.72117E-18-2.60649E-17
 -1       787 4.54736E-03-9.04241E-04-1.55587E-03-5.35008E-04-5.16690E-19 1.41624E-18
 -1       788 4.46964E-03-8.09913E-04-1.56038E-03-4.76307E-04 6.09864E-19 1.20617E-17
 -1       789 4.52268E-03-8.41317E-04-1.56851E-03-4.55720E-04 8.98363E-18-5.57348E-18
 -1       790 4.50143E-03-7.72387E-04-1.58395E-03-3.74268E-04-3.26616E-18-6.58992E-18
 -1       791 4.76661E-03-1.27703E-03-1.51323E-03-1.87918E-04 1.03609E-17 2.64613E-18
 -1       792 4.76129E-03-1.32125E-03-1.50186E-03-1.01002E-04 8.92095E-18 2.61225E-18
 -1       793 4.72040E-03-1.17641E-03-1.52923E-03-2.44540E-04 2.66307E-18-1.49976E-17
 -1       794 4.72570E-03-1.23038E-03-1.51779E-03-1.52442E-04 1.47655E-17 4.54010E-19
 -1       795 4.70621E-03-1.19134E-03-1.52545E-03-9.12571E-05 4.46556E-18 1.46401E-17
 -1       796 4.74807E-03-1.30326E-03-1.50659E-03-6.65044E-05 9.40207E-18 1.18796E-17
 -1       797 5.18283E-03-1.49977E-03-1.57978E-03-4.60355E-04 1.74489E-19-1.52466E-18
 -1       798 5.14769E-03-1.50415E-03-1.56757E-03-3.33468E-04-7.60720E-18-7.81981E-18
 -1       799 5.25106E-03-1.56149E-03-1.58540E-03-2.60393E-04-1.10521E-17-1.19669E-17
 -1       800 5.05803E-03-1.45215E-03-1.55328E-03-3.83068E-04-7.28279E-18-2.60886E-18
 -1       801 5.01885E-03-1.45678E-03-1.54021E-03-2.67160E-04-1.42962E-17-1.28749E-19
 -1       802 5.09459E-03-1.50711E-03-1.55284E-03-2.13805E-04-4.90813E-18-7.06087E-18
 -1       803 5.00967E-03-1.48213E-03-1.53738E-03-9.78253E-05-3.03492E-18-3.92346E-18
 -1       804 5.16720E-03-1.53703E-03-1.56874E-03-1.24211E-04-3.32635E-18-2.91379E-18
 -1       805 4.89012E-03-1.44063E-03-1.51249E-03-6.74701E-05-2.11402E-17 7.75882E-18
 -1       806 4.87171E-03-1.42846E-03-1.50531E-03-1.02321E-04-1.12537E-17 9.95094E-18
 -1       807 4.96742E-03-1.46241E-03-1.52603E-03-1.61091E-04-1.00331E-17 1.19127E-17
 -1       808 4.91394E-03-1.41745E-03-1.51809E-03-1.93897E-04 1.72964E-18 8.48388E-18
 -1       809 6.04925E-03-1.84145E-03-1.75528E-03-6.86981E-04-2.16840E-18 5.72594E-18
 -1       810 5.98715E-03-1.83836E-03-1.73852E-03-8.05811E-04-6.65429E-18-1.44334E-18
 -1       811 5.73648E-03-1.73508E-03-1.68802E-03-9.18720E-04-1.30104E-18 3.87602E-18
 -1       812 6.25616E-03-1.93706E-03-1.79188E-03-6.68487E-04-8.67362E-19-2.66307E-18
 -1       813 5.91736E-03-1.84780E-03-1.71169E-03-9.08902E-04-1.35525E-18 3.90990E-18
 -1       814 5.65487E-03-1.73421E-03-1.65899E-03-1.02007E-03 3.63208E-18 1.44334E-18
 -1       815 4.97744E-03-1.36531E-03-1.55200E-03-5.14969E-04-1.29427E-18-1.41251E-17
 -1       816 4.96474E-03-1.33276E-03-1.55751E-03-6.16220E-04 6.82200E-18-5.31937E-19
 -1       817 5.07327E-03-1.43070E-03-1.56377E-03-4.96389E-04-9.86285E-18-1.15196E-18
 -1       818 5.07219E-03-1.40799E-03-1.57047E-03-6.10930E-04-2.73083E-18 1.31866E-17
 -1       819 4.41401E-03-4.17550E-04-1.65326E-03-2.73536E-05-1.71778E-18-2.79860E-18
 -1       820 4.41737E-03-4.95743E-04-1.63860E-03-7.51052E-05 1.76860E-18-5.69206E-19
 -1       821 4.38729E-03-3.37461E-04-1.65987E-03-2.88503E-05-7.54198E-18-1.47994E-17
 -1       822 4.40894E-03-3.95702E-04-1.65070E-03-5.58348E-05-4.28599E-18-1.50145E-17
 -1       823 4.42690E-03-4.51668E-04-1.64755E-03-8.02866E-05-2.17857E-18-9.11069E-18
 -1       824 4.43712E-03-5.41210E-04-1.63117E-03-1.45336E-04-4.70781E-18-9.96788E-18
 -1       825 2.81402E-03-3.92093E-04-1.05112E-03-4.52126E-04 8.67362E-19-1.89735E-19
 -1       826 3.05354E-03-4.64924E-04-1.12088E-03-6.07441E-04-8.32803E-18-1.81604E-18
 -1       827 3.05693E-03-5.38283E-04-1.09135E-03-8.51615E-04-7.96889E-18-3.19840E-18
 -1       828 2.90787E-03-3.76856E-04-1.09701E-03-2.10085E-04 6.29176E-18 1.62630E-18
 -1       829 3.18662E-03-4.12765E-04-1.19523E-03-1.80711E-04 4.38085E-18 3.04932E-18
 -1       830 3.09651E-03-4.13568E-04-1.15624E-03-3.87408E-04-2.82909E-18 5.69206E-19
 -1       831 3.29985E-03-4.82684E-04-1.21337E-03-5.25050E-04-1.32950E-17 1.17907E-18
 -1       832 3.28525E-03-5.29318E-04-1.18693E-03-7.35695E-04-7.12863E-18-6.60008E-18
 -1       833 3.34828E-03-4.51723E-04-1.24408E-03-3.34973E-04-4.13352E-18 2.22261E-18
 -1       834 3.52190E-03-5.16036E-04-1.29108E-03-4.57313E-04-2.14841E-17-2.24972E-18
 -1       835 3.49598E-03-5.44399E-04-1.26739E-03-6.40279E-04-1.15400E-17-1.00424E-17
 -1       836 3.43330E-03-4.59802E-04-1.27741E-03-1.56806E-04 1.13096E-17-6.99310E-18
 -1       837 3.65170E-03-5.11005E-04-1.34690E-03-1.36932E-04 1.99137E-18-1.40946E-18
 -1       838 3.57246E-03-4.98451E-04-1.31800E-03-2.91800E-04-4.73661E-18-1.37016E-17
 -1       839 3.72121E-03-5.56913E-04-1.35693E-03-4.00466E-04-1.73066E-17 3.29326E-18
 -1       840 3.68854E-03-5.73682E-04-1.33540E-03-5.60515E-04-1.01576E-17-7.75205E-18
 -1       841 4.65462E-03-1.05387E-03-1.54749E-03-1.06387E-04-3.72694E-19 2.14488E-17
 -1       842 4.63136E-03-9.88122E-04-1.55836E-03-2.07412E-04-1.09369E-17-1.36542E-18
 -1       843 4.68111E-03-1.11649E-03-1.53701E-03-1.88598E-04 1.49078E-18 1.19008E-19
 -1       844 4.66775E-03-1.06161E-03-1.54741E-03-2.79847E-04-2.71728E-18-2.13469E-17
 -1       845 4.52527E-03-1.02532E-03-1.49863E-03-9.22289E-04-9.82558E-19-1.35186E-18
 -1       846 4.44639E-03-9.51175E-04-1.49629E-03-8.45334E-04 6.30193E-19 1.08014E-17
 -1       847 4.50269E-03-1.05111E-03-1.47807E-03-1.02892E-03 1.88380E-18-9.26993E-18
 -1       848 4.40169E-03-9.64884E-04-1.47159E-03-9.50409E-04 1.36881E-18-1.27800E-17
 -1       849 4.25926E-03-9.01902E-04-1.43861E-03-9.56317E-04-8.06375E-19-8.02310E-18
 -1       850 4.18988E-03-8.27404E-04-1.44006E-03-8.49760E-04 1.34848E-18-6.54587E-18
 -1       851 4.32696E-03-8.92771E-04-1.47081E-03-8.51819E-04-4.55365E-18-2.64274E-19
 -1       852 4.27627E-03-8.30177E-04-1.47514E-03-7.52203E-04 2.20906E-18 2.08031E-18
 -1       853 6.66259E-03-2.06608E-03-1.84658E-03-2.05480E-04-9.81203E-18 3.52366E-19
 -1       854 6.36126E-03-1.95144E-03-1.80596E-03-3.92237E-04-4.07931E-18 2.57498E-19
 -1       855 6.61085E-03-2.04320E-03-1.85261E-03-3.79284E-04-2.01933E-18-7.94178E-18
 -1       856 6.31789E-03-1.94264E-03-1.80463E-03-5.41452E-04-4.60786E-19-3.97089E-18
 -1       857 4.48997E-03-1.16350E-03-1.42552E-03-1.24716E-03-4.41812E-18 7.14896E-18
 -1       858 4.32554E-03-1.03591E-03-1.40961E-03-1.17418E-03 2.19551E-18 1.11537E-17
 -1       859 4.48813E-03-1.09364E-03-1.45393E-03-1.13738E-03-1.09775E-18-1.35525E-19
 -1       860 4.13576E-03-9.73118E-04-1.35768E-03-1.18869E-03-1.49078E-18 1.05439E-17
 -1       861 4.00853E-03-8.54611E-04-1.35277E-03-1.07141E-03 3.87602E-18-1.97867E-18
 -1       862 4.19314E-03-9.25167E-04-1.40126E-03-1.06800E-03 1.45825E-17 8.33480E-19
 -1       863 4.09885E-03-8.32392E-04-1.39973E-03-9.55244E-04 6.72205E-18-4.74338E-19
 -1       864 4.35909E-03-9.89837E-04-1.44301E-03-1.05969E-03 4.45878E-18-1.04761E-17
 -1       865 4.48959E-03-7.00648E-04-1.60130E-03-2.90100E-04-3.76760E-18-1.45012E-18
 -1       866 4.46871E-03-6.13735E-04-1.61935E-03-2.06055E-04-8.05020E-18 3.43557E-18
 -1       867 4.48735E-03-6.11281E-04-1.62090E-03-1.67210E-04-5.03815E-18-5.41085E-18
 -1       868 4.45144E-03-6.23758E-04-1.61279E-03-2.21955E-04-1.95834E-17 1.55854E-19
 -1       869 4.45188E-03-5.17686E-04-1.63651E-03-1.27984E-04-7.40984E-18-6.95583E-18
 -1       870 4.44347E-03-4.88540E-04-1.63612E-03-7.91693E-05-3.29665E-18-9.44950E-18
 -1       871 3.85381E-03-6.43698E-04-1.37639E-03-6.34380E-04 3.17129E-18 2.61564E-18
 -1       872 3.86938E-03-6.89161E-04-1.36320E-03-7.86361E-04 2.05998E-18 3.57787E-18
 -1       873 3.68976E-03-6.21272E-04-1.31749E-03-7.20543E-04-1.06658E-17-3.36103E-18
 -1       874 4.03798E-03-7.62386E-04-1.40413E-03-8.23124E-04 9.53420E-18 2.19551E-18
 -1       875 3.92028E-03-7.62768E-04-1.35496E-03-9.27831E-04 1.17500E-17-4.63496E-18
 -1       876 3.80083E-03-7.82681E-04-1.29746E-03-1.04636E-03-2.20906E-18-2.60209E-18
 -1       877 3.72376E-03-6.84586E-04-1.30442E-03-8.91192E-04-4.47233E-19-1.37423E-17
 -1       878 3.51260E-03-6.12058E-04-1.24829E-03-8.21209E-04-1.92446E-18-7.34547E-18
 -1       879 3.42188E-03-7.51983E-04-1.15422E-03-1.15730E-03-4.36391E-18 3.46945E-18
 -1       880 3.68596E-03-8.33613E-04-1.23017E-03-1.18254E-03-1.24819E-17-3.52366E-19
 -1       881 3.86082E-03-9.97618E-04-1.23444E-03-1.34709E-03-4.10642E-18-1.44605E-17
 -1       882 3.32460E-03-6.25869E-04-1.16652E-03-9.41054E-04-4.43168E-18-2.22261E-18
 -1       883 3.57282E-03-7.01587E-04-1.23535E-03-1.01325E-03-4.52654E-18-1.78893E-18
 -1       884 3.92599E-03-9.05268E-04-1.29795E-03-1.20111E-03-4.78404E-18 1.41217E-17
 -1       885 3.77143E-03-5.47011E-04-1.38100E-03-2.55386E-04 1.07234E-18 1.80113E-17
 -1       886 3.89865E-03-5.98323E-04-1.41359E-03-3.51492E-04-1.79673E-17 1.39591E-18
 -1       887 3.86261E-03-6.09033E-04-1.39352E-03-4.92300E-04-9.91029E-18 1.89058E-17
 -1       888 3.84430E-03-5.60216E-04-1.40661E-03-1.19956E-04 2.08497E-17-3.65918E-18
 -1       889 3.94653E-03-5.91190E-04-1.43572E-03-2.23742E-04 3.54399E-18-2.50586E-17
 -1       890 4.01767E-03-6.43238E-04-1.44404E-03-4.32298E-04-7.08797E-18-3.40168E-18
 -1       891 4.31022E-03-1.11481E-03-1.37070E-03-1.29427E-03-1.19262E-18 1.05439E-17
 -1       892 4.09664E-03-1.05818E-03-1.30715E-03-1.31990E-03-1.39591E-18 1.43657E-18
 -1       893 4.51912E-03-1.27292E-03-1.39264E-03-1.35665E-03 1.47045E-17-1.52466E-18
 -1       894 4.32521E-03-1.24003E-03-1.32622E-03-1.41939E-03 2.49366E-18-5.24483E-18
 -1       895 4.13024E-03-7.25052E-04-1.45742E-03-6.12059E-04-5.27532E-18-7.78593E-18
 -1       896 4.00295E-03-6.70995E-04-1.42717E-03-5.58840E-04-5.72594E-18 2.24972E-18
 -1       897 4.14916E-03-7.71837E-04-1.44658E-03-7.28796E-04-2.99172E-18 5.42101E-20
 -1       898 4.00588E-03-7.05468E-04-1.41358E-03-6.94522E-04-1.01644E-18 6.80337E-18
 -1       899 4.45205E-03-6.89946E-04-1.59403E-03-3.04413E-04-5.09914E-18-3.23905E-18
 -1       900 4.41218E-03-6.83507E-04-1.58254E-03-2.97627E-04 8.18234E-19 0.00000E+00
 -1       901 4.46131E-03-7.53945E-04-1.57622E-03-3.89370E-04-3.57787E-18-1.74150E-18
 -1       902 4.40442E-03-7.30300E-04-1.56432E-03-3.86891E-04-2.03457E-18-1.51111E-18
 -3
    1PSTEP                         4           1           1          
  100CL  101 1.000000000         901                     0    1           1
 -4  FORC        4    1
 -5  F1          1    2    1    0
 -5  F2          1    2    2    0
 -5  F3          1    2    3    0
 -5  ALL         1    2    0    0    1ALL
 -1         1-5.18873E+01 8.92252E-13-8.26544E-14
 -1         3 1.51155E-12 2.04022E+01-1.42130E-14
 -1         4 1.54318E+01-4.08598E+00 1.70549E-14
 -1         5 1.54318E+01-8.46739E-13 4.52639E-14
 -1         6-5.62744E-14-3.90236E-13 1.28276E-14
 -1         7-9.25869E+00 2.60007E-13 7.90020E-15
 -1         8-2.67775E-12-2.72061E+00-5.34342E-15
 -1         9 1.75610E-13 1.42467E-12-8.44453E-14
 -1        10-1.57652E-13 1.73944E-13-2.45567E-14
 -1        11-8.45879E-13-9.63951E-13-7.42153E-15
 -1        12-1.51962E-12 9.33031E-13 5.32934E-14
 -1        13-1.27509E-13-2.99760E-13-2.85180E-15
 -1        14-1.37534E-12 4.36318E-14-1.35284E-14
 -1        15 1.05334E-12 5.10009E-13-4.48253E-15
 -1        16-2.99040E-13 5.57331E-13-1.85572E-15
 -1        17 2.08222E-13-4.78470E-13 7.53709E-14
 -1        18-8.50847E-14 3.63523E-13 3.68438E-14
 -1        19 5.21545E-13-3.32719E-13-1.58753E-14
 -1        20-9.41113E-13-7.10748E-13 1.66049E-14
 -1        21 1.89274E-12 1.35879E-13 2.76113E-14
 -1        22 8.54734E-13-2.65517E-14-5.16948E-15
 -1        23-8.33861E-13-4.50720E-13-1.97412E-14
 -1        24 1.51323E-12 2.12710E+01-5.75972E-15
 -1        25 2.07917E-13 1.13236E+01-7.00861E-15
 -1        26-8.64503E-13 5.76077E+00-1.92028E-15
 -1        27 9.08162E-14 2.47161E+00-5.40334E-15
 -1        28 1.20845E-12 4.04514E-01-2.15664E-14
 -1        29 2.39472E-12-9.42759E-01 8.14973E-15
 -1        30-1.27717E-12-1.84553E+00-3.07406E-14
 -1        31 1.07429E-12 5.99874E+01-3.22741E-14
 -1        32 1.85168E-12 3.17146E+01-5.30175E-15
 -1        33-5.64591E-13 1.66820E+01-8.23386E-15
 -1        34 1.31920E-12 8.05071E+00 2.23779E-14
 -1        35-3.93709E-13 2.78493E+00 3.42001E-15
 -1        36-9.10922E-13-5.83801E-01-2.00243E-14
 -1        37 3.11235E-13-2.81142E+00-2.02410E-15
 -1        38-2.72229E-12-4.31377E+00-3.38657E-14
 -1        39 3.08645E+01 5.97953E-13-4.92764E-14
 -1        40 3.08638E+01 4.54078E-13 4.47385E-15
 -1        41 3.08645E+01-5.91839E-13 9.12421E-15
 -1        42 3.08645E+01 1.65645E-13-1.34023E-14
 -1        43 3.08638E+01 1.13083E-13 4.80067E-14
 -1        44 3.08645E+01-9.33364E-13 1.23385E-14
 -1        45 3.08637E+01 8.55080E-14 6.95476E-14
 -1        46 3.08645E+01-3.66332E-13 1.39472E-14
 -1        47 3.08645E+01-1.12570E-13 3.33054E-14
 -1        48 3.08638E+01-4.33421E-13 1.52518E-14
 -1        49 3.08645E+01 4.80667E-13-1.82073E-14
 -1        50 6.17287E+01 1.43220E-13-4.84747E-15
 -1        51 6.17280E+01-6.08484E-13-5.71017E-14
 -1        52 6.17287E+01 1.04672E-12-2.41528E-14
 -1        53 6.17280E+01 4.75045E-13-4.69514E-14
 -1        54 6.17287E+01-2.48360E-13-1.60397E-14
 -1        55 6.17280E+01-5.84721E-15-8.67190E-14
 -1        56 6.17287E+01 3.16129E-13 8.44065E-15
 -1        57 6.17287E+01 1.58690E-13 5.24795E-14
 -1        58 6.17280E+01-9.65751E-13 8.96635E-16
 -1        59 6.17287E+01 3.10550E-13 3.98510E-14
 -1        60 6.17280E+01 1.62227E-12-6.85971E-14
 -1        61 6.17287E+01 6.41520E-13-2.59100E-14
 -1        62-4.90450E-13 2.26970E-13-9.48501E-15
 -1        63-5.41484E-13-3.48241E-13-9.73234E-15
 -1        64-8.99891E-13-5.91896E-13 1.02244E-14
 -1        65-2.62149E-12 3.70197E-13 3.45715E-15
 -1        66-1.41373E-12-1.39178E-13 2.80516E-15
 -1        67 1.66207E-12 6.22874E-14-7.43615E-14
 -1        68 1.10244E-12 2.84626E-13-2.79640E-14
 -1        69-1.52599E-12-6.42037E-13 5.31931E-14
 -1        70 1.09562E-12 2.13083E-13 2.18428E-14
 -1        71 1.47220E-12-3.85941E-14 2.44741E-14
 -1        72 1.40088E-12 1.34316E-13-5.29711E-14
 -1        73 2.06472E-12 9.71341E-13 2.73013E-15
 -1        74-2.60301E-12 2.16684E-13-3.49616E-14
 -1        75-7.85393E-13 2.73363E-14-6.64492E-14
 -1        76-1.08282E-13 6.58549E-13-4.01511E-14
 -1        77-3.14699E-12-3.33401E-13-1.05354E-14
 -1        78 1.10448E-12-6.88467E-14-1.50702E-14
 -1        79 4.89586E-13 4.51121E-13-3.65089E-14
 -1        80 3.79261E-13 6.34498E-13-1.21789E-15
 -1        81-9.02537E-13-7.89075E-13-1.84429E-14
 -1        82-1.68666E-12 2.37663E-13-1.77210E-14
 -1        83 1.27789E-12-4.67061E-13-3.56043E-14
 -1        84-1.21951E-12 2.31570E-13-1.15898E-14
 -1        85 4.50487E-13-1.66790E-13 5.71628E-14
 -1        86-7.67858E-13 6.64791E-13 5.26724E-15
 -1        87-1.27762E-13-2.98143E-13 4.86341E-15
 -1        88 4.93459E-13-2.05100E-13 8.73748E-14
 -1        89-5.37603E-13 5.57266E-13 5.72384E-15
 -1        90-5.22207E-13 2.76668E-13-9.23301E-14
 -1        91 4.03403E-13 8.11980E-13 1.05445E-14
 -1        92-3.40249E-14-2.56170E-13 2.27085E-15
 -1        93-4.16580E-13-2.18790E-13 8.87053E-14
 -1        94-1.28668E-13-1.37758E-13 3.31297E-14
 -1        95-2.24008E-13 7.61405E-14 7.86556E-15
 -1        96 9.33452E-13 8.38863E-14 1.17597E-14
 -1        97 2.05008E-12-8.40140E-15 2.93940E-14
 -1        98 6.79552E-13-3.39182E-15 5.96973E-15
 -1        99-1.20323E-12 1.57471E-13-1.34978E-15
 -1       100-3.11350E-13-2.61123E-13 1.48453E-14
 -1       101-4.46959E-14-8.45321E-14-1.36895E-14
 -1       102 1.86030E-13-4.15321E-14 4.14226E-14
 -1       103 1.40563E-13 2.83771E-13-4.22589E-15
 -1       104-1.00938E-13-4.09305E-13 1.58415E-14
 -1       105 6.44170E-14-4.04618E-13 1.15524E-14
 -1       106 6.47976E-15-2.56177E-13-3.36330E-15
 -1       107-1.01357E-13-1.80930E-13 1.11265E-14
 -1       108-2.58270E+01 2.30879E-12-1.04632E-15
 -1       109-3.13528E+01-1.20226E-12 3.97233E-14
 -1       110-3.61342E+01-7.38298E-14 1.02067E-15
 -1       111-4.11078E+01-2.21601E-13 3.47448E-14
 -1       112-4.74171E+01 3.75255E-14-8.46441E-14
 -1       113-5.67047E+01 6.66578E-13 1.60067E-14
 -1       114-7.26018E+01 9.17877E-14 1.68476E-14
 -1       115-4.46988E+01-2.34989E-13 4.45108E-15
 -1       116-5.73625E+01 4.11725E-13 2.86489E-14
 -1       117-6.75637E+01 8.11106E-13 4.01032E-14
 -1       118-7.72583E+01-8.84339E-13-1.76678E-14
 -1       119-8.83404E+01 4.16053E-13-1.82727E-14
 -1       120-1.03593E+02-1.52571E-12-3.56824E-14
 -1       121-1.27882E+02-7.26259E-14-3.78447E-14
 -1       122-1.72120E+02 1.61706E-13 3.34940E-14
 -1       123-1.85146E-12-3.56214E+00-2.32191E-14
 -1       124 4.84307E-13-3.90570E+00 6.81316E-15
 -1       125 8.39537E-13-4.09700E+00-1.03384E-14
 -1       126-3.35829E-13-4.19673E+00-1.71136E-14
 -1       127-3.00242E-12-4.25606E+00-1.10669E-14
 -1       128-9.93275E-13-4.32234E+00-3.71553E-15
 -1       129 9.80882E-13-4.44233E+00 9.04756E-14
 -1       130-3.06061E-13-4.66792E+00-1.46661E-14
 -1       131 2.27901E-13-5.05978E+00 7.11305E-14
 -1       132 8.83807E-14-5.69599E+00 2.53891E-14
 -1       133-2.15236E-12-6.68335E+00 1.29950E-14
 -1       134 1.87837E-12-6.55927E+00 1.20992E-14
 -1       135-5.80587E-13-7.47339E+00-7.16959E-15
 -1       136 2.75562E-12-8.00319E+00 8.55350E-15
 -1       137 7.04024E-13-8.28983E+00-6.70654E-15
 -1       138 2.78929E-12-8.44501E+00-1.54703E-15
 -1       139-1.65769E-12-8.56615E+00-2.11680E-14
 -1       140 2.12050E-12-8.74743E+00-8.91942E-15
 -1       141 9.91724E-14-9.08661E+00 2.75526E-14
 -1       142 3.78604E-13-9.69521E+00-1.38119E-14
 -1       143 1.29432E-14-1.07114E+01 1.44877E-15
 -1       144 2.02361E-13-1.23165E+01 9.69466E-15
 -1       145 9.17629E-13-1.47662E+01 3.89996E-14
 -1       146-5.25663E-12 1.37695E-13 2.87362E-14
 -1       147 1.00880E-12 6.89809E-13 2.34401E-15
 -1       148 1.69714E-12-5.47673E-13-3.76448E-14
 -1       149-1.47554E-12 3.87079E-13 5.68049E-14
 -1       150 2.45796E-12 7.51843E-13-4.30113E-14
 -1       151-5.79287E-13 3.45279E-14 1.94780E-13
 -1       152-9.96841E-14 6.50313E-13 8.84618E-14
 -1       153-9.69565E-13-5.57887E-14 1.14782E-14
 -1       154 1.70335E-12-7.46042E-13-4.68090E-14
 -1       155-1.40461E-12-4.78839E-13-5.91515E-14
 -1       156 8.37511E-13 7.62029E-14-4.81180E-15
 -1       157-1.86723E-12-3.40245E-14-1.18646E-14
 -1       158 8.03055E-13 7.90758E-14 3.79645E-14
 -1       159 2.31602E-12-6.54080E-13-2.30004E-14
 -1       160 3.11637E-12-4.90485E-13-3.88772E-14
 -1       161 1.72848E-12-1.52230E-13-2.89845E-14
 -1       162 3.30696E-12-7.77872E-14 3.96296E-16
 -1       163 1.17315E-12 1.12220E-13-3.54630E-14
 -1       164 1.41739E-13-2.78498E-13-7.39239E-14
 -1       165-1.06560E-12 7.67083E-13 3.91182E-14
 -1       166-1.30150E-12-3.51008E-14-1.52976E-14
 -1       167 3.55731E-13-6.74442E-13 1.95050E-14
 -1       168-1.75197E-13 1.57878E-13 9.77820E-15
 -1       169 2.19214E-13-1.51350E-12-7.91812E-14
 -1       170-6.85119E-13 5.20917E-13-5.93674E-14
 -1       171-3.07537E-12 4.69069E-14-3.77993E-14
 -1       172-9.61745E-13-3.94296E-13-3.60476E-15
 -1       173-1.07492E-12 6.26721E-13 4.81351E-14
 -1       174 4.66960E-13-5.35127E-14 4.83062E-14
 -1       175 4.08756E-13 4.47420E-14-1.34143E-13
 -1       176 1.20537E-12 5.56583E-13 1.70828E-13
 -1       177-2.55031E-12 3.87468E-14 4.33542E-14
 -1       178-5.64548E-13 1.76359E-13-2.43606E-14
 -1       179-5.92998E-13 4.35763E-13-8.81826E-15
 -1       180-1.42997E-13-2.26139E-12-5.02007E-14
 -1       181 3.54390E-13 3.71758E-13 5.29387E-14
 -1       182-5.46535E-13 2.55324E-13-8.54152E-14
 -1       183 2.11908E-12-8.55926E-13 8.34369E-15
 -1       184 1.72862E-13-1.93068E-13 5.42296E-14
 -1       185-3.07334E-12 4.75453E-13 1.93026E-15
 -1       186 1.48137E-12 8.37219E-13 4.02260E-14
 -1       187-3.01578E-12 1.51190E-12-1.86813E-14
 -1       188-1.34104E-12-5.83644E-13-3.31167E-14
 -1       189 3.11040E-12 9.17044E-14-5.84265E-14
 -1       190 1.99563E-14 2.17923E-13-1.33860E-13
 -1       191 7.59837E-13 1.64202E-13 4.80899E-14
 -1       192 7.01078E-13 1.40329E-12-6.09984E-14
 -1       193-7.26641E-13-3.44169E-13-1.06698E-13
 -1       194-1.65773E-12 1.12190E-12 1.74450E-13
 -1       195-9.21568E-13 4.50626E-13-4.21841E-14
 -1       196 2.24687E-12-1.98674E-13 2.50376E-14
 -1       197-4.32157E-12-1.60427E-13 1.14002E-14
 -1       198-6.99496E-13 7.17371E-13-3.22203E-14
 -1       199 1.29502E-12-9.27758E-13 6.51599E-14
 -1       200 5.64104E-13-3.81639E-13-7.98374E-15
 -1       201 4.92023E-13 1.62514E-12 1.12670E-13
 -1       202 6.96831E-13 3.88856E-13 3.88319E-15
 -1       203-7.58421E-15 8.15792E-13 1.23869E-13
 -1       204 4.62047E-13 6.04961E-13-1.69929E-14
 -1       205-1.36557E-13-2.71227E-13-1.13298E-14
 -1       206-3.76256E-12 4.58411E-13 5.40778E-15
 -1       207 3.12111E-12 6.29274E-13-9.03357E-15
 -1       208-3.68781E-13 1.69909E-12-1.41259E-14
 -1       209 2.86575E-13 1.83054E-12-7.07935E-14
 -1       210 5.00378E-13 9.91651E-13 4.65779E-14
 -1       211 1.24088E-12-1.16435E-12 5.21835E-14
 -1       212 1.92429E-13-4.51306E-14 5.30959E-14
 -1       213 4.68028E-14-1.62130E-12 1.33730E-13
 -1       214-3.11237E-13 7.68025E-13-9.15999E-15
 -1       215-1.96287E-13-1.00336E-13-2.83913E-14
 -1       216 5.33351E-13 3.80751E-13 1.69136E-15
 -1       217-6.81455E-13 4.83114E-13-3.24231E-15
 -1       218 5.13048E-12 4.61742E-13-1.37657E-14
 -1       219 2.22670E-12 2.51132E-13-4.14092E-15
 -1       220 2.22405E-12 5.30687E-13-1.15294E-14
 -1       221 4.17701E-12 2.64955E-13-6.06346E-14
 -1       222 6.83507E-12 4.57190E-13-5.60660E-14
 -1       223 9.99534E-13-4.81171E-13 8.20324E-14
 -1       224-2.21689E-12 4.82614E-13 8.61542E-14
 -1       225-2.10210E-12-2.89657E-13 8.47175E-14
 -1       226 1.11933E-12-4.01457E-13-4.20825E-14
 -1       227-6.37379E-13-1.20748E-12-1.77410E-14
 -1       228-2.65965E-12 1.11255E-12-7.01071E-14
 -1       229-2.07256E-12-1.36646E-12-2.20371E-14
 -1       230 5.25580E-13-3.81917E-13 1.23749E-13
 -1       231 1.55853E-12-1.88793E-13 6.31799E-14
 -1       232 2.01450E-13 5.69267E-13-3.76389E-14
 -1       233 3.35454E-13 5.80869E-13 1.11909E-13
 -1       234 1.79118E-12-1.46189E-13-2.94791E-14
 -1       235-2.54061E-12-9.58622E-13 1.04005E-14
 -1       236-3.01775E-12 7.03992E-13 2.20017E-14
 -1       237-1.01490E-12 6.52423E-13 4.97315E-14
 -1       238-6.03767E-13 5.12257E-13 2.87000E-14
 -1       239-1.36928E-12-9.21263E-13 3.32664E-14
 -1       240-1.03529E-13-3.01092E-13 6.03504E-14
 -1       241-2.65560E-12-1.66089E-13 3.15250E-14
 -1       242 7.80459E-13-9.92484E-13-1.14631E-14
 -1       243-2.15669E-12-1.30507E-13 6.11131E-14
 -1       244-4.23233E-12 6.03406E-14-1.03191E-14
 -1       245-2.06357E-12-3.42393E-13-6.97701E-14
 -1       246-1.13699E-12 6.76792E-13 9.63695E-14
 -1       247 4.52555E-13 1.88960E-13 3.21371E-14
 -1       248 2.68936E-12-1.79634E-13-7.07557E-15
 -1       249 5.29604E-13-2.54297E-13-7.40743E-14
 -1       250-1.19846E-12-5.45730E-13-1.24180E-14
 -1       251 3.32540E-13 3.55271E-14 4.11284E-14
 -1       252-2.82623E-12 1.55978E-12 3.61005E-14
 -1       253 2.20116E-13-7.32581E-13-3.13217E-14
 -1       254-2.02349E-12-4.26603E-13-3.03790E-14
 -1       255 1.53599E-12-1.37335E-13 5.55931E-14
 -1       256-1.22430E-12-3.56659E-13 5.54875E-14
 -1       257-8.43020E-13-8.16597E-13 5.40620E-14
 -1       258-8.52068E-13 4.67126E-13 4.81548E-15
 -1       259 1.61417E-12 1.01336E-12 3.81794E-14
 -1       260-2.74437E-12 1.63737E-13-6.53639E-15
 -1       261 5.68833E-14 1.44168E-12-8.54759E-14
 -1       262-2.02701E-12-3.11418E-13 2.52489E-15
 -1       263 3.99167E-13 2.27707E-13-3.67944E-14
 -1       264-6.34609E-12-6.72795E-14 9.01075E-14
 -1       265 1.63258E-12 1.16190E-12 5.87305E-14
 -1       266-4.63393E-12-5.81757E-14-3.00894E-14
 -1       267-3.72696E-12 7.44849E-13 6.56431E-14
 -1       268-2.67675E-13 1.34714E-12-1.61102E-13
 -1       269 1.49880E-14-5.78981E-13-1.48742E-15
 -1       270 7.76712E-13-1.93875E-12 2.94805E-14
 -1       271 3.83477E-12-2.14898E-13-4.69199E-14
 -1       272-4.54375E-12 1.17545E-14 3.92467E-14
 -1       273 3.58796E-12 3.87301E-13-1.08117E-15
 -1       274-1.35614E-13 2.17881E-12-6.88121E-14
 -1       275 1.07714E-12 3.75477E-13 1.03992E-14
 -1       276 8.89497E-12-1.39000E-13-2.98665E-14
 -1       277 1.10811E-12-1.61537E-14 1.01474E-14
 -1       278 1.73942E-12-2.63076E-12-1.25678E-14
 -1       279-4.85955E-13 5.71878E-13 8.81378E-14
 -1       280-3.75334E-13 2.50681E-13-7.52864E-14
 -1       281 1.23680E-12-6.93378E-13 8.04004E-14
 -1       282-7.23771E-13 2.77377E-13 3.65234E-14
 -1       283 1.54650E-12 4.15161E-14 4.64067E-14
 -1       284 1.89607E-12-5.12157E-14 4.53180E-14
 -1       285 1.87750E-13-2.42698E-13 5.60791E-15
 -1       286-9.27744E-13 1.96252E-12-1.19255E-13
 -1       287-1.75552E-12 7.41143E-13-7.36209E-15
 -1       288-5.18328E-13 1.08483E-13-6.74218E-14
 -1       289 2.14099E-13-1.01771E-12-1.11763E-14
 -1       290-2.54333E-12 4.41942E-15 2.60354E-14
 -1       291 2.89720E-12-2.10329E-13 3.66693E-14
 -1       292 1.54452E-12 1.14876E-12 1.26152E-15
 -1       293 2.15099E-12 9.65254E-13 1.21779E-14
 -1       294 1.10991E-12-2.73246E-13-2.43034E-14
 -1       295-6.05995E-14-2.58183E-14 6.95954E-14
 -1       296 1.97531E-13 9.03163E-14-3.11030E-16
 -1       297 1.57820E-12-6.89327E-14-1.07364E-14
 -1       298 2.89065E-12-6.41087E-13 2.37311E-14
 -1       299-3.36766E-12 8.06147E-13-6.07385E-14
 -1       300-2.88879E-12-8.02552E-13-2.44628E-14
 -1       301-6.31506E-13-1.16313E-12 9.77509E-15
 -1       302 3.13389E-13 1.97022E-12-9.31309E-14
 -1       303-8.20239E-14-2.06807E-13-1.66321E-13
 -1       304 2.64084E-13-6.10840E-13 3.37139E-14
 -1       305-9.23391E-15 1.40736E-13-8.89046E-17
 -1       306-2.04963E-14-3.40281E-13-1.10597E-14
 -1       307-1.09561E-13-1.79704E-12 1.07290E-13
 -1       308-2.46204E-13-8.31532E-13-4.82046E-14
 -1       309 1.79589E-14-3.58220E-16-3.16871E-14
 -1       310 3.26954E-13-4.02665E-14 6.78769E-14
 -1       311 2.68371E-13-8.01851E-13 1.45660E-14
 -1       312-1.30068E-12-1.30982E-12-2.34744E-14
 -1       313-4.61097E-12-2.97572E-14-1.66475E-14
 -1       314 2.28616E-12-2.80883E-13-4.01111E-15
 -1       315-6.15455E-13 4.66816E-13 3.93138E-14
 -1       316 1.72077E-12-3.90759E-13 3.67805E-14
 -1       317-4.34194E-13-5.94567E-13 1.68875E-15
 -1       318 2.79005E-12 1.36266E-13 2.20136E-14
 -1       319 4.90273E-12 4.92605E-14 4.31981E-14
 -1       320-1.67516E-13 3.48919E-13-4.37884E-14
 -1       321 1.35223E-13 1.99435E-12-9.46025E-14
 -1       322 1.49620E-13 1.31205E-12 7.03543E-14
 -1       323 1.65997E-13-5.82989E-13 3.82602E-14
 -1       324 1.71425E-13 8.45747E-14-5.57549E-14
 -1       325-1.36506E-13 3.16112E-13 2.12816E-14
 -1       326-7.64897E-14-1.05534E-12 2.30992E-14
 -1       327 3.14434E-13 1.24516E-12-3.95147E-14
 -1       328-5.96438E-13 4.74385E-13-3.64415E-14
 -1       329 5.41687E-13-2.03070E-13-1.54839E-13
 -1       330 7.56462E-14-3.05004E-13 6.04010E-14
 -1       331-1.08649E-12-1.04791E-12 7.90541E-14
 -1       332-1.54597E-13 3.55063E-12-8.27344E-14
 -1       333-4.30801E-13 5.80840E-13 5.19179E-14
 -1       334-2.45683E-14 4.53789E-13 7.00022E-14
 -1       335 7.08796E-14-5.41594E-14 4.97934E-14
 -1       336 1.45641E-13 1.14844E-12 6.12997E-15
 -1       337-1.41575E-13-6.44797E-13-1.76377E-15
 -1       338-8.05845E-14-1.25073E-12-2.26173E-14
 -1       339 1.41522E-14-1.18374E-13-8.41211E-15
 -1       340-4.73087E-13 2.71378E-13 2.62431E-15
 -1       341-1.01524E-12 4.65323E-13-1.16346E-14
 -1       342-2.46507E-12-8.43060E-13-8.97719E-16
 -1       343-5.33702E-13-5.84029E-13-1.74645E-14
 -1       344 6.67573E-13 1.20270E-12 2.27148E-14
 -1       345 4.31482E-12 1.70351E-13 2.75730E-14
 -1       346 2.45988E-14 5.60780E-13 1.97216E-14
 -1       347 2.33836E-12 2.35512E-13 6.91981E-15
 -1       348 2.22023E-12 2.08705E-13 1.91526E-14
 -1       349-2.65335E-12 9.18908E-13 4.21133E-14
 -1       350-2.62757E-13-7.26240E-14-2.61398E-14
 -1       351-1.78469E-12 3.29482E-13-4.80588E-14
 -1       352 2.17508E-13-4.03644E-13 2.15987E-14
 -1       353 1.60621E-12-3.66165E-13-2.46849E-14
 -1       354-6.43010E-13-7.15604E-13-2.97978E-14
 -1       355-8.10384E-13 5.98991E-13 1.40801E-14
 -1       356-9.51001E-14-6.20119E-13 7.22691E-15
 -1       357-2.35256E-12-1.52556E-13-2.22313E-14
 -1       358-2.83361E-12-2.87823E-13 3.38542E-14
 -1       359 8.51980E-13-4.83880E-13 2.76463E-14
 -1       360-1.42175E-12 3.93081E-13 4.42604E-14
 -1       361 5.82033E-14 4.12162E-13 2.01741E-14
 -1       362 1.19691E-12 1.53054E-12 6.71389E-15
 -1       363 1.17102E-12 4.30460E-13 3.07046E-16
 -1       364 1.78501E-12-1.29109E-12-6.65486E-14
 -1       365 3.65407E-13 1.08248E-12 7.85830E-16
 -1       366 8.47640E-13-3.92166E-13-9.35929E-14
 -1       367 6.37487E-13 8.75994E-14-4.53934E-15
 -1       368 8.55017E-14-6.43830E-13 5.51976E-14
 -1       369 6.52083E-14 1.66775E-13 3.65966E-14
 -1       370-9.86767E-13 1.29750E-13-2.21314E-14
 -1       371-1.69754E-12-7.57946E-13 2.49665E-16
 -1       372 8.99269E-13-9.96472E-13-5.98271E-14
 -1       373 2.68661E-12-4.42570E-13 1.24662E-15
 -1       374-1.14926E-13-7.05820E-13-2.70635E-14
 -1       375 3.83230E-13-8.48700E-14 4.65773E-14
 -1       376 2.28816E-12-2.13834E-13-1.10812E-13
 -1       377-1.28425E-12 2.31779E-12-4.91829E-14
 -1       378-1.54190E-12-1.35921E-13 2.80622E-14
 -1       379-1.96864E-12-1.04874E-12-6.75108E-14
 -1       380 3.13100E-14-5.23015E-13-1.63626E-13
 -1       381-1.25337E-12 1.11907E-12 5.56736E-14
 -1       382-1.90011E-13 3.78791E-13 5.22265E-14
 -1       383-4.80160E-13 6.83177E-14 6.92293E-14
 -1       384-8.33208E-13 3.72291E-13-3.81625E-14
 -1       385 1.63844E-13 2.66025E-12-9.55508E-14
 -1       386-2.78894E-13 2.86058E-13 1.66358E-13
 -1       387 2.03440E-13-1.56204E-12-9.33715E-14
 -1       388-2.68120E-13-4.40427E-13 2.23726E-14
 -1       389 8.44945E-13 4.08712E-14-6.54079E-14
 -1       390-8.25428E-12 7.21662E-13-2.05835E-14
 -1       391-2.82715E-12 1.63264E-13 4.91556E-14
 -1       392-8.12072E-12 5.62789E-14 3.08885E-15
 -1       393-2.44344E-12-2.85254E-13 6.59340E-14
 -1       394 7.32007E-13-5.74019E-13-3.29683E-14
 -1       395 1.87910E-12-5.94447E-13 6.90662E-14
 -1       396-5.21873E-13 2.66484E-13 7.19252E-14
 -1       397-4.96216E-13 4.56101E-14-3.30049E-14
 -1       398 1.63372E-12-1.84166E-13 8.50843E-15
 -1       399 1.48472E-12-1.87862E-13 3.50017E-14
 -1       400-2.02913E-12-4.07083E-13-4.43664E-15
 -1       401-2.22589E-13 5.77901E-13 3.08688E-14
 -1       402-3.67169E-13-3.39992E-13 2.45177E-14
 -1       403 2.23720E-12-1.37902E-14-7.25972E-14
 -1       404 6.46015E-13 4.21338E-13 1.44456E-14
 -1       405-5.40418E-14-1.86042E-13-5.48900E-14
 -1       406-4.79384E-12 1.44682E-13-2.55939E-16
 -1       407-2.99196E-13 6.93048E-13-6.25642E-14
 -1       408-1.19677E-13 5.46623E-13-8.19635E-15
 -1       409-1.86170E-12-1.83469E-13-2.00704E-15
 -1       410-5.49681E-13-8.29671E-13-2.77908E-14
 -1       411-3.09142E-12-2.38655E-14-2.16892E-14
 -1       412-2.84232E-13-2.44296E-13 3.25756E-14
 -1       413 1.41041E-12-3.40499E-13-7.32769E-14
 -1       414 3.34712E-12-1.78469E-13-5.89223E-14
 -1       415-1.04308E-12-1.55921E-14-2.05998E-14
 -1       416-1.95336E-13-3.92504E-13 5.82797E-14
 -1       417 1.02851E-12 2.14935E-13 1.22221E-14
 -1       418-6.62066E-13-9.35362E-13-3.78679E-15
 -1       419 3.48915E-12-5.35315E-13-7.64041E-14
 -1       420 1.25431E-12-3.36438E-13 6.73551E-14
 -1       421-3.89887E-13 7.77909E-13 1.27192E-14
 -1       422 1.78308E-12 3.21924E-14-3.49702E-14
 -1       423 1.03030E-12 8.14088E-13 3.17632E-14
 -1       424-2.60306E-13-5.46052E-13 1.66975E-14
 -1       425-1.61562E-12-2.10017E-13-1.19185E-14
 -1       426-1.90390E-12 6.50286E-13 4.36734E-14
 -1       427-6.19117E-13-3.36864E-15-1.14006E-14
 -1       428 8.51919E-13-3.36501E-13 3.81635E-14
 -1       429 8.12018E-13-7.29594E-14-5.57847E-14
 -1       430-2.99872E-12 7.10547E-14 1.76367E-14
 -1       431 4.06365E-13 4.30013E-13-5.87773E-15
 -1       432 3.10035E-13 8.82781E-13-1.24221E-13
 -1       433 7.36024E-13 5.22893E-14-3.31578E-14
 -1       434-1.45727E-12 1.00222E-13 6.57199E-14
 -1       435-6.78637E-13 4.22740E-13 1.72309E-14
 -1       436-5.50071E-13 3.75753E-13-4.54724E-14
 -1       437 2.74679E-12 3.68445E-13-3.52880E-14
 -1       438-1.29293E-12 7.79693E-15 7.25548E-15
 -1       439 6.25707E-13-2.48168E-13-7.84095E-14
 -1       440 5.83931E-13-6.22420E-13 4.64106E-14
 -1       441-1.31226E-12-3.72107E-13 3.24339E-14
 -1       442 1.64393E-12-2.46804E-13 7.06987E-15
 -1       443-2.60477E-12-2.14963E-13-3.26236E-14
 -1       444-5.79604E-13-3.53927E-14 4.90734E-14
 -1       445-2.38756E-12-5.44038E-13 5.06968E-14
 -1       446 1.51847E-12 3.88175E-13 1.53611E-14
 -1       447-1.54916E-12 4.04714E-13-7.39538E-14
 -1       448 1.02250E-12 4.93907E-13-3.99265E-14
 -1       449-1.20264E-12 2.01251E-13-2.07208E-14
 -1       450 2.23627E-13 3.62701E-13-3.06448E-14
 -1       451 5.00568E-13 2.22456E-13 5.45896E-14
 -1       452-6.34738E-13-2.27550E-13-7.96693E-15
 -1       453 1.59824E-12 7.79568E-13 6.69991E-14
 -1       454 6.55508E-13-7.73117E-13-9.09997E-14
 -1       455-1.10929E-12 7.17301E-13-1.03746E-14
 -1       456 3.05534E-13-2.51994E-13-2.35520E-14
 -1       457-1.42559E-13 4.71595E-13-2.45587E-14
 -1       458 3.46129E-14 1.18671E-12-2.69021E-14
 -1       459 2.33526E-13 1.14899E-12-2.94932E-14
 -1       460-1.24699E-12 1.09756E-12 5.05724E-14
 -1       461-1.49590E-12 6.40130E-14-1.98926E-14
 -1       462 5.47879E-13-4.32794E-13 1.23798E-14
 -1       463-7.12549E-13-1.11635E-12 7.21105E-14
 -1       464-5.16362E-14 3.98876E-13 3.85938E-15
 -1       465 2.33046E-13-2.16784E-13-1.27686E-14
 -1       466 3.67675E-13-1.82759E-13-2.91842E-14
 -1       467 3.66023E-13 3.84283E-13 5.62007E-15
 -1       468-3.18653E-12 3.26433E-13 4.72628E-14
 -1       469-4.24226E-13-7.47142E-13-6.53259E-14
 -1       470 1.04035E-12 4.78538E-13-8.93263E-15
 -1       471-7.18486E-13-9.82812E-14 3.10695E-14
 -1       472 1.39431E-12-3.59894E-14 1.29105E-14
 -1       473-3.40109E-13-1.71228E-13-1.61819E-14
 -1       474-1.14229E-12-1.01843E-12-9.28766E-15
 -1       475 6.83335E-13 2.46426E-14-8.49234E-15
 -1       476 4.78441E-13-3.77287E-13-1.39872E-14
 -1       477 2.18016E-12-5.96013E-13 1.19340E-14
 -1       478-1.89508E-13-3.49006E-13-2.86837E-15
 -1       479-1.24443E-12-6.54342E-14 2.59892E-14
 -1       480 3.88507E-14-1.09101E-12-2.34565E-14
 -1       481-6.35975E-13-7.52021E-13-4.60242E-14
 -1       482 3.38929E-13-2.40523E-13-4.22291E-14
 -1       483-1.52388E-12 1.88259E-13-3.73208E-14
 -1       484-2.32695E-13-7.80100E-13 5.54098E-14
 -1       485 6.65050E-15-1.68051E-12 1.14787E-14
 -1       486-1.68544E-13-2.21880E-13 4.66031E-14
 -1       487-2.19390E-13-9.94280E-13-7.53078E-14
 -1       488-3.28705E-13 2.87086E-13 6.93631E-14
 -1       489-3.55382E-13 8.11468E-13 4.53769E-14
 -1       490-1.19540E-13-5.08766E-13-2.43330E-14
 -1       491 2.66784E-12 6.69692E-13 4.23576E-15
 -1       492 5.48469E-13-1.23101E-13 7.94785E-15
 -1       493 1.96574E-12 1.95518E-13 2.34567E-16
 -1       494 2.51951E-12-3.26770E-13 1.26766E-14
 -1       495-3.29288E-12-7.45306E-13-3.57509E-14
 -1       496-2.52304E-12 9.33822E-13-3.56276E-14
 -1       497-9.14468E-13 3.13861E-13 2.89660E-14
 -1       498-3.49012E-12 1.37106E-13-1.91996E-14
 -1       499-3.95198E-12 2.83305E-13 1.67031E-14
 -1       500 1.11630E-12 2.95842E-14 2.91838E-14
 -1       501 1.16181E-12-5.49108E-13-1.42440E-14
 -1       502 2.16051E-13 3.65307E-13 5.92007E-15
 -1       503 3.01455E-13-7.06704E-13-1.00828E-13
 -1       504 1.42577E-13 5.14042E-13 6.27659E-14
 -1       505 9.54090E-14 2.10459E-13-2.15808E-14
 -1       506-2.86484E-13-3.48029E-15 6.21465E-14
 -1       507 3.89863E-12-1.02684E-13 6.72126E-14
 -1       508 6.94409E-14-8.57566E-13 2.76744E-14
 -1       509-5.49697E-13 2.32725E-13-2.79770E-14
 -1       510-7.39731E-13 1.68073E-14-4.89515E-14
 -1       511 3.04685E-12-6.98436E-13-1.97891E-14
 -1       512-8.69991E-13 2.07651E-13-2.17911E-14
 -1       513 7.94716E-13 2.66346E-13-3.30430E-14
 -1       514-4.34674E-13-3.01948E-12-5.80978E-14
 -1       515-1.16187E-12 9.29187E-13-1.00144E-13
 -1       516-5.17345E-13 5.54240E-13 8.62087E-15
 -1       517-4.96942E-13-9.58637E-13 4.87555E-15
 -1       518 2.35115E-12 1.98397E-13-3.51212E-14
 -1       519-2.16716E-12 1.12330E-12-4.21869E-14
 -1       520 8.53734E-13 1.38830E-13 6.19431E-14
 -1       521-2.24645E-12 5.71126E-13-1.64448E-13
 -1       522-6.16425E-12-3.06651E-13-2.08649E-15
 -1       523 6.17025E-12-1.90956E-12 1.14148E-13
 -1       524 1.98469E-12-1.37612E-13 3.26993E-15
 -1       525 5.78748E-12 1.11188E-12 1.54640E-13
 -1       526-3.33800E-12 3.40103E-13 1.44181E-14
 -1       527-8.79461E-13 3.11230E-13 5.79113E-14
 -1       528-1.14490E-12-7.77239E-13 1.61625E-14
 -1       529 1.87277E-12-9.25933E-13 1.75735E-14
 -1       530 3.06360E-12 3.99653E-13-1.19194E-14
 -1       531-1.28496E-12-9.83380E-14 9.90914E-14
 -1       532-4.55373E-12-5.29174E-13 3.42986E-14
 -1       533-2.05441E-12 4.82225E-13 7.14156E-15
 -1       534-1.29826E-12 8.22437E-13 2.40328E-14
 -1       535-3.30124E-12 2.13718E-15 2.79101E-14
 -1       536-6.50259E-12 2.28928E-13-1.42279E-13
 -1       537-5.90611E-13 2.17326E-14-6.68826E-15
 -1       538 3.62231E-12 7.50816E-13-1.21113E-14
 -1       539-2.76351E-12-1.31145E-15 1.37754E-14
 -1       540-3.36791E-12-9.89471E-13 1.34631E-14
 -1       541 2.07396E-12-3.05325E-13 6.19874E-14
 -1       542-1.80053E-12-9.39570E-15-6.37679E-14
 -1       543-4.24154E-13-6.92616E-13-4.67996E-14
 -1       544-1.10903E-12 1.20901E-12 3.08525E-14
 -1       545-2.15656E-12 3.68941E-14 8.27704E-15
 -1       546-3.97610E-12 1.61357E-13 7.46329E-14
 -1       547-7.42334E-12 2.41970E-13 8.98585E-15
 -1       548-1.06261E-12 7.93393E-14-2.42697E-14
 -1       549 7.77703E-14-9.49074E-13-1.22542E-14
 -1       550 4.78442E-12 4.72511E-13-6.01885E-14
 -1       551-8.97902E-12-2.41918E-13-9.39485E-14
 -1       552-2.34085E-12-4.21245E-13-7.88206E-14
 -1       553 5.42754E-12-3.25344E-13-1.00446E-13
 -1       554 1.46220E-13-6.25416E-13-7.39518E-14
 -1       555-1.78851E-12-6.46785E-13-4.63351E-14
 -1       556-6.31484E-12-6.26749E-13-2.66575E-14
 -1       557 3.50288E-12-4.70429E-13 9.31774E-15
 -1       558-1.52962E-12 2.25236E-13-1.42888E-14
 -1       559-3.58658E-13 2.12913E-13 9.28555E-14
 -1       560 4.02305E-13 2.54213E-13 1.18184E-14
 -1       561-2.54557E-12-5.96459E-13-3.76795E-14
 -1       562 7.43725E-12 8.49243E-13-1.52528E-13
 -1       563-3.08886E-12-3.39780E-14 6.75305E-14
 -1       564 9.99462E-12 2.10776E-13 3.11963E-14
 -1       565 1.11618E-12 7.86454E-14-1.03446E-13
 -1       566 9.12631E-13 3.27027E-13-3.12820E-14
 -1       567 1.65795E-12 1.36965E-12-1.59289E-13
 -1       568 1.05467E-12 1.27759E-13-4.83350E-14
 -1       569-2.00681E-12 1.09403E-12 8.97044E-14
 -1       570-1.99793E-12-1.28786E-14 2.58419E-14
 -1       571-9.52141E-13 1.97481E-13 7.59854E-14
 -1       572 3.52016E-12 9.74320E-13 2.25839E-14
 -1       573 4.57925E-12-8.05189E-14-7.52256E-14
 -1       574 2.93446E-13 6.02587E-13-4.51479E-14
 -1       575-4.13272E-12-5.39688E-13 5.02028E-14
 -1       576 1.28553E-12 2.08777E-13 9.39857E-15
 -1       577 2.73413E-13-1.56447E-12 4.65182E-15
 -1       578 3.86993E-12-6.28299E-13 4.81076E-14
 -1       579-5.14913E-12 8.28781E-14 9.64215E-14
 -1       580 8.55233E-13 4.20525E-13-4.12496E-15
 -1       581 5.50157E-13 1.47660E-14 2.95479E-14
 -1       582-4.63023E-12-1.64341E-13 5.24709E-14
 -1       583-1.18465E-12 9.20826E-13 2.29081E-14
 -1       584-7.46702E-12-7.71674E-14-1.01817E-13
 -1       585-2.54426E-12-3.96634E-13 3.00512E-14
 -1       586 2.38226E-13 6.05044E-13 8.13535E-14
 -1       587-4.13683E-13-2.32314E-14-1.21133E-14
 -1       588-9.97431E-13-7.06990E-13 2.26400E-14
 -1       589 2.24147E-12-7.91225E-13 3.60127E-14
 -1       590-8.34029E-13 7.98292E-13 1.19755E-13
 -1       591 4.44290E-12 8.87831E-15 6.98705E-14
 -1       592 1.12669E-12 6.76577E-13-8.51471E-14
 -1       593-6.66188E-12-2.35728E-13 1.58497E-14
 -1       594 1.14081E-12 1.87877E-13 9.92669E-14
 -1       595-3.85371E-12 4.47349E-13 8.37699E-14
 -1       596-5.48278E-12 1.05965E-12-7.34742E-15
 -1       597-1.29202E-12-3.51830E-13 1.21587E-13
 -1       598 1.63379E-12 6.71095E-14 2.66104E-14
 -1       599 1.51979E-12-2.01594E-12 9.43753E-14
 -1       600-2.40252E-12-7.72042E-13-2.08382E-14
 -1       601-5.61468E-12-5.20320E-13 1.00733E-13
 -1       602 7.52655E-13-1.51573E-13-1.07460E-13
 -1       603-9.95096E-13-2.69229E-15-4.59374E-14
 -1       604 1.36544E-12 6.51314E-13 3.18064E-14
 -1       605 2.57433E-13-7.98306E-13-2.09574E-14
 -1       606-3.09947E-13-4.77279E-13-1.58272E-14
 -1       607 2.44827E-12-3.65529E-13 1.25003E-13
 -1       608 1.17158E-12-2.20823E-13-6.11590E-14
 -1       609 4.32880E-12 6.40848E-13 2.70835E-14
 -1       610 4.66627E-12-4.35946E-13 7.63910E-14
 -1       611-3.56425E-12-3.21985E-13 9.26903E-14
 -1       612 7.00756E-12 6.98247E-13 4.98211E-14
 -1       613-6.65829E-12-5.02064E-13 6.13212E-14
 -1       614-3.21076E-13 1.88294E-13-1.29263E-14
 -1       615-3.26361E-12-3.29479E-13 2.93416E-16
 -1       616 3.66346E-13 3.39007E-13-5.58822E-14
 -1       617-2.72785E-12 3.59809E-13-4.02729E-14
 -1       618-1.99679E-12-5.14123E-13 1.05822E-13
 -1       619-1.44894E-12 2.01415E-13-1.14409E-13
 -1       620-2.77736E-13-4.40523E-13-1.55154E-14
 -1       621-2.15131E-12 1.45599E-13 6.43119E-15
 -1       622 1.42310E-13-4.39079E-13-6.82467E-14
 -1       623-6.69437E-13-4.72913E-13-4.99164E-14
 -1       624 7.37216E-13-1.22846E-13 2.27947E-14
 -1       625-5.06535E-12 2.26624E-13-1.53500E-14
 -1       626 2.01418E-12 5.26773E-13 1.06753E-13
 -1       627 6.72649E-13 4.12656E-13-9.34928E-15
 -1       628-6.34098E-12-2.66548E-12 5.73521E-14
 -1       629 1.65867E-12 6.06001E-13-8.18519E-14
 -1       630 3.66676E-12-4.93217E-13 2.19034E-14
 -1       631-6.09607E-12 9.35821E-13-1.19893E-13
 -1       632 1.85443E-12-4.92800E-13-1.15017E-13
 -1       633-2.94209E-14 2.77556E-16-7.79780E-15
 -1       634-1.25758E-12-4.12288E-13 1.57783E-14
 -1       635-7.09044E-13 2.59594E-13 1.77785E-13
 -1       636 4.19093E-12 7.06102E-13-7.09789E-14
 -1       637 6.22002E-13 1.56382E-13 1.77023E-14
 -1       638-5.59053E-13-1.92537E-14 3.58652E-14
 -1       639-7.02108E-13 1.30203E-13-5.31064E-14
 -1       640 3.90195E-12-3.46228E-13 5.73051E-14
 -1       641-2.91569E-12-4.29120E-13 4.39245E-14
 -1       642-9.27197E-13-5.67905E-13-3.16170E-14
 -1       643 5.05860E-13-1.68098E-13-1.62390E-15
 -1       644 1.59779E-12-2.22956E-13-3.45682E-14
 -1       645 4.62149E-12 2.68335E-13-9.12686E-15
 -1       646 7.73216E-13-2.76183E-13 4.78974E-15
 -1       647 8.00938E-12-6.42763E-14 2.63474E-14
 -1       648-9.02975E-13 3.17548E-13-6.05691E-14
 -1       649 2.13498E-12-6.03916E-13-2.98619E-14
 -1       650 1.76123E-12 7.98172E-13-6.04346E-14
 -1       651-2.85312E-14 9.23382E-13 5.27033E-14
 -1       652 2.03178E-12-1.09927E-13-1.27592E-14
 -1       653 6.90046E-13 4.48312E-13-4.54148E-14
 -1       654-5.04100E-12 1.50153E-14 5.19874E-14
 -1       655-3.64632E-12 7.68165E-13 6.44453E-14
 -1       656-2.34615E-12-4.89711E-13 2.64454E-14
 -1       657 3.91848E-12 1.80268E-14 2.46415E-14
 -1       658-2.74847E-12 5.20272E-13 1.45341E-14
 -1       659-1.13063E-12-6.22947E-13-2.26100E-14
 -1       660-2.33907E-14-5.04626E-13-4.73085E-14
 -1       661-9.41469E-13-2.83211E-13-3.80849E-14
 -1       662 2.30617E-12-9.91633E-13 2.53243E-14
 -1       663-3.18761E-13-2.60345E-13 5.67716E-14
 -1       664 3.76609E-12-4.68163E-13 4.13079E-14
 -1       665 3.63869E-12 4.60148E-13-3.52474E-15
 -1       666 5.54255E-13 5.10256E-13 2.74546E-15
 -1       667 1.01148E-12 9.80501E-13 3.41486E-14
 -1       668 3.64231E-12 1.72876E-13-1.95348E-14
 -1       669-4.95830E-12-3.07613E-13-1.07042E-14
 -1       670 5.81818E-12 2.48794E-13-1.60224E-14
 -1       671-2.21275E-12-4.24594E-14 1.33975E-13
 -1       672-1.57165E-12 1.45010E-13-3.34402E-14
 -1       673 5.17866E-13 7.27041E-13 6.14518E-15
 -1       674-2.68586E-12-2.68743E-13-3.44142E-14
 -1       675-2.18853E-14-1.88873E-13-7.17306E-14
 -1       676-1.47382E-12-1.03143E-13-5.26677E-14
 -1       677 5.27338E-13-2.40875E-13 1.83092E-15
 -1       678 1.64975E-12 3.65889E-13-1.65211E-14
 -1       679-8.40339E-13-1.41380E-12-1.40997E-14
 -1       680 2.57730E-12-3.47078E-14 2.38722E-14
 -1       681-1.75953E-12-4.85610E-13 1.32955E-14
 -1       682-2.48231E-12-9.86531E-13 3.31976E-15
 -1       683-7.77232E-13-5.67704E-13-1.62707E-14
 -1       684 6.68328E-13-1.75344E-12 4.63025E-14
 -1       685 3.72854E-12-1.15632E-12-7.50680E-14
 -1       686 3.46461E-13-2.42423E-13-7.44420E-15
 -1       687-5.47188E-12 3.09412E-13 4.72690E-14
 -1       688-1.54578E-12-5.04047E-14 9.09307E-14
 -1       689-1.15517E-12-3.86621E-13 4.45939E-14
 -1       690 9.97758E-13 6.10498E-14-6.00828E-16
 -1       691-2.73101E-12-7.60794E-13-7.36612E-14
 -1       692-3.09518E-13 1.98763E-12-4.03595E-14
 -1       693-3.69352E-12 1.00050E-12-8.73921E-15
 -1       694-8.34044E-13-2.26075E-13 7.76223E-15
 -1       695-2.39173E-12 4.40176E-13 3.90635E-14
 -1       696-1.52114E-12-6.61960E-13 8.34997E-15
 -1       697-2.45822E-12-4.02083E-13 7.74462E-14
 -1       698-2.25523E-12-2.77691E-15 1.69732E-14
 -1       699 6.24864E-12 3.60183E-13-3.24775E-15
 -1       700-8.54642E-13-1.54266E-13-6.98796E-14
 -1       701 4.32947E-13 2.82582E-13-4.13561E-14
 -1       702 2.38892E-13 1.91085E-13 3.76673E-14
 -1       703-4.44702E-12-2.53196E-13-1.16185E-14
 -1       704-2.32098E-12 4.54820E-13-9.95894E-16
 -1       705 1.21967E-12 4.58224E-14-2.02467E-14
 -1       706 8.43529E-13-2.42711E-13-4.31342E-14
 -1       707 1.59006E-12-2.35245E-13 1.34664E-14
 -1       708 1.14754E-12 3.37968E-14-2.55596E-14
 -1       709 5.20909E-12 8.92773E-13 2.33437E-14
 -1       710-7.27002E-13-7.08345E-14 5.39691E-14
 -1       711 1.64273E-12 8.61767E-13-7.82255E-15
 -1       712-3.41006E-12 5.94273E-13 8.27765E-15
 -1       713-4.50558E-12-6.14086E-14 1.12368E-14
 -1       714-2.02795E-12 1.32990E-13 4.44983E-14
 -1       715 1.07067E-12-4.17045E-14 2.48884E-14
 -1       716 7.93906E-13-9.05957E-13 1.37298E-15
 -1       717-3.20255E-12 4.49425E-13-5.39655E-14
 -1       718 6.81194E-13 8.35568E-13 3.11339E-14
 -1       719 2.04808E-13 4.58828E-13-5.80466E-14
 -1       720 2.18647E-12-2.87140E-13-6.55347E-14
 -1       721 2.67151E-12 3.39921E-13 2.60703E-14
 -1       722-4.36585E-12-3.58836E-13 5.82317E-15
 -1       723 2.56804E-12-5.89972E-13 1.28054E-14
 -1       724 5.24450E-13-6.46062E-13-1.72553E-16
 -1       725-9.67710E-13-2.75611E-15 5.46249E-14
 -1       726-2.35045E-13-5.66580E-13 4.14268E-14
 -1       727-9.18712E-13 2.92682E-13 8.01586E-14
 -1       728-3.12108E-12 5.80563E-13 8.09409E-14
 -1       729-4.48933E-13-8.08379E-13 3.32260E-14
 -1       730-3.03171E-12 1.51387E-12 3.73516E-14
 -1       731 3.31216E-12 1.42115E-13-1.09895E-13
 -1       732 5.74163E-12 7.63345E-13-5.45922E-14
 -1       733-7.65865E-13 7.09161E-13 6.94019E-15
 -1       734-1.60876E-12 4.49969E-13-2.77896E-14
 -1       735 3.74289E-12-1.47096E-12-6.70419E-14
 -1       736-1.45449E-12-1.77647E-13-6.07993E-15
 -1       737-2.46632E-12-4.11691E-13 1.33224E-14
 -1       738-2.17007E-13 9.70997E-13-1.04737E-13
 -1       739 3.15089E-14-1.69516E-13-4.60434E-14
 -1       740-2.88812E-12 1.06124E-12-3.39955E-14
 -1       741-6.68122E-13-1.59650E-13 1.15122E-14
 -1       742-1.47175E-12 9.38628E-15 3.62197E-14
 -1       743-2.75047E-12 5.20135E-13 4.82237E-16
 -1       744 2.03038E-12 1.30877E-13 2.54501E-14
 -1       745 6.91194E-13 2.70015E-14-3.60403E-14
 -1       746 4.31714E-12 6.07369E-13-2.15868E-15
 -1       747-1.35542E-12-5.15090E-14-6.12885E-14
 -1       748 6.23559E-12-8.44519E-14 9.17369E-14
 -1       749 1.26847E-12 1.02809E-13-5.69510E-14
 -1       750-2.34453E-12 3.14077E-13-5.32918E-14
 -1       751 1.39191E-12 2.04472E-13-1.83076E-14
 -1       752-1.85055E-12 1.09072E-13-3.95201E-14
 -1       753 9.54742E-13-1.75064E-13-3.28191E-15
 -1       754 3.77608E-12 6.02996E-13 5.08040E-14
 -1       755-6.01084E-13-6.63635E-13 3.86280E-14
 -1       756 2.17556E-12 6.17523E-14 2.90439E-14
 -1       757 1.25785E-12 2.74150E-13 3.67102E-15
 -1       758 1.98586E-13 1.92891E-14-5.42340E-14
 -1       759-1.07212E-12-2.17665E-13 4.04013E-14
 -1       760 4.47206E-12 3.45370E-13-3.08809E-14
 -1       761-1.42204E-12 2.06211E-13-1.48259E-14
 -1       762-1.19636E-13 1.66177E-13-9.03501E-14
 -1       763 1.48762E-12-1.34578E-13 5.25313E-14
 -1       764-1.53316E-12 4.70749E-13 4.55065E-14
 -1       765 1.65531E-12-7.45099E-13 6.01452E-14
 -1       766-6.91719E-12 4.72498E-13-3.46575E-14
 -1       767-1.56979E-12 5.76886E-13-7.17131E-14
 -1       768 2.26495E-12 2.64410E-13-2.85870E-14
 -1       769-1.26668E-12-8.23499E-13-1.05065E-13
 -1       770 4.25119E-12-3.02364E-13 2.25772E-15
 -1       771-1.21534E-12 2.18915E-14-2.93530E-14
 -1       772-7.39789E-13 4.51860E-14-5.34429E-14
 -1       773-1.08043E-12-2.51952E-13-2.32102E-15
 -1       774 6.01755E-13-3.09820E-13 5.12435E-14
 -1       775 6.42074E-14-1.01408E-12-1.92664E-14
 -1       776-2.29031E-13 5.04219E-13-3.64504E-14
 -1       777 2.11670E-12-9.61610E-13-2.81902E-14
 -1       778-1.13697E-12-4.82582E-13 9.29186E-15
 -1       779-4.43142E-12-1.86584E-13 9.15434E-15
 -1       780-1.51100E-12-3.99195E-13-4.34910E-14
 -1       781-2.64492E-12-2.24166E-13 1.62849E-15
 -1       782-7.19912E-13 7.87626E-13 3.86412E-14
 -1       783-1.59572E-12 5.75717E-13 9.99004E-15
 -1       784 7.25760E-13-4.29737E-13-7.46354E-14
 -1       785 2.63086E-12-8.04471E-13-4.54194E-14
 -1       786 3.77608E-12 8.30496E-13-2.41183E-14
 -1       787-4.68001E-12 1.83780E-14 3.11278E-14
 -1       788 2.41978E-12 2.00861E-13 1.00659E-14
 -1       789-8.03956E-13 6.06519E-15 5.70368E-14
 -1       790-5.18450E-12-4.17083E-13 3.22957E-16
 -1       791 5.26364E-12 6.02680E-13-5.73683E-15
 -1       792-2.44584E-12-4.96772E-13 2.15031E-14
 -1       793 1.21025E-12 7.18361E-13-1.16672E-14
 -1       794 4.54600E-12 6.61686E-13-1.28450E-14
 -1       795 9.52663E-12 1.31281E-14-3.90606E-14
 -1       796 4.09071E-12-6.51845E-13 4.89735E-14
 -1       797-3.50308E-12 7.05180E-13-1.06202E-14
 -1       798-1.15520E-12-4.79467E-13-4.85092E-14
 -1       799 4.42151E-12 5.48365E-13 7.49977E-14
 -1       800 3.35295E-12 8.76263E-14 4.83661E-14
 -1       801 1.80481E-12-1.03436E-12-7.37872E-14
 -1       802 1.69965E-12 7.77015E-13 2.06412E-14
 -1       803-8.74878E-13 1.67645E-17-1.22950E-14
 -1       804-3.96292E-13 3.02496E-13-2.89184E-15
 -1       805 1.31703E-12-2.34113E-13-1.49673E-13
 -1       806-7.39155E-13-1.15601E-13 1.21261E-14
 -1       807-4.58399E-12-1.25747E-13-4.28849E-14
 -1       808-1.42747E-14 2.26746E-13-3.99592E-14
 -1       809-1.08166E-11-2.59477E-13-3.42016E-14
 -1       810 3.80269E-12 7.59351E-13-4.06579E-14
 -1       811 1.59865E-12-3.40844E-13-1.29603E-15
 -1       812-2.08750E-12-2.88979E-13 7.69588E-14
 -1       813-5.75356E-12-9.32819E-13 1.54274E-14
 -1       814 3.42523E-13-2.05243E-13-3.05215E-14
 -1       815 4.83480E-12 1.51756E-12 6.97261E-14
 -1       816-5.17499E-14 5.67169E-13-4.40472E-16
 -1       817-9.55087E-13 2.80004E-13-5.88827E-15
 -1       818-1.42259E-12-1.10719E-12 2.23330E-14
 -1       819-1.04171E-12-2.31903E-13-3.28372E-14
 -1       820 1.10317E-12 4.66669E-13-2.61254E-14
 -1       821 2.93870E-12 4.95788E-13 3.57727E-14
 -1       822-4.79218E-12-5.29055E-13-9.53408E-14
 -1       823 3.46977E-13 3.03134E-13 1.93918E-14
 -1       824 6.45026E-12 1.10415E-12-1.24715E-14
 -1       825-1.54119E-12-9.49116E-14 2.28891E-14
 -1       826-9.94830E-13-1.85228E-12 5.92356E-14
 -1       827-4.35906E-12 3.03961E-13 3.99506E-14
 -1       828-2.86950E-12 3.10876E-12 5.63650E-15
 -1       829-1.08324E-12 6.65182E-13 7.61432E-16
 -1       830 2.00749E-13 4.00844E-13 1.65146E-14
 -1       831 2.63565E-12 9.94695E-13 4.24457E-14
 -1       832 4.08058E-12-2.02765E-14-5.46016E-14
 -1       833-1.30119E-12 2.98775E-13 3.20910E-14
 -1       834-7.92279E-13 2.90081E-13 4.52818E-14
 -1       835 1.53902E-12 9.18524E-14-9.06977E-14
 -1       836 2.26796E-12 1.26602E-14-4.80292E-14
 -1       837-1.17647E-12-2.38597E-13-5.03043E-15
 -1       838-1.73403E-12 4.48626E-13 4.30988E-14
 -1       839-3.47586E-12 3.32127E-14 1.08974E-13
 -1       840 4.93198E-12 7.81701E-13-5.29165E-14
 -1       841-4.38313E-13 5.63791E-13-5.81939E-14
 -1       842 1.07224E-12 5.02562E-13 2.93123E-14
 -1       843-4.34116E-13-1.05827E-12-4.40629E-14
 -1       844 2.38034E-12-2.04979E-13-1.17631E-14
 -1       845 1.05310E-12-3.69917E-13 3.17517E-14
 -1       846-3.71147E-12 6.00310E-13-2.09613E-14
 -1       847-3.93399E-12 7.93374E-14-4.33642E-15
 -1       848-2.98187E-12-1.04724E-12-2.54086E-15
 -1       849-1.62433E-12-6.29527E-13 2.75796E-14
 -1       850-2.98390E-12 5.57264E-13-1.63165E-14
 -1       851-3.35846E-13-4.21103E-13-2.00021E-14
 -1       852 1.53428E-12 2.96597E-13 5.20389E-15
 -1       853-8.89210E-13 4.71779E-13-2.11801E-14
 -1       854 2.63343E-13 8.81632E-14 4.23495E-14
 -1       855-1.56281E-12-2.51047E-13 1.36821E-14
 -1       856-1.26787E-12 2.16090E-14 2.60837E-14
 -1       857-4.99804E-12-1.04182E-12-2.06597E-14
 -1       858-1.96033E-12-3.26245E-13-2.13832E-14
 -1       859 3.73569E-13-2.88862E-13 7.64631E-14
 -1       860-1.66909E-12-3.44849E-13 3.25670E-14
 -1       861-2.33392E-12 5.70199E-14 5.54939E-14
 -1       862-8.49392E-13 1.43787E-13-4.74770E-14
 -1       863 4.22708E-12 1.51577E-13 7.17215E-16
 -1       864-1.20262E-12 4.04413E-13 4.17344E-14
 -1       865-1.77207E-12 2.38413E-13-6.87019E-14
 -1       866-9.70655E-13-4.47956E-13 1.55860E-14
 -1       867-4.83315E-12-3.40676E-13 2.61817E-14
 -1       868 6.23742E-12 1.00364E-13-1.41645E-15
 -1       869-4.94356E-12-3.42878E-13-1.52449E-14
 -1       870-4.82564E-12 2.24912E-13-1.85229E-14
 -1       871-4.92390E-12 9.37132E-14 3.59451E-14
 -1       872-3.33761E-12-3.08395E-13 5.76654E-14
 -1       873-6.62680E-13 4.91472E-13-2.45584E-15
 -1       874 5.58003E-13 1.32528E-13-1.29812E-14
 -1       875 2.45319E-12-6.46697E-13 7.70672E-15
 -1       876 9.50367E-13-1.16176E-13-2.03825E-14
 -1       877 4.00449E-12-1.21913E-12-3.34413E-14
 -1       878 2.99025E-12-3.86473E-14-6.07619E-15
 -1       879-2.01449E-12 3.79864E-13 1.01403E-14
 -1       880-2.01420E-12 2.45792E-13 5.25101E-14
 -1       881 6.00936E-13 1.50368E-13-9.57470E-15
 -1       882-1.66505E-12 7.36966E-13-4.74420E-14
 -1       883-3.81595E-12 1.00913E-13 7.42132E-14
 -1       884 1.95216E-13 9.41103E-13 3.73816E-15
 -1       885 9.53395E-13-1.56494E-13 5.41296E-15
 -1       886-3.00510E-14-1.01000E-13 6.24022E-14
 -1       887 4.97982E-12-6.44885E-13-8.13210E-14
 -1       888 2.99295E-12-4.22282E-13-2.11936E-14
 -1       889-4.32531E-12-4.98591E-13 8.93930E-14
 -1       890-3.81601E-12 8.90858E-13-6.98687E-15
 -1       891 1.39165E-13-5.01278E-13-3.34173E-14
 -1       892 9.17973E-14-3.68549E-14-1.07858E-15
 -1       893-1.83429E-12-8.55549E-13-3.26012E-14
 -1       894-2.10168E-12-8.57153E-14-2.08987E-14
 -1       895 9.85004E-14-9.76579E-13 6.61030E-15
 -1       896 2.51122E-13-4.90245E-13 3.05542E-14
 -1       897-9.76702E-13-1.22811E-14-3.05507E-14
 -1       898 1.55514E-12 9.64684E-13 5.69436E-15
 -1       899-5.09355E-12 1.62234E-12-1.98713E-14
 -1       900 1.74349E-12 2.03019E-12-7.50839E-14
 -1       901 9.97152E-13-2.12437E-13 1.49352E-14
 -1       902-6.13479E-13 9.15204E-13 1.20848E-14
 -3
    1PSTEP                         5           1           1          
  100CL  101 1.000000000         901                     0    1           1
 -4  ERROR       1    1
 -5  STR(%)      1    1    0    0
 -1         1 2.28912E+00
 -1         3 8.16397E+00
 -1         4 3.62790E-02
 -1         5 4.64488E-02
 -1         6 7.45649E-01
 -1         7 2.39413E+00
 -1         8 1.34579E+00
 -1         9 2.28912E+00
 -1        10 4.21921E+00
 -1        11 9.81541E+00
 -1        12 3.51394E+01
 -1        13 3.51394E+01
 -1        14 2.64682E+01
 -1        15 1.13426E+01
 -1        16 2.28912E+00
 -1        17 3.25417E+00
 -1        18 7.01731E+00
 -1        19 2.24774E+01
 -1        20 3.51394E+01
 -1        21 3.08038E+01
 -1        22 1.89054E+01
 -1        23 9.75328E+00
 -1        24 8.16397E+00
 -1        25 9.73332E+00
 -1        26 1.78653E+01
 -1        27 1.78653E+01
 -1        28 6.28887E+00
 -1        29 2.49866E+00
 -1        30 1.79728E+00
 -1        31 8.16397E+00
 -1        32 8.94864E+00
 -1        33 1.37993E+01
 -1        34 1.78653E+01
 -1        35 1.20771E+01
 -1        36 4.39376E+00
 -1        37 2.14797E+00
 -1        38 1.57154E+00
 -1        39 3.62790E-02
 -1        40 3.25746E-02
 -1        41 2.61225E-02
 -1        42 1.78974E-02
 -1        43 1.15908E-02
 -1        44 1.90359E-02
 -1        45 2.78826E-02
 -1        46 3.57103E-02
 -1        47 4.19775E-02
 -1        48 4.36237E-02
 -1        49 4.64488E-02
 -1        50 3.62790E-02
 -1        51 3.44268E-02
 -1        52 2.93486E-02
 -1        53 2.20100E-02
 -1        54 1.47441E-02
 -1        55 1.53134E-02
 -1        56 2.34593E-02
 -1        57 3.17965E-02
 -1        58 3.88439E-02
 -1        59 4.28006E-02
 -1        60 4.50363E-02
 -1        61 4.64488E-02
 -1        62 1.49055E-01
 -1        63 2.46827E-01
 -1        64 2.96361E-01
 -1        65 3.07480E-01
 -1        66 3.07480E-01
 -1        67 3.57880E-01
 -1        68 4.50312E-01
 -1        69 5.36292E-01
 -1        70 6.13182E-01
 -1        71 6.77401E-01
 -1        72 7.23957E-01
 -1        73 9.77522E-02
 -1        74 1.97941E-01
 -1        75 2.71594E-01
 -1        76 3.01920E-01
 -1        77 3.07480E-01
 -1        78 3.32680E-01
 -1        79 4.04096E-01
 -1        80 4.93302E-01
 -1        81 5.74737E-01
 -1        82 6.45291E-01
 -1        83 7.00679E-01
 -1        84 7.34803E-01
 -1        85 7.45649E-01
 -1        86 7.37016E-01
 -1        87 6.81823E-01
 -1        88 6.24386E-01
 -1        89 6.26677E-01
 -1        90 6.27376E-01
 -1        91 9.84096E-01
 -1        92 1.57735E+00
 -1        93 2.12525E+00
 -1        94 2.46127E+00
 -1        95 2.46127E+00
 -1        96 7.45649E-01
 -1        97 7.41333E-01
 -1        98 7.09420E-01
 -1        99 6.53104E-01
 -1       100 6.25532E-01
 -1       101 6.27027E-01
 -1       102 8.05736E-01
 -1       103 1.28072E+00
 -1       104 1.85130E+00
 -1       105 2.29326E+00
 -1       106 2.46127E+00
 -1       107 2.42770E+00
 -1       108 2.39413E+00
 -1       109 1.52594E+00
 -1       110 1.25720E+00
 -1       111 1.24589E+00
 -1       112 1.38790E+00
 -1       113 1.73543E+00
 -1       114 2.28912E+00
 -1       115 2.39413E+00
 -1       116 1.96004E+00
 -1       117 1.39157E+00
 -1       118 1.25155E+00
 -1       119 1.31689E+00
 -1       120 1.56166E+00
 -1       121 2.01227E+00
 -1       122 2.28912E+00
 -1       123 1.13053E+00
 -1       124 8.53112E-01
 -1       125 6.64581E-01
 -1       126 5.30510E-01
 -1       127 4.30985E-01
 -1       128 3.53918E-01
 -1       129 2.91585E-01
 -1       130 2.38586E-01
 -1       131 1.90632E-01
 -1       132 1.43683E-01
 -1       133 9.40033E-02
 -1       134 1.23816E+00
 -1       135 9.91823E-01
 -1       136 7.58846E-01
 -1       137 5.97545E-01
 -1       138 4.80748E-01
 -1       139 3.92451E-01
 -1       140 3.22751E-01
 -1       141 2.65085E-01
 -1       142 2.14609E-01
 -1       143 1.67158E-01
 -1       144 1.18843E-01
 -1       145 6.51411E-02
 -1       146 1.60592E+00
 -1       147 1.60592E+00
 -1       148 1.42428E+00
 -1       149 1.12307E+00
 -1       150 8.51963E-01
 -1       151 7.26711E-01
 -1       152 6.65132E-01
 -1       153 6.09849E-01
 -1       154 5.82199E-01
 -1       155 6.34928E-01
 -1       156 7.45649E-01
 -1       157 1.47586E+00
 -1       158 1.60592E+00
 -1       159 1.51510E+00
 -1       160 1.27367E+00
 -1       161 9.87517E-01
 -1       162 7.89337E-01
 -1       163 6.95921E-01
 -1       164 6.37490E-01
 -1       165 5.96024E-01
 -1       166 6.08563E-01
 -1       167 6.90288E-01
 -1       168 7.45649E-01
 -1       169 3.72179E-01
 -1       170 9.62893E+00
 -1       171 1.55366E+00
 -1       172 6.14337E-01
 -1       173 8.55892E+00
 -1       174 2.63881E+00
 -1       175 1.59451E+00
 -1       176 2.02642E+00
 -1       177 9.25491E-01
 -1       178 1.63885E+00
 -1       179 2.19799E+00
 -1       180 1.11361E+00
 -1       181 6.95184E-01
 -1       182 4.54839E-01
 -1       183 1.23996E+01
 -1       184 1.33689E+00
 -1       185 6.08596E+00
 -1       186 3.18614E+00
 -1       187 1.17726E+00
 -1       188 1.03323E+00
 -1       189 9.03235E-01
 -1       190 6.64983E-01
 -1       191 5.28949E-01
 -1       192 7.56363E-01
 -1       193 6.72260E-01
 -1       194 7.04999E-01
 -1       195 5.23059E-01
 -1       196 2.09552E+00
 -1       197 1.84605E+00
 -1       198 3.24236E+00
 -1       199 5.40990E+00
 -1       200 2.58222E+00
 -1       201 1.24589E+00
 -1       202 1.35606E+00
 -1       203 1.59451E+00
 -1       204 1.35606E+00
 -1       205 9.73332E+00
 -1       206 1.13426E+01
 -1       207 1.13426E+01
 -1       208 2.46127E+00
 -1       209 2.46127E+00
 -1       210 9.27544E-01
 -1       211 1.41552E+00
 -1       212 1.00007E+00
 -1       213 1.57735E+00
 -1       214 2.12525E+00
 -1       215 1.78653E+01
 -1       216 1.23996E+01
 -1       217 1.78653E+01
 -1       218 1.61956E+00
 -1       219 9.62893E+00
 -1       220 2.73266E+00
 -1       221 1.66065E+00
 -1       222 2.03961E+00
 -1       223 1.92481E+00
 -1       224 1.19514E+00
 -1       225 2.27422E+00
 -1       226 8.38419E+00
 -1       227 1.92481E+00
 -1       228 4.21921E+00
 -1       229 3.51394E+01
 -1       230 9.81541E+00
 -1       231 2.26034E+00
 -1       232 1.73543E+00
 -1       233 2.28912E+00
 -1       234 2.04776E+00
 -1       235 1.29865E+00
 -1       236 1.72300E+00
 -1       237 7.58830E-01
 -1       238 1.12013E+00
 -1       239 1.08500E+00
 -1       240 8.15893E-01
 -1       241 9.51559E-01
 -1       242 8.46680E-01
 -1       243 6.55896E-01
 -1       244 7.49333E-01
 -1       245 6.34928E-01
 -1       246 5.89982E-01
 -1       247 5.89982E-01
 -1       248 7.37016E-01
 -1       249 7.45649E-01
 -1       250 1.14047E+00
 -1       251 9.85420E-01
 -1       252 6.24386E-01
 -1       253 5.51764E-01
 -1       254 6.81823E-01
 -1       255 1.03323E+00
 -1       256 5.64159E-01
 -1       257 3.24580E-01
 -1       258 5.43277E-01
 -1       259 5.85513E-01
 -1       260 6.27376E-01
 -1       261 9.84096E-01
 -1       262 6.26677E-01
 -1       263 1.34845E+00
 -1       264 2.64682E+01
 -1       265 8.55892E+00
 -1       266 9.62893E+00
 -1       267 1.51675E+00
 -1       268 2.02642E+00
 -1       269 1.33689E+00
 -1       270 2.18020E+00
 -1       271 2.63881E+00
 -1       272 2.04776E+00
 -1       273 6.28887E+00
 -1       274 1.38790E+00
 -1       275 3.51394E+01
 -1       276 8.55892E+00
 -1       277 8.50605E-01
 -1       278 7.81092E-01
 -1       279 5.26004E-01
 -1       280 6.14029E-01
 -1       281 8.69116E-01
 -1       282 4.50564E-01
 -1       283 5.64271E-01
 -1       284 6.39711E-01
 -1       285 9.34987E-01
 -1       286 8.92935E-01
 -1       287 5.97660E-01
 -1       288 6.68622E-01
 -1       289 6.84991E-01
 -1       290 2.36717E+00
 -1       291 2.33887E+00
 -1       292 3.99606E+00
 -1       293 4.02435E+00
 -1       294 1.82459E+00
 -1       295 1.69986E+00
 -1       296 2.21413E+00
 -1       297 2.02202E+00
 -1       298 2.72017E+00
 -1       299 2.91229E+00
 -1       300 7.82100E+00
 -1       301 8.90477E+00
 -1       302 1.30663E+00
 -1       303 1.47529E+00
 -1       304 1.56023E+00
 -1       305 1.24589E+00
 -1       306 1.30098E+00
 -1       307 1.29139E+00
 -1       308 1.34648E+00
 -1       309 1.35606E+00
 -1       310 1.47529E+00
 -1       311 1.59451E+00
 -1       312 9.73332E+00
 -1       313 1.05380E+01
 -1       314 9.75328E+00
 -1       315 9.14612E+00
 -1       316 9.95075E+00
 -1       317 1.13426E+01
 -1       318 1.89054E+01
 -1       319 1.13426E+01
 -1       320 2.42770E+00
 -1       321 2.46127E+00
 -1       322 2.02789E+00
 -1       323 2.02789E+00
 -1       324 2.46127E+00
 -1       325 2.46127E+00
 -1       326 1.13222E+00
 -1       327 9.63809E-01
 -1       328 1.17807E+00
 -1       329 7.96264E-01
 -1       330 8.36167E-01
 -1       331 1.26456E+00
 -1       332 1.20780E+00
 -1       333 1.50502E+00
 -1       334 1.34548E+00
 -1       335 1.85130E+00
 -1       336 1.77038E+00
 -1       337 1.57735E+00
 -1       338 2.12525E+00
 -1       339 2.29326E+00
 -1       340 1.37993E+01
 -1       341 1.51325E+01
 -1       342 1.04793E+01
 -1       343 1.78653E+01
 -1       344 1.78653E+01
 -1       345 1.78653E+01
 -1       346 1.51325E+01
 -1       347 1.23996E+01
 -1       348 1.39841E+00
 -1       349 1.82958E+00
 -1       350 1.85013E+00
 -1       351 1.41896E+00
 -1       352 5.62425E+00
 -1       353 9.62893E+00
 -1       354 5.83427E+00
 -1       355 7.85744E+00
 -1       356 4.40931E+00
 -1       357 2.38614E+00
 -1       358 2.46532E+00
 -1       359 1.92932E+00
 -1       360 5.77687E+00
 -1       361 1.92481E+00
 -1       362 5.15450E+00
 -1       363 9.00656E+00
 -1       364 1.47902E+00
 -1       365 1.11419E+00
 -1       366 1.55998E+00
 -1       367 1.41700E+00
 -1       368 1.95654E+00
 -1       369 2.09952E+00
 -1       370 2.73018E+00
 -1       371 5.78516E+00
 -1       372 2.92903E+00
 -1       373 7.01731E+00
 -1       374 6.04481E+00
 -1       375 4.21921E+00
 -1       376 9.81541E+00
 -1       377 3.51394E+01
 -1       378 2.24774E+01
 -1       379 1.91628E+01
 -1       380 3.23977E+00
 -1       381 2.27473E+00
 -1       382 2.28912E+00
 -1       383 2.14338E+00
 -1       384 1.88092E+00
 -1       385 2.01227E+00
 -1       386 1.73543E+00
 -1       387 2.28912E+00
 -1       388 2.34328E+00
 -1       389 1.88538E+00
 -1       390 1.90926E+00
 -1       391 1.82684E+00
 -1       392 1.57364E+00
 -1       393 1.21086E+00
 -1       394 1.51082E+00
 -1       395 1.42616E+00
 -1       396 7.27007E-01
 -1       397 8.55194E-01
 -1       398 8.83726E-01
 -1       399 7.55538E-01
 -1       400 8.31033E-01
 -1       401 1.01168E+00
 -1       402 1.03584E+00
 -1       403 1.14869E+00
 -1       404 1.13113E+00
 -1       405 1.01828E+00
 -1       406 1.00524E+00
 -1       407 8.70692E-01
 -1       408 7.82613E-01
 -1       409 7.02614E-01
 -1       410 6.75540E-01
 -1       411 8.86086E-01
 -1       412 7.98006E-01
 -1       413 7.86695E-01
 -1       414 7.07232E-01
 -1       415 6.32872E-01
 -1       416 6.22939E-01
 -1       417 5.89982E-01
 -1       418 6.42583E-01
 -1       419 5.86091E-01
 -1       420 6.34928E-01
 -1       421 6.12455E-01
 -1       422 6.24632E-01
 -1       423 6.02160E-01
 -1       424 7.45649E-01
 -1       425 6.90288E-01
 -1       426 7.45649E-01
 -1       427 7.37016E-01
 -1       428 7.41333E-01
 -1       429 6.75677E-01
 -1       430 9.18691E-01
 -1       431 1.14203E+00
 -1       432 9.16050E-01
 -1       433 1.03298E+00
 -1       434 1.06295E+00
 -1       435 1.34707E+00
 -1       436 6.81823E-01
 -1       437 7.09420E-01
 -1       438 6.24386E-01
 -1       439 6.53104E-01
 -1       440 5.39612E-01
 -1       441 5.03301E-01
 -1       442 6.16793E-01
 -1       443 5.83051E-01
 -1       444 1.03323E+00
 -1       445 7.88255E-01
 -1       446 5.36113E-01
 -1       447 9.68234E-01
 -1       448 7.33697E-01
 -1       449 5.53718E-01
 -1       450 5.09499E-01
 -1       451 3.89709E-01
 -1       452 4.33929E-01
 -1       453 3.48380E-01
 -1       454 6.72171E-01
 -1       455 5.74836E-01
 -1       456 5.87748E-01
 -1       457 5.68638E-01
 -1       458 8.70230E-01
 -1       459 1.28072E+00
 -1       460 4.99778E-01
 -1       461 8.05736E-01
 -1       462 6.27376E-01
 -1       463 9.84096E-01
 -1       464 6.27027E-01
 -1       465 6.26677E-01
 -1       466 4.75629E-01
 -1       467 6.25532E-01
 -1       468 1.21673E+00
 -1       469 1.24446E+00
 -1       470 1.50455E+00
 -1       471 1.59725E+00
 -1       472 1.80486E+01
 -1       473 1.80486E+01
 -1       474 9.62893E+00
 -1       475 2.64682E+01
 -1       476 1.04858E+01
 -1       477 8.55892E+00
 -1       478 9.09393E+00
 -1       479 7.32244E+00
 -1       480 1.56816E+00
 -1       481 1.72078E+00
 -1       482 1.31844E+00
 -1       483 1.27499E+00
 -1       484 1.68166E+00
 -1       485 2.10331E+00
 -1       486 1.75855E+00
 -1       487 1.33689E+00
 -1       488 2.02642E+00
 -1       489 2.22027E+00
 -1       490 3.19971E+00
 -1       491 1.48787E+00
 -1       492 2.04776E+00
 -1       493 1.82684E+00
 -1       494 2.63881E+00
 -1       495 2.34328E+00
 -1       496 2.56873E+00
 -1       497 1.92252E+00
 -1       498 1.20771E+01
 -1       499 5.84938E+00
 -1       500 6.28887E+00
 -1       501 4.46384E+00
 -1       502 1.70716E+00
 -1       503 1.56166E+00
 -1       504 1.31689E+00
 -1       505 1.38790E+00
 -1       506 3.08038E+01
 -1       507 3.51394E+01
 -1       508 2.17618E+01
 -1       509 3.51394E+01
 -1       510 5.64579E+00
 -1       511 5.90064E+00
 -1       512 8.55892E+00
 -1       513 1.04793E+01
 -1       514 1.09375E+00
 -1       515 8.89075E-01
 -1       516 1.02287E+00
 -1       517 7.77802E-01
 -1       518 2.65303E-01
 -1       519 5.55789E-01
 -1       520 3.45588E-01
 -1       521 6.39445E-01
 -1       522 9.03101E-02
 -1       523 1.52985E-01
 -1       524 5.97349E-01
 -1       525 1.48378E-01
 -1       526 1.01260E+00
 -1       527 1.35889E-01
 -1       528 5.34011E-01
 -1       529 1.17405E-01
 -1       530 4.22519E-01
 -1       531 4.87085E-01
 -1       532 5.77588E-01
 -1       533 8.09158E-01
 -1       534 2.22214E-01
 -1       535 3.23668E-01
 -1       536 2.42001E-01
 -1       537 4.06833E-01
 -1       538 4.34858E-01
 -1       539 3.91984E-01
 -1       540 2.20865E-01
 -1       541 2.78812E-01
 -1       542 1.73790E-01
 -1       543 2.23388E-01
 -1       544 2.03498E-01
 -1       545 2.70089E-01
 -1       546 3.05574E-01
 -1       547 2.52268E-01
 -1       548 3.79503E-01
 -1       549 4.20725E-01
 -1       550 3.39744E-01
 -1       551 3.62315E-01
 -1       552 2.22214E-01
 -1       553 1.76738E-01
 -1       554 1.35889E-01
 -1       555 1.84026E-01
 -1       556 1.76738E-01
 -1       557 4.86691E-01
 -1       558 5.46588E-01
 -1       559 4.76238E-01
 -1       560 4.78699E-01
 -1       561 2.04898E-01
 -1       562 2.65072E-01
 -1       563 1.48378E-01
 -1       564 2.04898E-01
 -1       565 3.38516E-01
 -1       566 4.12579E-01
 -1       567 3.32794E-01
 -1       568 6.77401E-01
 -1       569 5.48165E-01
 -1       570 5.36292E-01
 -1       571 6.13182E-01
 -1       572 2.65303E-01
 -1       573 3.13253E-01
 -1       574 4.22519E-01
 -1       575 3.38516E-01
 -1       576 3.35075E-01
 -1       577 2.01189E-01
 -1       578 2.66048E-01
 -1       579 6.57775E-01
 -1       580 5.84579E-01
 -1       581 6.20098E-01
 -1       582 6.32496E-02
 -1       583 5.39461E-02
 -1       584 8.64988E-02
 -1       585 4.00372E-02
 -1       586 5.50165E-01
 -1       587 4.54812E-01
 -1       588 5.07404E-01
 -1       589 1.29724E-01
 -1       590 1.17832E-01
 -1       591 1.59230E-01
 -1       592 3.35795E-01
 -1       593 4.18320E-01
 -1       594 3.96373E-01
 -1       595 3.57880E-01
 -1       596 4.50312E-01
 -1       597 2.46827E-01
 -1       598 1.06553E-01
 -1       599 1.49055E-01
 -1       600 1.76981E-01
 -1       601 1.40979E-01
 -1       602 9.22873E-02
 -1       603 9.66393E-02
 -1       604 2.76629E-01
 -1       605 3.07480E-01
 -1       606 3.07480E-01
 -1       607 2.96361E-01
 -1       608 6.29574E-01
 -1       609 5.78667E-01
 -1       610 2.76629E-01
 -1       611 9.16764E-02
 -1       612 9.40033E-02
 -1       613 1.01260E+00
 -1       614 1.31079E+00
 -1       615 1.31079E+00
 -1       616 6.33963E-01
 -1       617 7.95555E-01
 -1       618 7.95555E-01
 -1       619 7.56187E-02
 -1       620 4.83517E-01
 -1       621 4.79620E-01
 -1       622 4.07820E-01
 -1       623 7.23957E-01
 -1       624 6.37762E-01
 -1       625 6.87133E-01
 -1       626 5.60844E-01
 -1       627 1.39073E-01
 -1       628 8.12101E-02
 -1       629 6.39445E-01
 -1       630 9.60206E-01
 -1       631 7.83301E-01
 -1       632 9.44544E-01
 -1       633 1.17888E+00
 -1       634 5.21208E-01
 -1       635 5.10259E-01
 -1       636 7.36555E-01
 -1       637 5.21208E-01
 -1       638 1.99700E-01
 -1       639 2.51100E-01
 -1       640 2.37828E-01
 -1       641 2.78921E-01
 -1       642 2.92193E-01
 -1       643 1.98589E-01
 -1       644 1.88644E-01
 -1       645 2.27883E-01
 -1       646 2.12181E-01
 -1       647 2.45477E-01
 -1       648 2.61179E-01
 -1       649 2.96879E-01
 -1       650 3.14621E-01
 -1       651 3.51586E-01
 -1       652 3.70909E-01
 -1       653 3.33945E-01
 -1       654 4.07180E-01
 -1       655 4.27791E-01
 -1       656 3.91520E-01
 -1       657 4.13779E-01
 -1       658 3.73289E-01
 -1       659 3.51030E-01
 -1       660 3.09278E-01
 -1       661 2.22214E-01
 -1       662 1.99476E-01
 -1       663 1.80382E-01
 -1       664 2.03120E-01
 -1       665 2.21539E-01
 -1       666 1.98801E-01
 -1       667 1.76738E-01
 -1       668 1.56314E-01
 -1       669 1.35889E-01
 -1       670 1.56314E-01
 -1       671 1.44437E-01
 -1       672 1.68505E-01
 -1       673 4.60775E-01
 -1       674 4.82695E-01
 -1       675 4.49712E-01
 -1       676 5.10351E-01
 -1       677 5.40300E-01
 -1       678 5.12644E-01
 -1       679 5.51188E-01
 -1       680 5.16014E-01
 -1       681 4.77469E-01
 -1       682 4.41536E-01
 -1       683 1.76638E-01
 -1       684 2.04898E-01
 -1       685 1.76638E-01
 -1       686 1.48378E-01
 -1       687 2.35100E-01
 -1       688 2.65188E-01
 -1       689 2.34985E-01
 -1       690 2.51829E-01
 -1       691 1.97765E-01
 -1       692 1.46031E-01
 -1       693 2.98933E-01
 -1       694 3.12189E-01
 -1       695 3.01909E-01
 -1       696 3.35655E-01
 -1       697 3.80517E-01
 -1       698 4.17549E-01
 -1       699 3.72686E-01
 -1       700 3.83248E-01
 -1       701 6.13182E-01
 -1       702 5.74737E-01
 -1       703 5.36292E-01
 -1       704 6.77401E-01
 -1       705 6.45291E-01
 -1       706 6.37375E-01
 -1       707 5.72757E-01
 -1       708 5.80673E-01
 -1       709 5.17625E-01
 -1       710 5.11689E-01
 -1       711 3.38516E-01
 -1       712 3.80517E-01
 -1       713 4.22519E-01
 -1       714 2.65303E-01
 -1       715 3.01909E-01
 -1       716 2.53652E-01
 -1       717 2.77627E-01
 -1       718 3.25884E-01
 -1       719 3.52619E-01
 -1       720 4.07252E-01
 -1       721 2.44718E-01
 -1       722 2.33618E-01
 -1       723 1.87489E-01
 -1       724 3.06943E-01
 -1       725 3.00561E-01
 -1       726 3.63529E-01
 -1       727 2.89650E-01
 -1       728 2.21595E-01
 -1       729 6.92243E-01
 -1       730 6.38936E-01
 -1       731 6.42615E-01
 -1       732 6.06782E-01
 -1       733 5.83343E-01
 -1       734 5.59295E-01
 -1       735 6.02338E-01
 -1       736 5.97214E-01
 -1       737 9.03273E-02
 -1       738 5.16434E-02
 -1       739 6.32680E-02
 -1       740 1.01952E-01
 -1       741 4.05735E-02
 -1       742 2.58140E-02
 -1       743 3.64910E-02
 -1       744 4.69916E-02
 -1       745 7.21281E-02
 -1       746 8.84045E-02
 -1       747 5.27784E-01
 -1       748 4.81108E-01
 -1       749 4.70948E-01
 -1       750 5.73757E-01
 -1       751 5.28784E-01
 -1       752 5.42088E-01
 -1       753 4.97048E-01
 -1       754 4.44835E-01
 -1       755 1.51757E-01
 -1       756 1.44477E-01
 -1       757 1.81364E-01
 -1       758 1.10017E-01
 -1       759 1.04071E-01
 -1       760 1.38531E-01
 -1       761 1.26861E-01
 -1       762 1.67984E-01
 -1       763 3.87938E-01
 -1       764 4.25593E-01
 -1       765 3.29732E-01
 -1       766 3.66084E-01
 -1       767 3.40692E-01
 -1       768 3.81954E-01
 -1       769 4.07347E-01
 -1       770 4.52703E-01
 -1       771 4.93302E-01
 -1       772 4.50312E-01
 -1       773 4.34316E-01
 -1       774 3.51734E-01
 -1       775 4.04096E-01
 -1       776 3.57880E-01
 -1       777 9.77522E-02
 -1       778 1.27804E-01
 -1       779 7.50884E-02
 -1       780 1.49055E-01
 -1       781 2.46827E-01
 -1       782 1.97941E-01
 -1       783 1.99906E-01
 -1       784 1.29769E-01
 -1       785 1.35352E-01
 -1       786 1.13739E-01
 -1       787 1.71084E-01
 -1       788 2.09491E-01
 -1       789 1.58980E-01
 -1       790 1.47193E-01
 -1       791 1.16264E-01
 -1       792 1.01596E-01
 -1       793 1.14088E-01
 -1       794 9.44633E-02
 -1       795 6.39988E-02
 -1       796 6.93084E-02
 -1       797 3.11108E-01
 -1       798 2.92054E-01
 -1       799 3.32680E-01
 -1       800 2.49421E-01
 -1       801 2.64847E-01
 -1       802 3.07480E-01
 -1       803 3.07480E-01
 -1       804 3.07480E-01
 -1       805 2.96361E-01
 -1       806 2.71594E-01
 -1       807 3.01920E-01
 -1       808 2.40193E-01
 -1       809 6.13462E-01
 -1       810 6.04121E-01
 -1       811 5.64416E-01
 -1       812 6.32251E-01
 -1       813 5.80433E-01
 -1       814 5.81623E-01
 -1       815 2.49421E-01
 -1       816 2.73359E-01
 -1       817 2.76629E-01
 -1       818 3.06212E-01
 -1       819 9.40033E-02
 -1       820 1.21191E-01
 -1       821 6.51411E-02
 -1       822 6.21255E-02
 -1       823 9.28399E-02
 -1       824 1.20027E-01
 -1       825 1.45836E+00
 -1       826 1.31079E+00
 -1       827 1.45836E+00
 -1       828 1.22066E+00
 -1       829 9.32858E-01
 -1       830 1.16170E+00
 -1       831 1.01260E+00
 -1       832 1.16170E+00
 -1       833 9.04079E-01
 -1       834 7.95555E-01
 -1       835 9.04079E-01
 -1       836 7.30068E-01
 -1       837 5.82237E-01
 -1       838 7.14759E-01
 -1       839 6.36704E-01
 -1       840 7.17500E-01
 -1       841 5.17507E-02
 -1       842 6.47824E-02
 -1       843 8.39530E-02
 -1       844 9.67255E-02
 -1       845 3.73782E-01
 -1       846 3.71447E-01
 -1       847 4.45175E-01
 -1       848 4.45669E-01
 -1       849 5.30552E-01
 -1       850 5.28604E-01
 -1       851 4.43720E-01
 -1       852 4.35802E-01
 -1       853 7.23957E-01
 -1       854 7.00679E-01
 -1       855 7.34803E-01
 -1       856 6.76766E-01
 -1       857 5.96775E-01
 -1       858 5.99303E-01
 -1       859 5.18541E-01
 -1       860 7.23460E-01
 -1       861 7.48146E-01
 -1       862 6.23989E-01
 -1       863 6.32361E-01
 -1       864 5.22180E-01
 -1       865 1.28239E-01
 -1       866 1.10142E-01
 -1       867 7.22299E-02
 -1       868 1.43726E-01
 -1       869 8.64433E-02
 -1       870 5.36663E-02
 -1       871 6.39445E-01
 -1       872 7.11373E-01
 -1       873 7.89428E-01
 -1       874 6.08516E-01
 -1       875 7.35217E-01
 -1       876 8.84682E-01
 -1       877 8.71754E-01
 -1       878 9.86405E-01
 -1       879 1.30158E+00
 -1       880 1.06171E+00
 -1       881 1.03381E+00
 -1       882 1.24484E+00
 -1       883 1.06954E+00
 -1       884 8.76851E-01
 -1       885 5.72111E-01
 -1       886 5.15733E-01
 -1       887 5.80326E-01
 -1       888 4.70622E-01
 -1       889 4.61419E-01
 -1       890 4.71864E-01
 -1       891 6.87158E-01
 -1       892 8.40550E-01
 -1       893 6.97165E-01
 -1       894 7.94259E-01
 -1       895 4.71864E-01
 -1       896 5.21208E-01
 -1       897 5.00414E-01
 -1       898 5.80326E-01
 -1       899 1.69386E-01
 -1       900 2.02299E-01
 -1       901 1.88340E-01
 -1       902 2.32501E-01
 -3
 9999
