
 stresses (elem, integ.pnt.,sxx,syy,szz,sxy,sxz,syz) for set EALL and time  0.1000000E+01

         1   1  1.571312E+03 -1.824939E+02  1.132985E+01  8.715908E+01 -5.137152E+01  2.505104E+01
         1   2  1.545698E+03 -1.580013E+02  7.287492E+00  1.083410E+02 -4.178417E+01  1.960718E+01
         1   3  1.528590E+03 -1.298374E+02  7.898879E+00  1.296112E+02 -3.317322E+01  1.435480E+01
         1   4  1.581802E+03 -1.538021E+02  1.062486E+01  1.186751E+02 -5.123647E+01  1.539582E+01
         1   5  1.551516E+03 -1.341979E+02  6.153869E+00  1.358651E+02 -4.167460E+01  1.095118E+01
         1   6  1.532554E+03 -1.099190E+02  7.190526E+00  1.532955E+02 -3.328927E+01  6.716346E+00
         1   7  1.597142E+03 -1.205745E+02  1.397568E+01  1.519990E+02 -5.136183E+01  5.341036E+00
         1   8  1.559715E+03 -1.076443E+02  7.478522E+00  1.642580E+02 -4.168625E+01  2.059047E+00
         1   9  1.537149E+03 -8.871928E+01  7.654164E+00  1.769863E+02 -3.343502E+01 -9.989355E-01
         1  10  1.571312E+03 -1.824939E+02  1.132985E+01  8.715908E+01 -5.604491E-13 -8.757018E-14
         1  11  1.545698E+03 -1.580013E+02  7.287492E+00  1.083410E+02 -4.290939E-13  4.378509E-15
         1  12  1.528590E+03 -1.298374E+02  7.898879E+00  1.296112E+02 -3.874980E-13  5.254211E-14
         1  13  1.581802E+03 -1.538021E+02  1.062486E+01  1.186751E+02  0.000000E+00 -5.604491E-13
         1  14  1.551516E+03 -1.341979E+02  6.153869E+00  1.358651E+02  3.677947E-13 -7.005614E-14
         1  15  1.532554E+03 -1.099190E+02  7.190526E+00  1.532955E+02  4.334724E-13  6.348838E-13
         1  16  1.597142E+03 -1.205745E+02  1.397568E+01  1.519990E+02  3.152526E-13 -1.261011E-12
         1  17  1.559715E+03 -1.076443E+02  7.478522E+00  1.642580E+02  8.494307E-13 -1.576263E-13
         1  18  1.537149E+03 -8.871928E+01  7.654164E+00  1.769863E+02  1.171251E-12  1.120898E-12
         1  19  1.571312E+03 -1.824939E+02  1.132985E+01  8.715908E+01  5.137152E+01 -2.505104E+01
         1  20  1.545698E+03 -1.580013E+02  7.287492E+00  1.083410E+02  4.178417E+01 -1.960718E+01
         1  21  1.528590E+03 -1.298374E+02  7.898879E+00  1.296112E+02  3.317322E+01 -1.435480E+01
         1  22  1.581802E+03 -1.538021E+02  1.062486E+01  1.186751E+02  5.123647E+01 -1.539582E+01
         1  23  1.551516E+03 -1.341979E+02  6.153869E+00  1.358651E+02  4.167460E+01 -1.095118E+01
         1  24  1.532554E+03 -1.099190E+02  7.190526E+00  1.532955E+02  3.328927E+01 -6.716346E+00
         1  25  1.597142E+03 -1.205745E+02  1.397568E+01  1.519990E+02  5.136183E+01 -5.341036E+00
         1  26  1.559715E+03 -1.076443E+02  7.478522E+00  1.642580E+02  4.168625E+01 -2.059047E+00
         1  27  1.537149E+03 -8.871928E+01  7.654164E+00  1.769863E+02  3.343502E+01  9.989355E-01
         2   1  1.516416E+03 -1.154720E+02  7.363904E+00  1.351804E+02 -2.819887E+01  1.270416E+01
         2   2  1.494589E+03 -9.252325E+01  5.761221E+00  1.350914E+02 -2.023391E+01  1.060183E+01
         2   3  1.480572E+03 -6.636855E+01  7.615927E+00  1.349092E+02 -1.305976E+01  8.654220E+00
         2   4  1.516999E+03 -9.882397E+01  5.788848E+00  1.559248E+02 -2.839855E+01  5.506562E+00
         2   5  1.490132E+03 -8.049456E+01  3.117175E+00  1.537476E+02 -2.041006E+01  4.037032E+00
         2   6  1.472601E+03 -5.843936E+01  4.376610E+00  1.516385E+02 -1.333330E+01  2.729827E+00
         2   7  1.521003E+03 -7.835251E+01  6.837725E+00  1.787183E+02 -2.877372E+01 -2.244357E+00
         2   8  1.487698E+03 -6.584009E+01  2.132909E+00  1.739004E+02 -2.067813E+01 -2.973501E+00
         2   9  1.465624E+03 -4.891645E+01  1.993105E+00  1.693683E+02 -1.364226E+01 -3.536184E+00
         2  10  1.516416E+03 -1.154720E+02  7.363904E+00  1.351804E+02 -5.779632E-13 -1.576263E-13
         2  11  1.494589E+03 -9.252325E+01  5.761221E+00  1.350914E+02 -3.940658E-13  9.304331E-14
         2  12  1.480572E+03 -6.636855E+01  7.615927E+00  1.349092E+02 -5.932879E-13  1.488693E-13
         2  13  1.516999E+03 -9.882397E+01  5.788848E+00  1.559248E+02  1.751404E-14 -3.502807E-14
         2  14  1.490132E+03 -8.049456E+01  3.117175E+00  1.537476E+02 -5.254211E-14 -1.225982E-13
         2  15  1.472601E+03 -5.843936E+01  4.376610E+00  1.516385E+02 -4.378509E-14 -2.189254E-13
         2  16  1.521003E+03 -7.835251E+01  6.837725E+00  1.787183E+02  8.231596E-13 -1.576263E-13
         2  17  1.487698E+03 -6.584009E+01  2.132909E+00  1.739004E+02  7.355895E-13 -4.378509E-14
         2  18  1.465624E+03 -4.891645E+01  1.993105E+00  1.693683E+02 -3.064956E-14 -2.714675E-13
         2  19  1.516416E+03 -1.154720E+02  7.363904E+00  1.351804E+02  2.819887E+01 -1.270416E+01
         2  20  1.494589E+03 -9.252325E+01  5.761221E+00  1.350914E+02  2.023391E+01 -1.060183E+01
         2  21  1.480572E+03 -6.636855E+01  7.615927E+00  1.349092E+02  1.305976E+01 -8.654220E+00
         2  22  1.516999E+03 -9.882397E+01  5.788848E+00  1.559248E+02  2.839855E+01 -5.506562E+00
         2  23  1.490132E+03 -8.049456E+01  3.117175E+00  1.537476E+02  2.041006E+01 -4.037032E+00
         2  24  1.472601E+03 -5.843936E+01  4.376610E+00  1.516385E+02  1.333330E+01 -2.729827E+00
         2  25  1.521003E+03 -7.835251E+01  6.837725E+00  1.787183E+02  2.877372E+01  2.244357E+00
         2  26  1.487698E+03 -6.584009E+01  2.132909E+00  1.739004E+02  2.067813E+01  2.973501E+00
         2  27  1.465624E+03 -4.891645E+01  1.993105E+00  1.693683E+02  1.364226E+01  3.536184E+00
         3   1  1.514886E+03 -6.769937E+01  4.786417E+00  1.881032E+02 -2.813000E+01 -6.960601E+00
         3   2  1.484203E+03 -5.613904E+01  1.416043E+00  1.827786E+02 -2.063925E+01 -7.267550E+00
         3   3  1.457973E+03 -4.287635E+01 -2.780233E-01  1.776307E+02 -1.367556E+01 -7.499188E+00
         3   4  1.502583E+03 -4.790981E+01  1.826069E+00  1.980801E+02 -2.692919E+01 -1.483005E+01
         3   5  1.469861E+03 -4.000082E+01 -2.103735E+00  1.918188E+02 -1.995250E+01 -1.475335E+01
         3   6  1.442334E+03 -3.010856E+01 -4.055832E+00  1.859480E+02 -1.353742E+01 -1.461253E+01
         3   7  1.493249E+03 -2.513600E+01  1.451120E+00  2.097908E+02 -2.578066E+01 -2.286354E+01
         3   8  1.457130E+03 -2.228872E+01 -4.165911E+00  2.022184E+02 -1.929114E+01 -2.236167E+01
         3   9  1.427210E+03 -1.702966E+01 -7.380812E+00  1.953275E+02 -1.340825E+01 -2.181221E+01
         3  10  1.514886E+03 -6.769937E+01  4.786417E+00  1.881032E+02 -2.802246E-13  1.242402E-13
         3  11  1.484203E+03 -5.613904E+01  1.416043E+00  1.827786E+02 -1.313553E-13  8.757018E-14
         3  12  1.457973E+03 -4.287635E+01 -2.780233E-01  1.776307E+02 -2.233039E-13 -3.809303E-13
         3  13  1.502583E+03 -4.790981E+01  1.826069E+00  1.980801E+02 -3.502807E-14  1.751404E-13
         3  14  1.469861E+03 -4.000082E+01 -2.103735E+00  1.918188E+02  1.401123E-13  1.225982E-13
         3  15  1.442334E+03 -3.010856E+01 -4.055832E+00  1.859480E+02  8.757018E-14  5.254211E-14
         3  16  1.493249E+03 -2.513600E+01  1.451120E+00  2.097908E+02  3.502807E-14  1.576263E-13
         3  17  1.457130E+03 -2.228872E+01 -4.165911E+00  2.022184E+02  4.290939E-13 -3.502807E-14
         3  18  1.427210E+03 -1.702966E+01 -7.380812E+00  1.953275E+02  2.014114E-13 -2.189254E-14
         3  19  1.514886E+03 -6.769937E+01  4.786417E+00  1.881032E+02  2.813000E+01  6.960601E+00
         3  20  1.484203E+03 -5.613904E+01  1.416043E+00  1.827786E+02  2.063925E+01  7.267550E+00
         3  21  1.457973E+03 -4.287635E+01 -2.780233E-01  1.776307E+02  1.367556E+01  7.499188E+00
         3  22  1.502583E+03 -4.790981E+01  1.826069E+00  1.980801E+02  2.692919E+01  1.483005E+01
         3  23  1.469861E+03 -4.000082E+01 -2.103735E+00  1.918188E+02  1.995250E+01  1.475335E+01
         3  24  1.442334E+03 -3.010856E+01 -4.055832E+00  1.859480E+02  1.353742E+01  1.461253E+01
         3  25  1.493249E+03 -2.513600E+01  1.451120E+00  2.097908E+02  2.578066E+01  2.286354E+01
         3  26  1.457130E+03 -2.228872E+01 -4.165911E+00  2.022184E+02  1.929114E+01  2.236167E+01
         3  27  1.427210E+03 -1.702966E+01 -7.380812E+00  1.953275E+02  1.340825E+01  2.181221E+01
         4   1  1.597053E+03 -1.022717E+02  1.353933E+01  1.684257E+02 -5.006547E+01 -6.893794E-01
         4   2  1.561241E+03 -9.057695E+01  8.206816E+00  1.778412E+02 -4.103396E+01 -3.332065E+00
         4   3  1.532417E+03 -7.601331E+01  6.132814E+00  1.875226E+02 -3.265153E+01 -5.881669E+00
         4   4  1.587319E+03 -7.044958E+01  1.149774E+01  1.869516E+02 -4.703642E+01 -1.068941E+01
         4   5  1.550564E+03 -6.248631E+01  6.192598E+00  1.934844E+02 -3.875258E+01 -1.263596E+01
         4   6  1.523257E+03 -5.066034E+01  5.081580E+00  2.004785E+02 -3.120433E+01 -1.449803E+01
         4   7  1.579789E+03 -3.740617E+01  1.232688E+01  2.059796E+02 -4.390772E+01 -2.053680E+01
         4   8  1.539704E+03 -3.506808E+01  5.347555E+00  2.086884E+02 -3.634383E+01 -2.169135E+01
         4   9  1.512369E+03 -2.747315E+01  3.869871E+00  2.121700E+02 -2.962781E+01 -2.277872E+01
         4  10  1.597053E+03 -1.022717E+02  1.353933E+01  1.684257E+02 -1.103384E-12 -1.339824E-12
         4  11  1.561241E+03 -9.057695E+01  8.206816E+00  1.778412E+02 -6.918044E-13  1.401123E-13
         4  12  1.532417E+03 -7.601331E+01  6.132814E+00  1.875226E+02 -8.319167E-14  1.053031E-12
         4  13  1.587319E+03 -7.044958E+01  1.149774E+01  1.869516E+02 -4.553649E-13 -4.203368E-13
         4  14  1.550564E+03 -6.248631E+01  6.192598E+00  1.934844E+02 -7.355895E-13  1.926544E-13
         4  15  1.523257E+03 -5.066034E+01  5.081580E+00  2.004785E+02 -1.138412E-13  4.028228E-13
         4  16  1.579789E+03 -3.740617E+01  1.232688E+01  2.059796E+02  0.000000E+00  2.977386E-13
         4  17  1.539704E+03 -3.506808E+01  5.347555E+00  2.086884E+02 -7.443465E-13  3.502807E-14
         4  18  1.512369E+03 -2.747315E+01  3.869871E+00  2.121700E+02 -1.904651E-13 -4.597434E-13
         4  19  1.597053E+03 -1.022717E+02  1.353933E+01  1.684257E+02  5.006547E+01  6.893794E-01
         4  20  1.561241E+03 -9.057695E+01  8.206816E+00  1.778412E+02  4.103396E+01  3.332065E+00
         4  21  1.532417E+03 -7.601331E+01  6.132814E+00  1.875226E+02  3.265153E+01  5.881669E+00
         4  22  1.587319E+03 -7.044958E+01  1.149774E+01  1.869516E+02  4.703642E+01  1.068941E+01
         4  23  1.550564E+03 -6.248631E+01  6.192598E+00  1.934844E+02  3.875258E+01  1.263596E+01
         4  24  1.523257E+03 -5.066034E+01  5.081580E+00  2.004785E+02  3.120433E+01  1.449803E+01
         4  25  1.579789E+03 -3.740617E+01  1.232688E+01  2.059796E+02  4.390772E+01  2.053680E+01
         4  26  1.539704E+03 -3.506808E+01  5.347555E+00  2.086884E+02  3.634383E+01  2.169135E+01
         4  27  1.512369E+03 -2.747315E+01  3.869871E+00  2.121700E+02  2.962781E+01  2.277872E+01
         5   1  5.161998E+02 -7.233916E+00 -1.555581E+01 -1.995210E+02  5.012538E+01  3.415813E+01
         5   2  5.581988E+02 -2.254820E+01 -1.546693E+01 -2.245045E+02  4.638376E+01  3.880659E+01
         5   3  6.078269E+02 -3.483469E+01 -1.332378E+01 -2.485382E+02  4.217046E+01  4.342772E+01
         5   4  4.893328E+02 -2.758932E+01 -1.910576E+01 -2.077477E+02  5.228057E+01  3.725814E+01
         5   5  5.344612E+02 -4.329347E+01 -1.871645E+01 -2.334055E+02  4.816100E+01  4.226239E+01
         5   6  5.872952E+02 -5.594375E+01 -1.632177E+01 -2.580924E+02  4.356524E+01  4.723498E+01
         5   7  4.616098E+02 -5.070228E+01 -2.327719E+01 -2.171657E+02  5.441736E+01  4.073295E+01
         5   8  5.099124E+02 -6.679184E+01 -2.263031E+01 -2.435124E+02  4.991360E+01  4.609685E+01
         5   9  5.659990E+02 -7.980018E+01 -2.002594E+01 -2.688662E+02  4.492913E+01  5.142457E+01
         5  10  5.161998E+02 -7.233916E+00 -1.555581E+01 -1.995210E+02  1.050842E-13  1.576263E-13
         5  11  5.581988E+02 -2.254820E+01 -1.546693E+01 -2.245045E+02  5.254211E-14  6.868786E-14
         5  12  6.078269E+02 -3.483469E+01 -1.332378E+01 -2.485382E+02 -2.408180E-13  1.234192E-13
         5  13  4.893328E+02 -2.758932E+01 -1.910576E+01 -2.077477E+02  1.510586E-13  2.090738E-13
         5  14  5.344612E+02 -4.329347E+01 -1.871645E+01 -2.334055E+02 -1.313553E-13  1.373757E-13
         5  15  5.872952E+02 -5.594375E+01 -1.632177E+01 -2.580924E+02 -2.408180E-14  2.447860E-13
         5  16  4.616098E+02 -5.070228E+01 -2.327719E+01 -2.171657E+02 -3.152526E-13 -4.323777E-14
         5  17  5.099124E+02 -6.679184E+01 -2.263031E+01 -2.435124E+02  1.926544E-13  8.100241E-14
         5  18  5.659990E+02 -7.980018E+01 -2.002594E+01 -2.688662E+02  4.772575E-13  2.803614E-13
         5  19  5.161998E+02 -7.233916E+00 -1.555581E+01 -1.995210E+02 -5.012538E+01 -3.415813E+01
         5  20  5.581988E+02 -2.254820E+01 -1.546693E+01 -2.245045E+02 -4.638376E+01 -3.880659E+01
         5  21  6.078269E+02 -3.483469E+01 -1.332378E+01 -2.485382E+02 -4.217046E+01 -4.342772E+01
         5  22  4.893328E+02 -2.758932E+01 -1.910576E+01 -2.077477E+02 -5.228057E+01 -3.725814E+01
         5  23  5.344612E+02 -4.329347E+01 -1.871645E+01 -2.334055E+02 -4.816100E+01 -4.226239E+01
         5  24  5.872952E+02 -5.594375E+01 -1.632177E+01 -2.580924E+02 -4.356524E+01 -4.723498E+01
         5  25  4.616098E+02 -5.070228E+01 -2.327719E+01 -2.171657E+02 -5.441736E+01 -4.073295E+01
         5  26  5.099124E+02 -6.679184E+01 -2.263031E+01 -2.435124E+02 -4.991360E+01 -4.609685E+01
         5  27  5.659990E+02 -7.980018E+01 -2.002594E+01 -2.688662E+02 -4.492913E+01 -5.142457E+01
         6   1  6.378001E+02 -4.401997E+01 -1.286775E+01 -2.592810E+02  3.957315E+01  4.558257E+01
         6   2  6.908823E+02 -5.885995E+01 -1.192717E+01 -2.713638E+02  3.504013E+01  4.838703E+01
         6   3  7.476658E+02 -7.221209E+01 -1.014999E+01 -2.825456E+02  3.032887E+01  5.118098E+01
         6   4  6.192999E+02 -6.531061E+01 -1.569469E+01 -2.689902E+02  4.073620E+01  4.951802E+01
         6   5  6.760852E+02 -8.046463E+01 -1.442696E+01 -2.809458E+02  3.579082E+01  5.245254E+01
         6   6  7.365628E+02 -9.412640E+01 -1.235932E+01 -2.919902E+02  3.067045E+01  5.537528E+01
         6   7  6.002028E+02 -8.912732E+01 -1.914756E+01 -2.801202E+02  4.186119E+01  5.387793E+01
         6   8  6.607284E+02 -1.046034E+02 -1.761157E+01 -2.919363E+02  3.649750E+01  5.693933E+01
         6   9  7.249361E+02 -1.185829E+02 -1.531274E+01 -3.028311E+02  3.096226E+01  5.998773E+01
         6  10  6.378001E+02 -4.401997E+01 -1.286775E+01 -2.592810E+02 -3.152526E-13 -3.677947E-13
         6  11  6.908823E+02 -5.885995E+01 -1.192717E+01 -2.713638E+02 -5.079070E-13 -2.900762E-14
         6  12  7.476658E+02 -7.221209E+01 -1.014999E+01 -2.825456E+02 -5.035285E-13  1.774664E-13
         6  13  6.192999E+02 -6.531061E+01 -1.569469E+01 -2.689902E+02 -2.189254E-15 -1.423015E-13
         6  14  6.760852E+02 -8.046463E+01 -1.442696E+01 -2.809458E+02 -1.751404E-14 -2.189254E-15
         6  15  7.365628E+02 -9.412640E+01 -1.235932E+01 -2.919902E+02 -1.094627E-13  2.465648E-13
         6  16  6.002028E+02 -8.912732E+01 -1.914756E+01 -2.801202E+02  2.451965E-13 -2.112630E-13
         6  17  6.607284E+02 -1.046034E+02 -1.761157E+01 -2.919363E+02  2.802246E-13 -7.115077E-15
         6  18  7.249361E+02 -1.185829E+02 -1.531274E+01 -3.028311E+02  2.627105E-13  1.661097E-13
         6  19  6.378001E+02 -4.401997E+01 -1.286775E+01 -2.592810E+02 -3.957315E+01 -4.558257E+01
         6  20  6.908823E+02 -5.885995E+01 -1.192717E+01 -2.713638E+02 -3.504013E+01 -4.838703E+01
         6  21  7.476658E+02 -7.221209E+01 -1.014999E+01 -2.825456E+02 -3.032887E+01 -5.118098E+01
         6  22  6.192999E+02 -6.531061E+01 -1.569469E+01 -2.689902E+02 -4.073620E+01 -4.951802E+01
         6  23  6.760852E+02 -8.046463E+01 -1.442696E+01 -2.809458E+02 -3.579082E+01 -5.245254E+01
         6  24  7.365628E+02 -9.412640E+01 -1.235932E+01 -2.919902E+02 -3.067045E+01 -5.537528E+01
         6  25  6.002028E+02 -8.912732E+01 -1.914756E+01 -2.801202E+02 -4.186119E+01 -5.387793E+01
         6  26  6.607284E+02 -1.046034E+02 -1.761157E+01 -2.919363E+02 -3.649750E+01 -5.693933E+01
         6  27  7.249361E+02 -1.185829E+02 -1.531274E+01 -3.028311E+02 -3.096226E+01 -5.998773E+01
         7   1  5.888713E+02 -1.041343E+02 -2.142533E+01 -2.863437E+02  4.234528E+01  5.659660E+01
         7   2  6.513149E+02 -1.197418E+02 -1.982412E+01 -2.980483E+02  3.673412E+01  5.973994E+01
         7   3  7.186279E+02 -1.333841E+02 -1.698620E+01 -3.089934E+02  3.091718E+01  6.286664E+01
         7   4  5.685190E+02 -1.319370E+02 -2.607367E+01 -2.949810E+02  4.260434E+01  6.162675E+01
         7   5  6.354280E+02 -1.470505E+02 -2.386021E+01 -3.067544E+02  3.645858E+01  6.491591E+01
         7   6  7.072152E+02 -1.601946E+02 -2.044920E+01 -3.177607E+02  3.011183E+01  6.818701E+01
         7   7  5.473180E+02 -1.628629E+02 -3.176811E+01 -3.052605E+02  4.281321E+01  6.721841E+01
         7   8  6.187443E+02 -1.774696E+02 -2.901348E+01 -3.170941E+02  3.612493E+01  7.064818E+01
         7   9  6.950565E+02 -1.901029E+02 -2.510095E+01 -3.281532E+02  2.924071E+01  7.405857E+01
         7  10  5.888713E+02 -1.041343E+02 -2.142533E+01 -2.863437E+02  7.005614E-14 -1.390177E-13
         7  11  6.513149E+02 -1.197418E+02 -1.982412E+01 -2.980483E+02  7.005614E-14 -3.721732E-14
         7  12  7.186279E+02 -1.333841E+02 -1.698620E+01 -3.089934E+02  3.502807E-14  3.489124E-14
         7  13  5.685190E+02 -1.319370E+02 -2.607367E+01 -2.949810E+02 -2.189254E-15 -3.283882E-14
         7  14  6.354280E+02 -1.470505E+02 -2.386021E+01 -3.067544E+02 -2.517643E-13 -7.662390E-14
         7  15  7.072152E+02 -1.601946E+02 -2.044920E+01 -3.177607E+02  4.378509E-14 -1.721301E-13
         7  16  5.473180E+02 -1.628629E+02 -3.176811E+01 -3.052605E+02 -3.502807E-13  2.769407E-13
         7  17  6.187443E+02 -1.774696E+02 -2.901348E+01 -3.170941E+02 -3.502807E-13 -6.731957E-14
         7  18  6.950565E+02 -1.901029E+02 -2.510095E+01 -3.281532E+02 -1.488693E-13 -4.377140E-13
         7  19  5.888713E+02 -1.041343E+02 -2.142533E+01 -2.863437E+02 -4.234528E+01 -5.659660E+01
         7  20  6.513149E+02 -1.197418E+02 -1.982412E+01 -2.980483E+02 -3.673412E+01 -5.973994E+01
         7  21  7.186279E+02 -1.333841E+02 -1.698620E+01 -3.089934E+02 -3.091718E+01 -6.286664E+01
         7  22  5.685190E+02 -1.319370E+02 -2.607367E+01 -2.949810E+02 -4.260434E+01 -6.162675E+01
         7  23  6.354280E+02 -1.470505E+02 -2.386021E+01 -3.067544E+02 -3.645858E+01 -6.491591E+01
         7  24  7.072152E+02 -1.601946E+02 -2.044920E+01 -3.177607E+02 -3.011183E+01 -6.818701E+01
         7  25  5.473180E+02 -1.628629E+02 -3.176811E+01 -3.052605E+02 -4.281321E+01 -6.721841E+01
         7  26  6.187443E+02 -1.774696E+02 -2.901348E+01 -3.170941E+02 -3.612493E+01 -7.064818E+01
         7  27  6.950565E+02 -1.901029E+02 -2.510095E+01 -3.281532E+02 -2.924071E+01 -7.405857E+01
         8   1  4.448533E+02 -6.553000E+01 -2.609202E+01 -2.225159E+02  5.556467E+01  4.289959E+01
         8   2  4.945846E+02 -8.191111E+01 -2.546457E+01 -2.492347E+02  5.086987E+01  4.850515E+01
         8   3  5.533817E+02 -9.469419E+01 -2.239269E+01 -2.750357E+02  4.558522E+01  5.406328E+01
         8   4  4.149834E+02 -9.367644E+01 -3.175731E+01 -2.298848E+02  5.713829E+01  4.692014E+01
         8   5  4.683084E+02 -1.098885E+02 -3.067535E+01 -2.572711E+02  5.193900E+01  5.297896E+01
         8   6  5.307964E+02 -1.224800E+02 -2.721443E+01 -2.837233E+02  4.614465E+01  5.898453E+01
         8   7  3.835936E+02 -1.260932E+02 -3.880471E+01 -2.385817E+02  5.868713E+01  5.144868E+01
         8   8  4.405733E+02 -1.420985E+02 -3.731859E+01 -2.666546E+02  5.297496E+01  5.796521E+01
         8   9  5.068154E+02 -1.544603E+02 -3.351817E+01 -2.937766E+02  4.666252E+01  6.442246E+01
         8  10  4.448533E+02 -6.553000E+01 -2.609202E+01 -2.225159E+02  2.101684E-13 -1.696672E-14
         8  11  4.945846E+02 -8.191111E+01 -2.546457E+01 -2.492347E+02  3.502807E-14  1.121993E-14
         8  12  5.533817E+02 -9.469419E+01 -2.239269E+01 -2.750357E+02  7.005614E-14  1.307395E-13
         8  13  4.149834E+02 -9.367644E+01 -3.175731E+01 -2.298848E+02 -7.662390E-15 -6.896151E-14
         8  14  4.683084E+02 -1.098885E+02 -3.067535E+01 -2.572711E+02  7.990779E-14  5.035285E-14
         8  15  5.307964E+02 -1.224800E+02 -2.721443E+01 -2.837233E+02  5.910987E-14  8.702286E-14
         8  16  3.835936E+02 -1.260932E+02 -3.880471E+01 -2.385817E+02 -2.101684E-13 -9.796913E-14
         8  17  4.405733E+02 -1.420985E+02 -3.731859E+01 -2.666546E+02 -1.050842E-13  1.176724E-14
         8  18  5.068154E+02 -1.544603E+02 -3.351817E+01 -2.937766E+02 -2.539535E-13  3.619111E-14
         8  19  4.448533E+02 -6.553000E+01 -2.609202E+01 -2.225159E+02 -5.556467E+01 -4.289959E+01
         8  20  4.945846E+02 -8.191111E+01 -2.546457E+01 -2.492347E+02 -5.086987E+01 -4.850515E+01
         8  21  5.533817E+02 -9.469419E+01 -2.239269E+01 -2.750357E+02 -4.558522E+01 -5.406328E+01
         8  22  4.149834E+02 -9.367644E+01 -3.175731E+01 -2.298848E+02 -5.713829E+01 -4.692014E+01
         8  23  4.683084E+02 -1.098885E+02 -3.067535E+01 -2.572711E+02 -5.193900E+01 -5.297896E+01
         8  24  5.307964E+02 -1.224800E+02 -2.721443E+01 -2.837233E+02 -4.614465E+01 -5.898453E+01
         8  25  3.835936E+02 -1.260932E+02 -3.880471E+01 -2.385817E+02 -5.868713E+01 -5.144868E+01
         8  26  4.405733E+02 -1.420985E+02 -3.731859E+01 -2.666546E+02 -5.297496E+01 -5.796521E+01
         8  27  5.068154E+02 -1.544603E+02 -3.351817E+01 -2.937766E+02 -4.666252E+01 -6.442246E+01
         9   1  1.252865E+03  8.934723E+01 -4.156448E+01  1.028911E+01 -4.701375E-01 -7.342634E+01
         9   2  1.329224E+03  1.211992E+02 -2.451536E+01  1.086182E+01 -6.579438E-01 -7.944342E+01
         9   3  1.403254E+03  1.516608E+02 -9.795418E+00  1.187011E+01 -1.278586E+00 -8.546295E+01
         9   4  1.266363E+03  9.167855E+01 -3.786320E+01  4.342823E+01 -2.553716E+00 -7.316857E+01
         9   5  1.344821E+03  1.231418E+02 -2.101489E+01  4.719544E+01 -4.240149E+00 -7.901524E+01
         9   6  1.420862E+03  1.531854E+02 -6.548920E+00  5.125058E+01 -6.294354E+00 -8.487133E+01
         9   7  1.276956E+03  8.659371E+01 -3.675567E+01  7.686129E+01 -4.507595E+00 -7.129933E+01
         9   8  1.358036E+03  1.184459E+02 -1.933709E+01  8.377333E+01 -7.633742E+00 -7.704655E+01
         9   9  1.436609E+03  1.488333E+02 -4.359694E+00  9.084017E+01 -1.107018E+01 -8.280728E+01
         9  10  1.252865E+03  8.934723E+01 -4.156448E+01  1.028911E+01 -8.428629E-13 -1.050842E-12
         9  11  1.329224E+03  1.211992E+02 -2.451536E+01  1.086182E+01 -5.593545E-13  1.751404E-14
         9  12  1.403254E+03  1.516608E+02 -9.795418E+00  1.187011E+01 -2.806350E-13  1.860866E-13
         9  13  1.266363E+03  9.167855E+01 -3.786320E+01  4.342823E+01 -3.371452E-13  2.802246E-13
         9  14  1.344821E+03  1.231418E+02 -2.101489E+01  4.719544E+01 -8.384844E-13 -3.152526E-13
         9  15  1.420862E+03  1.531854E+02 -6.548920E+00  5.125058E+01 -4.181476E-13 -7.618605E-13
         9  16  1.276956E+03  8.659371E+01 -3.675567E+01  7.686129E+01  2.802246E-13  1.278525E-12
         9  17  1.358036E+03  1.184459E+02 -1.933709E+01  8.377333E+01 -2.846031E-13 -1.050842E-13
         9  18  1.436609E+03  1.488333E+02 -4.359694E+00  9.084017E+01 -6.638914E-13 -1.212847E-12
         9  19  1.252865E+03  8.934723E+01 -4.156448E+01  1.028911E+01  4.701375E-01  7.342634E+01
         9  20  1.329224E+03  1.211992E+02 -2.451536E+01  1.086182E+01  6.579438E-01  7.944342E+01
         9  21  1.403254E+03  1.516608E+02 -9.795418E+00  1.187011E+01  1.278586E+00  8.546295E+01
         9  22  1.266363E+03  9.167855E+01 -3.786320E+01  4.342823E+01  2.553716E+00  7.316857E+01
         9  23  1.344821E+03  1.231418E+02 -2.101489E+01  4.719544E+01  4.240149E+00  7.901524E+01
         9  24  1.420862E+03  1.531854E+02 -6.548920E+00  5.125058E+01  6.294354E+00  8.487133E+01
         9  25  1.276956E+03  8.659371E+01 -3.675567E+01  7.686129E+01  4.507595E+00  7.129933E+01
         9  26  1.358036E+03  1.184459E+02 -1.933709E+01  8.377333E+01  7.633742E+00  7.704655E+01
         9  27  1.436609E+03  1.488333E+02 -4.359694E+00  9.084017E+01  1.107018E+01  8.280728E+01
        10   1  1.445464E+03  1.712932E+02 -1.440613E+00  1.278351E+01 -1.411278E+00 -8.800632E+01
        10   2  1.519449E+03  2.044522E+02  1.256838E+01  1.235119E+01 -1.565454E+00 -9.185088E+01
        10   3  1.602120E+03  2.410943E+02  2.945262E+01  1.287738E+01 -2.303583E+00 -9.569902E+01
        10   4  1.467172E+03  1.760917E+02  3.558687E+00  5.451478E+01 -7.586282E+00 -8.771689E+01
        10   5  1.545183E+03  2.080796E+02  1.763458E+01  5.459659E+01 -9.966015E+00 -9.109723E+01
        10   6  1.630747E+03  2.431264E+02  3.418955E+01  5.547052E+01 -1.282050E+01 -9.448985E+01
        10   7  1.483434E+03  1.687304E+02  4.832026E+00  9.417036E+01 -1.328817E+01 -8.488133E+01
        10   8  1.566331E+03  2.008148E+02  2.023426E+01  9.509453E+01 -1.782437E+01 -8.792371E+01
        10   9  1.655733E+03  2.355470E+02  3.774915E+01  9.664913E+01 -2.273760E+01 -9.098256E+01
        10  10  1.445464E+03  1.712932E+02 -1.440613E+00  1.278351E+01  2.802246E-13  1.576263E-13
        10  11  1.519449E+03  2.044522E+02  1.256838E+01  1.235119E+01 -7.016560E-13  1.926544E-13
        10  12  1.602120E+03  2.410943E+02  2.945262E+01  1.287738E+01 -1.225435E-12  2.758461E-13
        10  13  1.467172E+03  1.760917E+02  3.558687E+00  5.451478E+01  1.751404E-14  9.107298E-13
        10  14  1.545183E+03  2.080796E+02  1.763458E+01  5.459659E+01  1.488693E-13  3.152526E-13
        10  15  1.630747E+03  2.431264E+02  3.418955E+01  5.547052E+01  3.940658E-14  5.341781E-13
        10  16  1.483434E+03  1.687304E+02  4.832026E+00  9.417036E+01  1.094627E-15  4.028228E-13
        10  17  1.566331E+03  2.008148E+02  2.023426E+01  9.509453E+01  7.016560E-13  2.977386E-13
        10  18  1.655733E+03  2.355470E+02  3.774915E+01  9.664913E+01  6.132649E-13  2.539535E-13
        10  19  1.445464E+03  1.712932E+02 -1.440613E+00  1.278351E+01  1.411278E+00  8.800632E+01
        10  20  1.519449E+03  2.044522E+02  1.256838E+01  1.235119E+01  1.565454E+00  9.185088E+01
        10  21  1.602120E+03  2.410943E+02  2.945262E+01  1.287738E+01  2.303583E+00  9.569902E+01
        10  22  1.467172E+03  1.760917E+02  3.558687E+00  5.451478E+01  7.586282E+00  8.771689E+01
        10  23  1.545183E+03  2.080796E+02  1.763458E+01  5.459659E+01  9.966015E+00  9.109723E+01
        10  24  1.630747E+03  2.431264E+02  3.418955E+01  5.547052E+01  1.282050E+01  9.448985E+01
        10  25  1.483434E+03  1.687304E+02  4.832026E+00  9.417036E+01  1.328817E+01  8.488133E+01
        10  26  1.566331E+03  2.008148E+02  2.023426E+01  9.509453E+01  1.782437E+01  8.792371E+01
        10  27  1.655733E+03  2.355470E+02  3.774915E+01  9.664913E+01  2.273760E+01  9.098256E+01
        11   1  1.496415E+03  1.634561E+02  7.094033E+00  1.173902E+02 -1.725111E+01 -8.260108E+01
        11   2  1.576949E+03  1.919477E+02  2.085970E+01  1.172797E+02 -2.245534E+01 -8.506662E+01
        11   3  1.671731E+03  2.267177E+02  4.028258E+01  1.195917E+02 -2.920251E+01 -8.761482E+01
        11   4  1.516782E+03  1.483155E+02  1.001513E+01  1.486012E+02 -2.330033E+01 -7.739725E+01
        11   5  1.597104E+03  1.704472E+02  2.255169E+01  1.468285E+02 -3.066447E+01 -7.838571E+01
        11   6  1.690361E+03  1.984596E+02  4.061820E+01  1.472102E+02 -3.938273E+01 -7.946764E+01
        11   7  1.533488E+03  1.241070E+02  1.087000E+01  1.786232E+02 -2.893274E+01 -6.994928E+01
        11   8  1.614759E+03  1.414976E+02  2.372476E+01  1.756246E+02 -3.841447E+01 -6.965518E+01
        11   9  1.707749E+03  1.643858E+02  4.201578E+01  1.745213E+02 -4.907722E+01 -6.945916E+01
        11  10  1.496415E+03  1.634561E+02  7.094033E+00  1.173902E+02  5.560706E-13  3.327667E-13
        11  11  1.576949E+03  1.919477E+02  2.085970E+01  1.172797E+02  4.334724E-13  1.313553E-13
        11  12  1.671731E+03  2.267177E+02  4.028258E+01  1.195917E+02  5.215899E-13  2.364395E-13
        11  13  1.516782E+03  1.483155E+02  1.001513E+01  1.486012E+02  2.101684E-13  8.406737E-13
        11  14  1.597104E+03  1.704472E+02  2.255169E+01  1.468285E+02 -7.005614E-14  1.050842E-13
        11  15  1.690361E+03  1.984596E+02  4.061820E+01  1.472102E+02 -9.632719E-14  5.254211E-14
        11  16  1.533488E+03  1.241070E+02  1.087000E+01  1.786232E+02 -2.846031E-13  1.050842E-13
        11  17  1.614759E+03  1.414976E+02  2.372476E+01  1.756246E+02  1.751404E-14  0.000000E+00
        11  18  1.707749E+03  1.643858E+02  4.201578E+01  1.745213E+02 -8.100241E-14 -6.567763E-13
        11  19  1.496415E+03  1.634561E+02  7.094033E+00  1.173902E+02  1.725111E+01  8.260108E+01
        11  20  1.576949E+03  1.919477E+02  2.085970E+01  1.172797E+02  2.245534E+01  8.506662E+01
        11  21  1.671731E+03  2.267177E+02  4.028258E+01  1.195917E+02  2.920251E+01  8.761482E+01
        11  22  1.516782E+03  1.483155E+02  1.001513E+01  1.486012E+02  2.330033E+01  7.739725E+01
        11  23  1.597104E+03  1.704472E+02  2.255169E+01  1.468285E+02  3.066447E+01  7.838571E+01
        11  24  1.690361E+03  1.984596E+02  4.061820E+01  1.472102E+02  3.938273E+01  7.946764E+01
        11  25  1.533488E+03  1.241070E+02  1.087000E+01  1.786232E+02  2.893274E+01  6.994928E+01
        11  26  1.614759E+03  1.414976E+02  2.372476E+01  1.756246E+02  3.841447E+01  6.965518E+01
        11  27  1.707749E+03  1.643858E+02  4.201578E+01  1.745213E+02  4.907722E+01  6.945916E+01
        12   1  1.287067E+03  8.374087E+01 -3.465724E+01  9.614892E+01 -5.734601E+00 -6.974848E+01
        12   2  1.368655E+03  1.142237E+02 -1.752666E+01  1.041591E+02 -9.523837E+00 -7.518127E+01
        12   3  1.450236E+03  1.445473E+02 -1.642458E+00  1.137341E+02 -1.445957E+01 -8.067541E+01
        12   4  1.306840E+03  7.698411E+01 -3.044850E+01  1.228988E+02 -7.752355E+00 -6.622412E+01
        12   5  1.387765E+03  1.028356E+02 -1.463940E+01  1.327681E+02 -1.303111E+01 -7.075703E+01
        12   6  1.468581E+03  1.285761E+02  1.061761E-01  1.439847E+02 -1.932972E+01 -7.536033E+01
        12   7  1.324968E+03  6.556120E+01 -2.758390E+01  1.502820E+02 -9.658958E+00 -6.131783E+01
        12   8  1.405937E+03  8.783461E+01 -1.213347E+01  1.620433E+02 -1.638441E+01 -6.507408E+01
        12   9  1.486700E+03  1.100285E+02  2.432649E+00  1.749508E+02 -2.401432E+01 -6.890563E+01
        12  10  1.287067E+03  8.374087E+01 -3.465724E+01  9.614892E+01  2.802246E-13  8.757018E-13
        12  11  1.368655E+03  1.142237E+02 -1.752666E+01  1.041591E+02  9.873537E-13 -8.757018E-14
        12  12  1.450236E+03  1.445473E+02 -1.642458E+00  1.137341E+02  4.553649E-13 -1.554371E-12
        12  13  1.306840E+03  7.698411E+01 -3.044850E+01  1.228988E+02  3.196311E-13 -3.502807E-13
        12  14  1.387765E+03  1.028356E+02 -1.463940E+01  1.327681E+02  7.399680E-13 -2.802246E-13
        12  15  1.468581E+03  1.285761E+02  1.061761E-01  1.439847E+02  2.846031E-13 -7.793746E-13
        12  16  1.324968E+03  6.556120E+01 -2.758390E+01  1.502820E+02  2.889816E-13 -6.305053E-13
        12  17  1.405937E+03  8.783461E+01 -1.213347E+01  1.620433E+02  7.049399E-13 -1.751404E-14
        12  18  1.486700E+03  1.100285E+02  2.432649E+00  1.749508E+02  1.379230E-13  4.356616E-13
        12  19  1.287067E+03  8.374087E+01 -3.465724E+01  9.614892E+01  5.734601E+00  6.974848E+01
        12  20  1.368655E+03  1.142237E+02 -1.752666E+01  1.041591E+02  9.523837E+00  7.518127E+01
        12  21  1.450236E+03  1.445473E+02 -1.642458E+00  1.137341E+02  1.445957E+01  8.067541E+01
        12  22  1.306840E+03  7.698411E+01 -3.044850E+01  1.228988E+02  7.752355E+00  6.622412E+01
        12  23  1.387765E+03  1.028356E+02 -1.463940E+01  1.327681E+02  1.303111E+01  7.075703E+01
        12  24  1.468581E+03  1.285761E+02  1.061761E-01  1.439847E+02  1.932972E+01  7.536033E+01
        12  25  1.324968E+03  6.556120E+01 -2.758390E+01  1.502820E+02  9.658958E+00  6.131783E+01
        12  26  1.405937E+03  8.783461E+01 -1.213347E+01  1.620433E+02  1.638441E+01  6.507408E+01
        12  27  1.486700E+03  1.100285E+02  2.432649E+00  1.749508E+02  2.401432E+01  6.890563E+01
        13   1 -3.890122E+01 -4.888134E+02 -1.551018E+02 -1.408762E+01  7.781479E+01  5.878428E+00
        13   2 -2.469586E+01 -4.870258E+02 -1.529471E+02 -5.771834E+01  7.578582E+01  2.490456E+01
        13   3  4.317089E+00 -4.807498E+02 -1.494235E+02 -1.038145E+02  7.155198E+01  4.381792E+01
        13   4 -5.457879E+01 -6.208300E+02 -1.846328E+02 -9.860050E+00  7.049084E+01  6.650230E+00
        13   5 -4.170894E+01 -6.111956E+02 -1.809503E+02 -4.108463E+01  6.781694E+01  2.794419E+01
        13   6 -1.530525E+01 -5.979746E+02 -1.771892E+02 -7.509318E+01  6.305686E+01  4.910993E+01
        13   7 -9.303142E+01 -8.049281E+02 -2.380824E+02 -4.378091E+00  6.317003E+01  7.924153E+00
        13   8 -8.104897E+01 -7.865179E+02 -2.326260E+02 -2.331629E+01  5.985977E+01  3.138479E+01
        13   9 -5.678563E+01 -7.654284E+02 -2.283766E+02 -4.534283E+01  5.457738E+01  5.470470E+01
        13  10 -3.890122E+01 -4.888134E+02 -1.551018E+02 -1.408762E+01 -2.189254E-13 -1.619364E-13
        13  11 -2.469586E+01 -4.870258E+02 -1.529471E+02 -5.771834E+01  4.816360E-14 -4.241680E-14
        13  12  4.317089E+00 -4.807498E+02 -1.494235E+02 -1.038145E+02  5.910987E-14  8.141290E-14
        13  13 -5.457879E+01 -6.208300E+02 -1.846328E+02 -9.860050E+00 -9.424056E-15 -1.899178E-13
        13  14 -4.170894E+01 -6.111956E+02 -1.809503E+02 -4.108463E+01 -1.643993E-13 -9.523257E-14
        13  15 -1.530525E+01 -5.979746E+02 -1.771892E+02 -7.509318E+01 -1.822554E-13  1.641941E-14
        13  16 -9.303142E+01 -8.049281E+02 -2.380824E+02 -4.378091E+00  2.276825E-13 -1.182197E-13
        13  17 -8.104897E+01 -7.865179E+02 -2.326260E+02 -2.331629E+01 -2.627105E-14 -3.064956E-14
        13  18 -5.678563E+01 -7.654284E+02 -2.283766E+02 -4.534283E+01 -1.138412E-13  5.144748E-14
        13  19 -3.890122E+01 -4.888134E+02 -1.551018E+02 -1.408762E+01 -7.781479E+01 -5.878428E+00
        13  20 -2.469586E+01 -4.870258E+02 -1.529471E+02 -5.771834E+01 -7.578582E+01 -2.490456E+01
        13  21  4.317089E+00 -4.807498E+02 -1.494235E+02 -1.038145E+02 -7.155198E+01 -4.381792E+01
        13  22 -5.457879E+01 -6.208300E+02 -1.846328E+02 -9.860050E+00 -7.049084E+01 -6.650230E+00
        13  23 -4.170894E+01 -6.111956E+02 -1.809503E+02 -4.108463E+01 -6.781694E+01 -2.794419E+01
        13  24 -1.530525E+01 -5.979746E+02 -1.771892E+02 -7.509318E+01 -6.305686E+01 -4.910993E+01
        13  25 -9.303142E+01 -8.049281E+02 -2.380824E+02 -4.378091E+00 -6.317003E+01 -7.924153E+00
        13  26 -8.104897E+01 -7.865179E+02 -2.326260E+02 -2.331629E+01 -5.985977E+01 -3.138479E+01
        13  27 -5.678563E+01 -7.654284E+02 -2.283766E+02 -4.534283E+01 -5.457738E+01 -5.470470E+01
        14   1  2.942927E+01 -4.694173E+02 -1.445870E+02 -1.313731E+02  6.818145E+01  5.450169E+01
        14   2  8.690148E+01 -4.545915E+02 -1.362780E+02 -1.712978E+02  6.097277E+01  6.980544E+01
        14   3  1.659584E+02 -4.330588E+02 -1.231142E+02 -2.182088E+02  5.226331E+01  8.501414E+01
        14   4  4.040947E+00 -5.877279E+02 -1.751393E+02 -9.543080E+01  5.899329E+01  6.119211E+01
        14   5  5.585281E+01 -5.557132E+02 -1.648021E+02 -1.308609E+02  4.998307E+01  7.833977E+01
        14   6  1.290362E+02 -5.188116E+02 -1.508283E+02 -1.742104E+02  3.969925E+01  9.534155E+01
        14   7 -3.588173E+01 -7.400819E+02 -2.222713E+02 -5.595525E+01  4.988269E+01  6.915355E+01
        14   8  1.192004E+01 -6.867383E+02 -2.087263E+02 -8.712037E+01  3.906636E+01  8.791582E+01
        14   9  8.067627E+01 -6.307618E+02 -1.929545E+02 -1.271000E+02  2.720059E+01  1.065056E+02
        14  10  2.942927E+01 -4.694173E+02 -1.445870E+02 -1.313731E+02  1.291660E-13  2.197464E-13
        14  11  8.690148E+01 -4.545915E+02 -1.362780E+02 -1.712978E+02  1.751404E-13  9.030674E-15
        14  12  1.659584E+02 -4.330588E+02 -1.231142E+02 -2.182088E+02  1.119256E-13 -1.499639E-13
        14  13  4.040947E+00 -5.877279E+02 -1.751393E+02 -9.543080E+01 -1.128492E-13  1.390177E-13
        14  14  5.585281E+01 -5.557132E+02 -1.648021E+02 -1.308609E+02  4.337460E-14  3.338613E-14
        14  15  1.290362E+02 -5.188116E+02 -1.508283E+02 -1.742104E+02 -9.714816E-15 -1.283450E-13
        14  16 -3.588173E+01 -7.400819E+02 -2.222713E+02 -5.595525E+01 -8.757018E-14  9.817438E-14
        14  17  1.192004E+01 -6.867383E+02 -2.087263E+02 -8.712037E+01  8.975943E-14 -4.446923E-15
        14  18  8.067627E+01 -6.307618E+02 -1.929545E+02 -1.271000E+02 -3.489124E-14 -8.086558E-14
        14  19  2.942927E+01 -4.694173E+02 -1.445870E+02 -1.313731E+02 -6.818145E+01 -5.450169E+01
        14  20  8.690148E+01 -4.545915E+02 -1.362780E+02 -1.712978E+02 -6.097277E+01 -6.980544E+01
        14  21  1.659584E+02 -4.330588E+02 -1.231142E+02 -2.182088E+02 -5.226331E+01 -8.501414E+01
        14  22  4.040947E+00 -5.877279E+02 -1.751393E+02 -9.543080E+01 -5.899329E+01 -6.119211E+01
        14  23  5.585281E+01 -5.557132E+02 -1.648021E+02 -1.308609E+02 -4.998307E+01 -7.833977E+01
        14  24  1.290362E+02 -5.188116E+02 -1.508283E+02 -1.742104E+02 -3.969925E+01 -9.534155E+01
        14  25 -3.588173E+01 -7.400819E+02 -2.222713E+02 -5.595525E+01 -4.988269E+01 -6.915355E+01
        14  26  1.192004E+01 -6.867383E+02 -2.087263E+02 -8.712037E+01 -3.906636E+01 -8.791582E+01
        14  27  8.067627E+01 -6.307618E+02 -1.929545E+02 -1.271000E+02 -2.720059E+01 -1.065056E+02
        15   1 -6.363636E+01 -8.431494E+02 -2.564282E+02 -2.571305E+01  4.109437E+01  7.307295E+01
        15   2  9.203525E+00 -7.567933E+02 -2.268723E+02 -4.028209E+01  3.042305E+01  9.347629E+01
        15   3  6.521517E+01 -6.846864E+02 -2.118466E+02 -7.266839E+01  1.679256E+01  1.131998E+02
        15   4 -4.960694E+01 -1.021213E+03 -3.006261E+02  9.221190E+01  1.728666E+01  7.838284E+01
        15   5 -3.986616E+01 -9.046654E+02 -2.838647E+02  1.028498E+02  4.653116E+00  1.011526E+02
        15   6 -3.155271E+01 -7.818031E+02 -2.714643E+02  8.667369E+01 -9.974261E+00  1.229085E+02
        15   7 -6.569203E+01 -1.275762E+03 -3.817965E+02  2.318390E+02 -6.415531E+00  8.532120E+01
        15   8 -1.063310E+02 -1.101108E+03 -3.663274E+02  2.679064E+02 -2.111062E+01  1.089061E+02
        15   9 -1.293078E+02 -8.872105E+02 -3.402340E+02  2.657223E+02 -3.686825E+01  1.310600E+02
        15  10 -6.363636E+01 -8.431494E+02 -2.564282E+02 -2.571305E+01 -1.751404E-13  3.064956E-14
        15  11  9.203525E+00 -7.567933E+02 -2.268723E+02 -4.028209E+01 -1.576263E-13 -2.079792E-14
        15  12  6.521517E+01 -6.846864E+02 -2.118466E+02 -7.266839E+01 -6.567763E-14 -8.921212E-14
        15  13 -4.960694E+01 -1.021213E+03 -3.006261E+02  9.221190E+01  1.505112E-14  1.313553E-14
        15  14 -3.986616E+01 -9.046654E+02 -2.838647E+02  1.028498E+02  2.846031E-14 -1.970329E-14
        15  15 -3.155271E+01 -7.818031E+02 -2.714643E+02  8.667369E+01  7.115077E-15 -4.323777E-14
        15  16 -6.569203E+01 -1.275762E+03 -3.817965E+02  2.318390E+02  5.254211E-14  1.970329E-14
        15  17 -1.063310E+02 -1.101108E+03 -3.663274E+02  2.679064E+02 -1.138412E-13  2.572374E-14
        15  18 -1.293078E+02 -8.872105E+02 -3.402340E+02  2.657223E+02  7.334002E-14  5.363673E-14
        15  19 -6.363636E+01 -8.431494E+02 -2.564282E+02 -2.571305E+01 -4.109437E+01 -7.307295E+01
        15  20  9.203525E+00 -7.567933E+02 -2.268723E+02 -4.028209E+01 -3.042305E+01 -9.347629E+01
        15  21  6.521517E+01 -6.846864E+02 -2.118466E+02 -7.266839E+01 -1.679256E+01 -1.131998E+02
        15  22 -4.960694E+01 -1.021213E+03 -3.006261E+02  9.221190E+01 -1.728666E+01 -7.838284E+01
        15  23 -3.986616E+01 -9.046654E+02 -2.838647E+02  1.028498E+02 -4.653116E+00 -1.011526E+02
        15  24 -3.155271E+01 -7.818031E+02 -2.714643E+02  8.667369E+01  9.974261E+00 -1.229085E+02
        15  25 -6.569203E+01 -1.275762E+03 -3.817965E+02  2.318390E+02  6.415531E+00 -8.532120E+01
        15  26 -1.063310E+02 -1.101108E+03 -3.663274E+02  2.679064E+02  2.111062E+01 -1.089061E+02
        15  27 -1.293078E+02 -8.872105E+02 -3.402340E+02  2.657223E+02  3.686825E+01 -1.310600E+02
        16   1 -1.149593E+02 -9.283460E+02 -2.747449E+02 -1.799549E+00  5.525493E+01  8.032484E+00
        16   2 -9.767965E+01 -9.023605E+02 -2.658382E+02 -7.097094E+00  5.277925E+01  3.335619E+01
        16   3 -9.029794E+01 -8.790251E+02 -2.667747E+02 -1.797019E+01  4.607383E+01  5.831539E+01
        16   4 -5.277718E+01 -1.162593E+03 -3.176087E+02  1.243396E+01  3.380687E+01  7.919666E+00
        16   5 -5.118161E+01 -1.130547E+03 -3.124635E+02  5.374241E+01  3.004508E+01  3.623471E+01
        16   6 -5.246994E+01 -1.073212E+03 -3.073557E+02  8.594178E+01  2.304795E+01  6.406605E+01
        16   7 -4.203873E+01 -1.513803E+03 -4.152179E+02  2.940058E+01  1.237244E+01  9.599347E+00
        16   8 -5.459540E+01 -1.473149E+03 -4.128588E+02  1.196603E+02  7.323321E+00  3.950950E+01
        16   9 -5.541783E+01 -1.361987E+03 -3.932665E+02  1.970034E+02 -3.598233E-02  6.875238E+01
        16  10 -1.149593E+02 -9.283460E+02 -2.747449E+02 -1.799549E+00 -3.502807E-14 -4.706897E-14
        16  11 -9.767965E+01 -9.023605E+02 -2.658382E+02 -7.097094E+00 -2.101684E-13  7.662390E-15
        16  12 -9.029794E+01 -8.790251E+02 -2.667747E+02 -1.797019E+01 -7.881316E-14  7.279271E-14
        16  13 -5.277718E+01 -1.162593E+03 -3.176087E+02  1.243396E+01  1.026213E-15 -7.224539E-14
        16  14 -5.118161E+01 -1.130547E+03 -3.124635E+02  5.374241E+01 -1.351865E-13  2.846031E-14
        16  15 -5.246994E+01 -1.073212E+03 -3.073557E+02  8.594178E+01  9.961107E-14  1.160305E-13
        16  16 -4.203873E+01 -1.513803E+03 -4.152179E+02  2.940058E+01 -3.502807E-14 -9.632719E-14
        16  17 -5.459540E+01 -1.473149E+03 -4.128588E+02  1.196603E+02  7.005614E-14  2.079792E-14
        16  18 -5.541783E+01 -1.361987E+03 -3.932665E+02  1.970034E+02  1.576263E-13  1.423015E-13
        16  19 -1.149593E+02 -9.283460E+02 -2.747449E+02 -1.799549E+00 -5.525493E+01 -8.032484E+00
        16  20 -9.767965E+01 -9.023605E+02 -2.658382E+02 -7.097094E+00 -5.277925E+01 -3.335619E+01
        16  21 -9.029794E+01 -8.790251E+02 -2.667747E+02 -1.797019E+01 -4.607383E+01 -5.831539E+01
        16  22 -5.277718E+01 -1.162593E+03 -3.176087E+02  1.243396E+01 -3.380687E+01 -7.919666E+00
        16  23 -5.118161E+01 -1.130547E+03 -3.124635E+02  5.374241E+01 -3.004508E+01 -3.623471E+01
        16  24 -5.246994E+01 -1.073212E+03 -3.073557E+02  8.594178E+01 -2.304795E+01 -6.406605E+01
        16  25 -4.203873E+01 -1.513803E+03 -4.152179E+02  2.940058E+01 -1.237244E+01 -9.599347E+00
        16  26 -5.459540E+01 -1.473149E+03 -4.128588E+02  1.196603E+02 -7.323321E+00 -3.950950E+01
        16  27 -5.541783E+01 -1.361987E+03 -3.932665E+02  1.970034E+02  3.598233E-02 -6.875238E+01
        17   1  7.567593E+02 -4.172223E+00 -1.710620E+02  6.883503E-01  5.271641E-01 -7.505813E+00
        17   2  8.803625E+02  1.057711E+01 -1.327913E+02  3.490419E+00  6.139270E-01 -2.492399E+01
        17   3  9.819538E+02  1.474933E+01 -1.077727E+02  6.009925E+00  3.046945E-01 -4.234110E+01
        17   4  7.732632E+02 -2.164070E+00 -1.658382E+02  3.803817E+00  2.158186E+00 -7.684577E+00
        17   5  8.953251E+02  1.229808E+01 -1.281812E+02  1.431020E+01  1.840159E+00 -2.490203E+01
        17   6  9.959970E+02  1.644737E+01 -1.035245E+02  2.455830E+01  1.129304E+00 -4.211724E+01
        17   7  7.879637E+02 -4.098770E+00 -1.627309E+02  8.402134E+00  3.790957E+00 -7.389676E+00
        17   8  9.085838E+02  1.012583E+01 -1.255444E+02  2.639232E+01  3.074301E+00 -2.441010E+01
        17   9  1.008417E+03  1.429346E+01 -1.011147E+02  4.414679E+01  1.967896E+00 -4.142714E+01
        17  10  7.567593E+02 -4.172223E+00 -1.710620E+02  6.883503E-01  1.412069E-13  2.451965E-13
        17  11  8.803625E+02  1.057711E+01 -1.327913E+02  3.490419E+00 -5.473136E-16 -1.225982E-13
        17  12  9.819538E+02  1.474933E+01 -1.077727E+02  6.009925E+00  4.024123E-13  4.597434E-14
        17  13  7.732632E+02 -2.164070E+00 -1.658382E+02  3.803817E+00 -8.264435E-14  3.502807E-13
        17  14  8.953251E+02  1.229808E+01 -1.281812E+02  1.431020E+01  4.487971E-14 -7.005614E-14
        17  15  9.959970E+02  1.644737E+01 -1.035245E+02  2.455830E+01 -3.694367E-14  2.364395E-13
        17  16  7.879637E+02 -4.098770E+00 -1.627309E+02  8.402134E+00 -1.401123E-13  2.627105E-13
        17  17  9.085838E+02  1.012583E+01 -1.255444E+02  2.639232E+01  1.412069E-13  1.751404E-14
        17  18  1.008417E+03  1.429346E+01 -1.011147E+02  4.414679E+01  1.368284E-16 -5.363673E-13
        17  19  7.567593E+02 -4.172223E+00 -1.710620E+02  6.883503E-01 -5.271641E-01  7.505813E+00
        17  20  8.803625E+02  1.057711E+01 -1.327913E+02  3.490419E+00 -6.139270E-01  2.492399E+01
        17  21  9.819538E+02  1.474933E+01 -1.077727E+02  6.009925E+00 -3.046945E-01  4.234110E+01
        17  22  7.732632E+02 -2.164070E+00 -1.658382E+02  3.803817E+00 -2.158186E+00  7.684577E+00
        17  23  8.953251E+02  1.229808E+01 -1.281812E+02  1.431020E+01 -1.840159E+00  2.490203E+01
        17  24  9.959970E+02  1.644737E+01 -1.035245E+02  2.455830E+01 -1.129304E+00  4.211724E+01
        17  25  7.879637E+02 -4.098770E+00 -1.627309E+02  8.402134E+00 -3.790957E+00  7.389676E+00
        17  26  9.085838E+02  1.012583E+01 -1.255444E+02  2.639232E+01 -3.074301E+00  2.441010E+01
        17  27  1.008417E+03  1.429346E+01 -1.011147E+02  4.414679E+01 -1.967896E+00  4.142714E+01
        18   1  1.037621E+03  2.670023E+01 -9.288463E+01  7.033942E+00  1.839053E-01 -4.952155E+01
        18   2  1.128280E+03  5.225127E+01 -6.888394E+01  8.360421E+00  6.145435E-02 -5.936308E+01
        18   3  1.207990E+03  7.246284E+01 -5.173361E+01  9.688362E+00 -3.516186E-01 -6.920394E+01
        18   4  1.051367E+03  2.870704E+01 -8.869987E+01  2.884363E+01  6.223322E-01 -4.945187E+01
        18   5  1.141137E+03  5.367441E+01 -6.527760E+01  3.461873E+01 -3.962193E-01 -5.910117E+01
        18   6  1.220271E+03  7.343910E+01 -4.856317E+01  4.040743E+01 -1.704978E+00 -6.874890E+01
        18   7  1.063119E+03  2.589640E+01 -8.666263E+01  5.157813E+01  1.100128E+00 -4.833566E+01
        18   8  1.152143E+03  5.039751E+01 -6.352414E+01  6.168074E+01 -8.007361E-01 -5.779328E+01
        18   9  1.230837E+03  6.982849E+01 -4.695505E+01  7.180803E+01 -2.991311E+00 -6.724844E+01
        18  10  1.037621E+03  2.670023E+01 -9.288463E+01  7.033942E+00  0.000000E+00  3.502807E-14
        18  11  1.128280E+03  5.225127E+01 -6.888394E+01  8.360421E+00 -2.796772E-13  2.451965E-13
        18  12  1.207990E+03  7.246284E+01 -5.173361E+01  9.688362E+00 -7.013824E-13  4.663112E-13
        18  13  1.051367E+03  2.870704E+01 -8.869987E+01  2.884363E+01  6.786689E-14 -2.101684E-13
        18  14  1.141137E+03  5.367441E+01 -6.527760E+01  3.461873E+01  1.138412E-13  3.152526E-13
        18  15  1.220271E+03  7.343910E+01 -4.856317E+01  4.040743E+01  4.214315E-14  8.494307E-13
        18  16  1.063119E+03  2.589640E+01 -8.666263E+01  5.157813E+01  0.000000E+00 -3.502807E-14
        18  17  1.152143E+03  5.039751E+01 -6.352414E+01  6.168074E+01 -5.473136E-15  1.401123E-13
        18  18  1.230837E+03  6.982849E+01 -4.695505E+01  7.180803E+01  4.876564E-13  7.136969E-13
        18  19  1.037621E+03  2.670023E+01 -9.288463E+01  7.033942E+00 -1.839053E-01  4.952155E+01
        18  20  1.128280E+03  5.225127E+01 -6.888394E+01  8.360421E+00 -6.145435E-02  5.936308E+01
        18  21  1.207990E+03  7.246284E+01 -5.173361E+01  9.688362E+00  3.516186E-01  6.920394E+01
        18  22  1.051367E+03  2.870704E+01 -8.869987E+01  2.884363E+01 -6.223322E-01  4.945187E+01
        18  23  1.141137E+03  5.367441E+01 -6.527760E+01  3.461873E+01  3.962193E-01  5.910117E+01
        18  24  1.220271E+03  7.343910E+01 -4.856317E+01  4.040743E+01  1.704978E+00  6.874890E+01
        18  25  1.063119E+03  2.589640E+01 -8.666263E+01  5.157813E+01 -1.100128E+00  4.833566E+01
        18  26  1.152143E+03  5.039751E+01 -6.352414E+01  6.168074E+01  8.007361E-01  5.779328E+01
        18  27  1.230837E+03  6.982849E+01 -4.695505E+01  7.180803E+01  2.991311E+00  6.724844E+01
        19   1  1.075668E+03  2.508816E+01 -8.356093E+01  6.490781E+01  1.315905E+00 -4.733360E+01
        19   2  1.162558E+03  4.834977E+01 -6.129812E+01  7.731683E+01 -9.453095E-01 -5.654914E+01
        19   3  1.240882E+03  6.730150E+01 -4.481516E+01  9.002616E+01 -3.887715E+00 -6.575845E+01
        19   4  1.103064E+03  2.398261E+01 -7.643684E+01  8.254542E+01  1.594011E+00 -4.506445E+01
        19   5  1.186231E+03  4.470331E+01 -5.567039E+01  9.845179E+01 -1.463567E+00 -5.364530E+01
        19   6  1.261121E+03  6.126810E+01 -4.044995E+01  1.146588E+02 -5.189790E+00 -6.221844E+01
        19   7  1.129061E+03  1.923091E+01 -7.087210E+01  1.018146E+02  1.905548E+00 -4.190640E+01
        19   8  1.208700E+03  3.758010E+01 -5.128852E+01  1.211325E+02 -1.937355E+00 -4.986654E+01
        19   9  1.280341E+03  5.192469E+01 -3.701987E+01  1.407512E+02 -6.436703E+00 -5.781757E+01
        19  10  1.075668E+03  2.508816E+01 -8.356093E+01  6.490781E+01 -1.357338E-13 -5.079070E-13
        19  11  1.162558E+03  4.834977E+01 -6.129812E+01  7.731683E+01 -1.335445E-13  1.751404E-13
        19  12  1.240882E+03  6.730150E+01 -4.481516E+01  9.002616E+01 -1.401123E-13  2.386287E-13
        19  13  1.103064E+03  2.398261E+01 -7.643684E+01  8.254542E+01 -3.283882E-14 -8.406737E-13
        19  14  1.186231E+03  4.470331E+01 -5.567039E+01  9.845179E+01  9.194868E-14  0.000000E+00
        19  15  1.261121E+03  6.126810E+01 -4.044995E+01  1.146588E+02  5.144748E-14  6.567763E-13
        19  16  1.129061E+03  1.923091E+01 -7.087210E+01  1.018146E+02 -8.757018E-15 -8.757018E-13
        19  17  1.208700E+03  3.758010E+01 -5.128852E+01  1.211325E+02  0.000000E+00  5.254211E-14
        19  18  1.280341E+03  5.192469E+01 -3.701987E+01  1.407512E+02  5.215899E-13  3.327667E-13
        19  19  1.075668E+03  2.508816E+01 -8.356093E+01  6.490781E+01 -1.315905E+00  4.733360E+01
        19  20  1.162558E+03  4.834977E+01 -6.129812E+01  7.731683E+01  9.453095E-01  5.654914E+01
        19  21  1.240882E+03  6.730150E+01 -4.481516E+01  9.002616E+01  3.887715E+00  6.575845E+01
        19  22  1.103064E+03  2.398261E+01 -7.643684E+01  8.254542E+01 -1.594011E+00  4.506445E+01
        19  23  1.186231E+03  4.470331E+01 -5.567039E+01  9.845179E+01  1.463567E+00  5.364530E+01
        19  24  1.261121E+03  6.126810E+01 -4.044995E+01  1.146588E+02  5.189790E+00  6.221844E+01
        19  25  1.129061E+03  1.923091E+01 -7.087210E+01  1.018146E+02 -1.905548E+00  4.190640E+01
        19  26  1.208700E+03  3.758010E+01 -5.128852E+01  1.211325E+02  1.937355E+00  4.986654E+01
        19  27  1.280341E+03  5.192469E+01 -3.701987E+01  1.407512E+02  6.436703E+00  5.781757E+01
        20   1  8.072214E+02 -3.225620E+00 -1.572945E+02  9.822655E+00  4.720570E+00 -7.247310E+00
        20   2  9.238634E+02  9.898560E+00 -1.215925E+02  3.294126E+01  4.144904E+00 -2.392666E+01
        20   3  1.022021E+03  1.397718E+01 -9.761303E+01  5.540944E+01  2.500231E+00 -4.059628E+01
        20   4  8.493172E+02 -1.914334E+00 -1.455744E+02  1.148241E+01  6.050179E+00 -7.063261E+00
        20   5  9.596385E+02  1.025405E+01 -1.119576E+02  4.104600E+01  5.107312E+00 -2.277305E+01
        20   6  1.052059E+03  1.368041E+01 -8.964650E+01  6.999077E+01  3.118924E+00 -3.847086E+01
        20   7  8.900814E+02 -3.542152E+00 -1.354552E+02  1.622226E+01  7.381393E+00 -6.455499E+00
        20   8  9.942351E+02  7.705379E+00 -1.037738E+02  5.206134E+01  6.076412E+00 -2.122201E+01
        20   9  1.081057E+03  1.050801E+01 -8.298738E+01  8.731179E+01  3.748727E+00 -3.597443E+01
        20  10  8.072214E+02 -3.225620E+00 -1.572945E+02  9.822655E+00 -4.181476E-13  3.502807E-14
        20  11  9.238634E+02  9.898560E+00 -1.215925E+02  3.294126E+01 -1.466800E-13 -7.005614E-14
        20  12  1.022021E+03  1.397718E+01 -9.761303E+01  5.540944E+01 -4.058330E-13  2.408180E-14
        20  13  8.493172E+02 -1.914334E+00 -1.455744E+02  1.148241E+01  2.627105E-14  0.000000E+00
        20  14  9.596385E+02  1.025405E+01 -1.119576E+02  4.104600E+01  1.609102E-13 -1.401123E-13
        20  15  1.052059E+03  1.368041E+01 -8.964650E+01  6.999077E+01  6.950883E-14  2.627105E-14
        20  16  8.900814E+02 -3.542152E+00 -1.354552E+02  1.622226E+01  4.115798E-13 -2.802246E-13
        20  17  9.942351E+02  7.705379E+00 -1.037738E+02  5.206134E+01  4.126745E-13  1.751404E-14
        20  18  1.081057E+03  1.050801E+01 -8.298738E+01  8.731179E+01  2.249459E-13 -1.291660E-13
        20  19  8.072214E+02 -3.225620E+00 -1.572945E+02  9.822655E+00 -4.720570E+00  7.247310E+00
        20  20  9.238634E+02  9.898560E+00 -1.215925E+02  3.294126E+01 -4.144904E+00  2.392666E+01
        20  21  1.022021E+03  1.397718E+01 -9.761303E+01  5.540944E+01 -2.500231E+00  4.059628E+01
        20  22  8.493172E+02 -1.914334E+00 -1.455744E+02  1.148241E+01 -6.050179E+00  7.063261E+00
        20  23  9.596385E+02  1.025405E+01 -1.119576E+02  4.104600E+01 -5.107312E+00  2.277305E+01
        20  24  1.052059E+03  1.368041E+01 -8.964650E+01  6.999077E+01 -3.118924E+00  3.847086E+01
        20  25  8.900814E+02 -3.542152E+00 -1.354552E+02  1.622226E+01 -7.381393E+00  6.455499E+00
        20  26  9.942351E+02  7.705379E+00 -1.037738E+02  5.206134E+01 -6.076412E+00  2.122201E+01
        20  27  1.081057E+03  1.050801E+01 -8.298738E+01  8.731179E+01 -3.748727E+00  3.597443E+01
        21   1  1.693258E+03  1.363216E+02  3.593281E+01  1.831956E+02 -5.157674E+01 -6.373024E+01
        21   2  1.663614E+03  9.598827E+01  2.904051E+01  1.944162E+02 -5.117634E+01 -5.515656E+01
        21   3  1.632727E+03  5.738749E+01  2.165867E+01  2.072596E+02 -5.079224E+01 -4.653294E+01
        21   4  1.614826E+03  1.213690E+02  2.289831E+01  1.863156E+02 -4.107068E+01 -6.438926E+01
        21   5  1.596796E+03  8.633453E+01  1.841808E+01  1.977393E+02 -4.119202E+01 -5.607130E+01
        21   6  1.578559E+03  5.330538E+01  1.409181E+01  2.103449E+02 -4.132418E+01 -4.770829E+01
        21   7  1.535430E+03  1.064021E+02  9.945985E+00  1.905966E+02 -3.117427E+01 -6.509749E+01
        21   8  1.527001E+03  7.570564E+01  6.959729E+00  2.021115E+02 -3.182457E+01 -5.702224E+01
        21   9  1.519050E+03  4.713621E+01  4.619779E+00  2.143748E+02 -3.248165E+01 -4.890457E+01
        21  10  1.693258E+03  1.363216E+02  3.593281E+01  1.831956E+02  1.401123E-13 -5.604491E-13
        21  11  1.663614E+03  9.598827E+01  2.904051E+01  1.944162E+02  2.977386E-13 -2.451965E-13
        21  12  1.632727E+03  5.738749E+01  2.165867E+01  2.072596E+02 -2.616159E-13 -3.546592E-13
        21  13  1.614826E+03  1.213690E+02  2.289831E+01  1.863156E+02 -7.005614E-14  4.378509E-14
        21  14  1.596796E+03  8.633453E+01  1.841808E+01  1.977393E+02 -2.364395E-13 -1.576263E-13
        21  15  1.578559E+03  5.330538E+01  1.409181E+01  2.103449E+02 -5.735846E-13 -2.014114E-13
        21  16  1.535430E+03  1.064021E+02  9.945985E+00  1.905966E+02 -5.473136E-13  5.604491E-13
        21  17  1.527001E+03  7.570564E+01  6.959729E+00  2.021115E+02 -9.194868E-14  1.663833E-13
        21  18  1.519050E+03  4.713621E+01  4.619779E+00  2.143748E+02  1.127466E-13  8.165919E-13
        21  19  1.693258E+03  1.363216E+02  3.593281E+01  1.831956E+02  5.157674E+01  6.373024E+01
        21  20  1.663614E+03  9.598827E+01  2.904051E+01  1.944162E+02  5.117634E+01  5.515656E+01
        21  21  1.632727E+03  5.738749E+01  2.165867E+01  2.072596E+02  5.079224E+01  4.653294E+01
        21  22  1.614826E+03  1.213690E+02  2.289831E+01  1.863156E+02  4.107068E+01  6.438926E+01
        21  23  1.596796E+03  8.633453E+01  1.841808E+01  1.977393E+02  4.119202E+01  5.607130E+01
        21  24  1.578559E+03  5.330538E+01  1.409181E+01  2.103449E+02  4.132418E+01  4.770829E+01
        21  25  1.535430E+03  1.064021E+02  9.945985E+00  1.905966E+02  3.117427E+01  6.509749E+01
        21  26  1.527001E+03  7.570564E+01  6.959729E+00  2.021115E+02  3.182457E+01  5.702224E+01
        21  27  1.519050E+03  4.713621E+01  4.619779E+00  2.143748E+02  3.248165E+01  4.890457E+01
        22   1  1.619850E+03  3.759432E+01  1.935875E+01  2.112002E+02 -4.948162E+01 -4.155984E+01
        22   2  1.597385E+03  4.607036E+00  1.472616E+01  2.102307E+02 -4.654694E+01 -3.336840E+01
        22   3  1.574687E+03 -2.425437E+01  1.014406E+01  2.104912E+02 -4.348445E+01 -2.556897E+01
        22   4  1.568564E+03  3.468190E+01  1.172911E+01  2.135436E+02 -4.054921E+01 -4.279777E+01
        22   5  1.555121E+03  5.324833E+00  8.931850E+00  2.126349E+02 -3.849868E+01 -3.450098E+01
        22   6  1.542431E+03 -1.984794E+01  6.783922E+00  2.124950E+02 -3.637465E+01 -2.650979E+01
        22   7  1.515895E+03  3.131737E+01  3.836787E+00  2.168348E+02 -3.189786E+01 -4.404057E+01
        22   8  1.509550E+03  4.650550E+00  1.920653E+00  2.158878E+02 -3.066320E+01 -3.563013E+01
        22   9  1.504533E+03 -1.793340E+01  1.081213E+00  2.152621E+02 -2.939264E+01 -2.744342E+01
        22  10  1.619850E+03  3.759432E+01  1.935875E+01  2.112002E+02 -4.378509E-13 -5.779632E-13
        22  11  1.597385E+03  4.607036E+00  1.472616E+01  2.102307E+02  3.240096E-13  7.093184E-13
        22  12  1.574687E+03 -2.425437E+01  1.014406E+01  2.104912E+02  4.958661E-13  7.990779E-13
        22  13  1.568564E+03  3.468190E+01  1.172911E+01  2.135436E+02 -5.254211E-14  2.835084E-13
        22  14  1.555121E+03  5.324833E+00  8.931850E+00  2.126349E+02  2.451965E-13  4.181476E-13
        22  15  1.542431E+03 -1.984794E+01  6.783922E+00  2.124950E+02  3.984443E-13  1.926544E-13
        22  16  1.515895E+03  3.131737E+01  3.836787E+00  2.168348E+02  5.516921E-13  1.085870E-12
        22  17  1.509550E+03  4.650550E+00  1.920653E+00  2.158878E+02  1.007057E-13  1.042085E-12
        22  18  1.504533E+03 -1.793340E+01  1.081213E+00  2.152621E+02 -2.769407E-13 -2.758461E-13
        22  19  1.619850E+03  3.759432E+01  1.935875E+01  2.112002E+02  4.948162E+01  4.155984E+01
        22  20  1.597385E+03  4.607036E+00  1.472616E+01  2.102307E+02  4.654694E+01  3.336840E+01
        22  21  1.574687E+03 -2.425437E+01  1.014406E+01  2.104912E+02  4.348445E+01  2.556897E+01
        22  22  1.568564E+03  3.468190E+01  1.172911E+01  2.135436E+02  4.054921E+01  4.279777E+01
        22  23  1.555121E+03  5.324833E+00  8.931850E+00  2.126349E+02  3.849868E+01  3.450098E+01
        22  24  1.542431E+03 -1.984794E+01  6.783922E+00  2.124950E+02  3.637465E+01  2.650979E+01
        22  25  1.515895E+03  3.131737E+01  3.836787E+00  2.168348E+02  3.189786E+01  4.404057E+01
        22  26  1.509550E+03  4.650550E+00  1.920653E+00  2.158878E+02  3.066320E+01  3.563013E+01
        22  27  1.504533E+03 -1.793340E+01  1.081213E+00  2.152621E+02  2.939264E+01  2.744342E+01
        23   1  1.485272E+03  2.897390E+01 -7.719616E-01  2.146709E+02 -2.724185E+01 -4.368941E+01
        23   2  1.484710E+03  6.403236E+00 -9.411022E-01  2.130573E+02 -2.634614E+01 -3.563340E+01
        23   3  1.483937E+03 -1.502693E+01 -1.224240E+00  2.131263E+02 -2.544813E+01 -2.759527E+01
        23   4  1.433649E+03  2.446792E+01 -8.747297E+00  2.045061E+02 -1.987026E+01 -4.221680E+01
        23   5  1.441832E+03  5.477842E+00 -7.255367E+00  2.040620E+02 -1.951234E+01 -3.450549E+01
        23   6  1.450311E+03 -1.229957E+01 -5.461152E+00  2.050766E+02 -1.915267E+01 -2.683336E+01
        23   7  1.382672E+03  2.018348E+01 -1.674390E+01  1.951180E+02 -1.290516E+01 -4.075102E+01
        23   8  1.398899E+03  4.418540E+00 -1.386477E+01  1.957792E+02 -1.310108E+01 -3.337099E+01
        23   9  1.415779E+03 -1.012326E+01 -1.033045E+01  1.976784E+02 -1.329856E+01 -2.604772E+01
        23  10  1.485272E+03  2.897390E+01 -7.719616E-01  2.146709E+02  1.147169E-12 -8.581877E-13
        23  11  1.484710E+03  6.403236E+00 -9.411022E-01  2.130573E+02  2.276825E-13 -5.779632E-13
        23  12  1.483937E+03 -1.502693E+01 -1.224240E+00  2.131263E+02 -5.210425E-13 -8.757018E-14
        23  13  1.433649E+03  2.446792E+01 -8.747297E+00  2.045061E+02  1.155926E-12 -2.736568E-14
        23  14  1.441832E+03  5.477842E+00 -7.255367E+00  2.040620E+02  2.364395E-13 -1.860866E-13
        23  15  1.450311E+03 -1.229957E+01 -5.461152E+00  2.050766E+02 -4.991500E-13  3.940658E-14
        23  16  1.382672E+03  2.018348E+01 -1.674390E+01  1.951180E+02  8.056456E-13  8.406737E-13
        23  17  1.398899E+03  4.418540E+00 -1.386477E+01  1.957792E+02  2.014114E-13  6.830474E-13
        23  18  1.415779E+03 -1.012326E+01 -1.033045E+01  1.976784E+02 -6.228429E-13  7.268325E-13
        23  19  1.485272E+03  2.897390E+01 -7.719616E-01  2.146709E+02  2.724185E+01  4.368941E+01
        23  20  1.484710E+03  6.403236E+00 -9.411022E-01  2.130573E+02  2.634614E+01  3.563340E+01
        23  21  1.483937E+03 -1.502693E+01 -1.224240E+00  2.131263E+02  2.544813E+01  2.759527E+01
        23  22  1.433649E+03  2.446792E+01 -8.747297E+00  2.045061E+02  1.987026E+01  4.221680E+01
        23  23  1.441832E+03  5.477842E+00 -7.255367E+00  2.040620E+02  1.951234E+01  3.450549E+01
        23  24  1.450311E+03 -1.229957E+01 -5.461152E+00  2.050766E+02  1.915267E+01  2.683336E+01
        23  25  1.382672E+03  2.018348E+01 -1.674390E+01  1.951180E+02  1.290516E+01  4.075102E+01
        23  26  1.398899E+03  4.418540E+00 -1.386477E+01  1.957792E+02  1.310108E+01  3.337099E+01
        23  27  1.415779E+03 -1.012326E+01 -1.033045E+01  1.976784E+02  1.329856E+01  2.604772E+01
        24   1  1.490058E+03  9.602471E+01  2.313127E+00  1.876596E+02 -2.587931E+01 -6.467398E+01
        24   2  1.487778E+03  6.945566E+01  8.398101E-01  1.992094E+02 -2.667538E+01 -5.688019E+01
        24   3  1.485069E+03  4.294829E+01 -7.644404E-01  2.121206E+02 -2.753010E+01 -4.857386E+01
        24   4  1.413905E+03  7.717818E+01 -1.098609E+01  1.747186E+02 -1.788882E+01 -6.124611E+01
        24   5  1.421684E+03  5.651179E+01 -1.024963E+01  1.871807E+02 -1.872107E+01 -5.419098E+01
        24   6  1.429539E+03  3.622939E+01 -9.254671E+00  2.007250E+02 -1.957007E+01 -4.672563E+01
        24   7  1.336913E+03  5.806386E+01 -2.530791E+01  1.631406E+02 -1.064235E+01 -5.787865E+01
        24   8  1.353851E+03  4.288653E+01 -2.258299E+01  1.765223E+02 -1.160893E+01 -5.155129E+01
        24   9  1.371204E+03  2.832963E+01 -1.928529E+01  1.907224E+02 -1.256646E+01 -4.490911E+01
        24  10  1.490058E+03  9.602471E+01  2.313127E+00  1.876596E+02 -2.758461E-13  6.830474E-13
        24  11  1.487778E+03  6.945566E+01  8.398101E-01  1.992094E+02 -2.780353E-13 -1.751404E-14
        24  12  1.485069E+03  4.294829E+01 -7.644404E-01  2.121206E+02  1.171251E-13 -9.326224E-13
        24  13  1.413905E+03  7.717818E+01 -1.098609E+01  1.747186E+02 -5.604491E-13  1.050842E-13
        24  14  1.421684E+03  5.651179E+01 -1.024963E+01  1.871807E+02 -6.480193E-13  3.021171E-13
        24  15  1.429539E+03  3.622939E+01 -9.254671E+00  2.007250E+02 -5.538814E-13  1.247875E-13
        24  16  1.336913E+03  5.806386E+01 -2.530791E+01  1.631406E+02 -2.802246E-13 -5.604491E-13
        24  17  1.353851E+03  4.288653E+01 -2.258299E+01  1.765223E+02 -2.561428E-13  7.093184E-13
        24  18  1.371204E+03  2.832963E+01 -1.928529E+01  1.907224E+02 -3.787410E-13  1.337634E-12
        24  19  1.490058E+03  9.602471E+01  2.313127E+00  1.876596E+02  2.587931E+01  6.467398E+01
        24  20  1.487778E+03  6.945566E+01  8.398101E-01  1.992094E+02  2.667538E+01  5.688019E+01
        24  21  1.485069E+03  4.294829E+01 -7.644404E-01  2.121206E+02  2.753010E+01  4.857386E+01
        24  22  1.413905E+03  7.717818E+01 -1.098609E+01  1.747186E+02  1.788882E+01  6.124611E+01
        24  23  1.421684E+03  5.651179E+01 -1.024963E+01  1.871807E+02  1.872107E+01  5.419098E+01
        24  24  1.429539E+03  3.622939E+01 -9.254671E+00  2.007250E+02  1.957007E+01  4.672563E+01
        24  25  1.336913E+03  5.806386E+01 -2.530791E+01  1.631406E+02  1.064235E+01  5.787865E+01
        24  26  1.353851E+03  4.288653E+01 -2.258299E+01  1.765223E+02  1.160893E+01  5.155129E+01
        24  27  1.371204E+03  2.832963E+01 -1.928529E+01  1.907224E+02  1.256646E+01  4.490911E+01
        25   1  1.393675E+03 -8.304456E+00 -1.332668E+01  1.900643E+02 -9.632857E+00 -2.516158E+01
        25   2  1.351466E+03 -5.963065E+00 -1.992045E+01  1.646800E+02 -3.210427E+00 -2.180742E+01
        25   3  1.309881E+03 -3.679805E+00 -2.717961E+01  1.396024E+02  2.243889E+00 -1.839990E+01
        25   4  1.372159E+03  4.006245E+00 -1.798464E+01  1.868940E+02 -9.306359E+00 -3.207985E+01
        25   5  1.322890E+03  2.759266E+00 -2.640000E+01  1.616259E+02 -3.022317E+00 -2.778266E+01
        25   6  1.274251E+03  1.400707E+00 -3.568448E+01  1.366712E+02  2.278711E+00 -2.343899E+01
        25   7  1.350854E+03  1.601324E+01 -2.252312E+01  1.860115E+02 -8.974607E+00 -3.888059E+01
        25   8  1.294404E+03  1.108967E+01 -3.287710E+01  1.608272E+02 -2.829508E+00 -3.362463E+01
        25   9  1.238594E+03  6.002940E+00 -4.430232E+01  1.359635E+02  2.317390E+00 -2.832944E+01
        25  10  1.393675E+03 -8.304456E+00 -1.332668E+01  1.900643E+02 -2.802246E-13  4.203368E-13
        25  11  1.351466E+03 -5.963065E+00 -1.992045E+01  1.646800E+02  3.896873E-13 -4.378509E-14
        25  12  1.309881E+03 -3.679805E+00 -2.717961E+01  1.396024E+02 -1.948436E-13 -3.787410E-13
        25  13  1.372159E+03  4.006245E+00 -1.798464E+01  1.868940E+02  5.692061E-14  1.401123E-13
        25  14  1.322890E+03  2.759266E+00 -2.640000E+01  1.616259E+02  1.094627E-13 -3.502807E-13
        25  15  1.274251E+03  1.400707E+00 -3.568448E+01  1.366712E+02 -2.189254E-15  2.189254E-14
        25  16  1.350854E+03  1.601324E+01 -2.252312E+01  1.860115E+02  5.779632E-13 -5.779632E-13
        25  17  1.294404E+03  1.108967E+01 -3.287710E+01  1.608272E+02  2.495750E-13 -7.881316E-14
        25  18  1.238594E+03  6.002940E+00 -4.430232E+01  1.359635E+02 -9.851645E-15  3.349559E-13
        25  19  1.393675E+03 -8.304456E+00 -1.332668E+01  1.900643E+02  9.632857E+00  2.516158E+01
        25  20  1.351466E+03 -5.963065E+00 -1.992045E+01  1.646800E+02  3.210427E+00  2.180742E+01
        25  21  1.309881E+03 -3.679805E+00 -2.717961E+01  1.396024E+02 -2.243889E+00  1.839990E+01
        25  22  1.372159E+03  4.006245E+00 -1.798464E+01  1.868940E+02  9.306359E+00  3.207985E+01
        25  23  1.322890E+03  2.759266E+00 -2.640000E+01  1.616259E+02  3.022317E+00  2.778266E+01
        25  24  1.274251E+03  1.400707E+00 -3.568448E+01  1.366712E+02 -2.278711E+00  2.343899E+01
        25  25  1.350854E+03  1.601324E+01 -2.252312E+01  1.860115E+02  8.974607E+00  3.888059E+01
        25  26  1.294404E+03  1.108967E+01 -3.287710E+01  1.608272E+02  2.829508E+00  3.362463E+01
        25  27  1.238594E+03  6.002940E+00 -4.430232E+01  1.359635E+02 -2.317390E+00  2.832944E+01
        26   1  1.286974E+03 -2.461426E+00 -3.145367E+01  1.195346E+02  4.961482E+00 -1.565048E+01
        26   2  1.248926E+03 -1.367109E+00 -3.982760E+01  7.120876E+01  8.351850E+00 -9.180362E+00
        26   3  1.210839E+03 -6.075739E-01 -4.981225E+01  2.175659E+01  1.003973E+01 -2.616285E+00
        26   4  1.245732E+03  6.998870E-01 -4.162008E+01  1.159812E+02  4.945320E+00 -1.997394E+01
        26   5  1.196405E+03  6.185759E-01 -5.297426E+01  6.826286E+01  8.308128E+00 -1.175874E+01
        26   6  1.146999E+03  4.147835E-02 -6.636847E+01  1.939432E+01  9.937930E+00 -3.461683E+00
        26   7  1.204451E+03  3.184203E+00 -5.198405E+01  1.166185E+02  4.929357E+00 -2.428770E+01
        26   8  1.143737E+03  1.946324E+00 -6.636601E+01  6.945497E+01  8.264897E+00 -1.429429E+01
        26   9  1.082907E+03  5.230498E-02 -8.321557E+01  2.111790E+01  9.836321E+00 -4.231887E+00
        26  10  1.286974E+03 -2.461426E+00 -3.145367E+01  1.195346E+02  1.225982E-13 -7.706175E-13
        26  11  1.248926E+03 -1.367109E+00 -3.982760E+01  7.120876E+01 -4.422294E-13  0.000000E+00
        26  12  1.210839E+03 -6.075739E-01 -4.981225E+01  2.175659E+01 -2.714675E-13  1.926544E-13
        26  13  1.245732E+03  6.998870E-01 -4.162008E+01  1.159812E+02  2.846031E-14 -3.853088E-13
        26  14  1.196405E+03  6.185759E-01 -5.297426E+01  6.826286E+01  3.612270E-14 -3.502807E-14
        26  15  1.146999E+03  4.147835E-02 -6.636847E+01  1.939432E+01 -5.609964E-15  4.903930E-13
        26  16  1.204451E+03  3.184203E+00 -5.198405E+01  1.166185E+02  1.313553E-13 -5.254211E-13
        26  17  1.143737E+03  1.946324E+00 -6.636601E+01  6.945497E+01  1.444908E-13 -1.751404E-14
        26  18  1.082907E+03  5.230498E-02 -8.321557E+01  2.111790E+01 -1.423015E-14  4.159583E-13
        26  19  1.286974E+03 -2.461426E+00 -3.145367E+01  1.195346E+02 -4.961482E+00  1.565048E+01
        26  20  1.248926E+03 -1.367109E+00 -3.982760E+01  7.120876E+01 -8.351850E+00  9.180362E+00
        26  21  1.210839E+03 -6.075739E-01 -4.981225E+01  2.175659E+01 -1.003973E+01  2.616285E+00
        26  22  1.245732E+03  6.998870E-01 -4.162008E+01  1.159812E+02 -4.945320E+00  1.997394E+01
        26  23  1.196405E+03  6.185759E-01 -5.297426E+01  6.826286E+01 -8.308128E+00  1.175874E+01
        26  24  1.146999E+03  4.147835E-02 -6.636847E+01  1.939432E+01 -9.937930E+00  3.461683E+00
        26  25  1.204451E+03  3.184203E+00 -5.198405E+01  1.166185E+02 -4.929357E+00  2.428770E+01
        26  26  1.143737E+03  1.946324E+00 -6.636601E+01  6.945497E+01 -8.264897E+00  1.429429E+01
        26  27  1.082907E+03  5.230498E-02 -8.321557E+01  2.111790E+01 -9.836321E+00  4.231887E+00
        27   1  1.179162E+03  4.202484E+00 -5.851841E+01  1.133677E+02  4.823388E+00 -2.669093E+01
        27   2  1.114869E+03  3.399909E+00 -7.343687E+01  6.755711E+01  7.947640E+00 -1.573130E+01
        27   3  1.040724E+03 -2.331758E+00 -9.521996E+01  2.087811E+01  9.580109E+00 -4.720523E+00
        27   4  1.141127E+03  7.803662E+00 -6.761288E+01  1.024009E+02  4.453561E+00 -3.052070E+01
        27   5  1.067105E+03  5.926204E+00 -8.513480E+01  6.021491E+01  7.385406E+00 -1.804250E+01
        27   6  9.830245E+02 -1.090217E+00 -1.099467E+02  1.711867E+01  8.801476E+00 -5.525147E+00
        27   7  1.102539E+03  9.636144E+00 -7.747260E+01  9.525686E+01  4.087553E+00 -3.415927E+01
        27   8  1.018668E+03  6.680987E+00 -9.769416E+01  5.670793E+01  6.825630E+00 -2.013579E+01
        27   9  9.245290E+02 -1.624512E+00 -1.256315E+02  1.720569E+01  8.023444E+00 -6.085838E+00
        27  10  1.179162E+03  4.202484E+00 -5.851841E+01  1.133677E+02 -2.889816E-13 -5.429351E-13
        27  11  1.114869E+03  3.399909E+00 -7.343687E+01  6.755711E+01  1.379230E-13 -1.138412E-13
        27  12  1.040724E+03 -2.331758E+00 -9.521996E+01  2.087811E+01  5.757739E-13  1.050842E-13
        27  13  1.141127E+03  7.803662E+00 -6.761288E+01  1.024009E+02 -2.298717E-14 -1.401123E-13
        27  14  1.067105E+03  5.926204E+00 -8.513480E+01  6.021491E+01 -1.149359E-13 -3.502807E-13
        27  15  9.830245E+02 -1.090217E+00 -1.099467E+02  1.711867E+01 -2.873396E-15  4.378509E-14
        27  16  1.102539E+03  9.636144E+00 -7.747260E+01  9.525686E+01 -4.159583E-13 -4.203368E-13
        27  17  1.018668E+03  6.680987E+00 -9.769416E+01  5.670793E+01 -3.896873E-13 -1.926544E-13
        27  18  9.245290E+02 -1.624512E+00 -1.256315E+02  1.720569E+01 -5.062651E-13 -3.568485E-13
        27  19  1.179162E+03  4.202484E+00 -5.851841E+01  1.133677E+02 -4.823388E+00  2.669093E+01
        27  20  1.114869E+03  3.399909E+00 -7.343687E+01  6.755711E+01 -7.947640E+00  1.573130E+01
        27  21  1.040724E+03 -2.331758E+00 -9.521996E+01  2.087811E+01 -9.580109E+00  4.720523E+00
        27  22  1.141127E+03  7.803662E+00 -6.761288E+01  1.024009E+02 -4.453561E+00  3.052070E+01
        27  23  1.067105E+03  5.926204E+00 -8.513480E+01  6.021491E+01 -7.385406E+00  1.804250E+01
        27  24  9.830245E+02 -1.090217E+00 -1.099467E+02  1.711867E+01 -8.801476E+00  5.525147E+00
        27  25  1.102539E+03  9.636144E+00 -7.747260E+01  9.525686E+01 -4.087553E+00  3.415927E+01
        27  26  1.018668E+03  6.680987E+00 -9.769416E+01  5.670793E+01 -6.825630E+00  2.013579E+01
        27  27  9.245290E+02 -1.624512E+00 -1.256315E+02  1.720569E+01 -8.023444E+00  6.085838E+00
        28   1  1.336911E+03  2.280787E+01 -2.562329E+01  1.813977E+02 -8.787006E+00 -4.275821E+01
        28   2  1.278414E+03  1.658023E+01 -3.624148E+01  1.565500E+02 -2.794338E+00 -3.697245E+01
        28   3  1.215656E+03  8.052012E+00 -5.014393E+01  1.321578E+02  2.314880E+00 -3.115616E+01
        28   4  1.315460E+03  3.552724E+01 -2.970307E+01  1.663005E+02 -7.931154E+00 -4.904666E+01
        28   5  1.251199E+03  2.588076E+01 -4.190116E+01  1.432702E+02 -2.446781E+00 -4.239965E+01
        28   6  1.182587E+03  1.385125E+01 -5.759613E+01  1.206912E+02  2.146641E+00 -3.572945E+01
        28   7  1.293527E+03  4.633890E+01 -3.423657E+01  1.531391E+02 -7.051502E+00 -5.480634E+01
        28   8  1.223354E+03  3.315433E+01 -4.823202E+01  1.319327E+02 -2.080304E+00 -4.728983E+01
        28   9  1.148741E+03  1.750539E+01 -6.593615E+01  1.111729E+02  1.992416E+00 -3.975781E+01
        28  10  1.336911E+03  2.280787E+01 -2.562329E+01  1.813977E+02 -5.516921E-13 -3.502807E-13
        28  11  1.278414E+03  1.658023E+01 -3.624148E+01  1.565500E+02 -2.714675E-13  1.751404E-14
        28  12  1.215656E+03  8.052012E+00 -5.014393E+01  1.321578E+02 -1.390177E-13  4.531757E-13
        28  13  1.315460E+03  3.552724E+01 -2.970307E+01  1.663005E+02 -1.357338E-13  0.000000E+00
        28  14  1.251199E+03  2.588076E+01 -4.190116E+01  1.432702E+02 -2.408180E-13 -1.751404E-13
        28  15  1.182587E+03  1.385125E+01 -5.759613E+01  1.206912E+02 -1.247875E-13 -2.627105E-14
        28  16  1.293527E+03  4.633890E+01 -3.423657E+01  1.531391E+02  2.889816E-13  4.203368E-13
        28  17  1.223354E+03  3.315433E+01 -4.823202E+01  1.319327E+02 -1.444908E-13  3.502807E-14
        28  18  1.148741E+03  1.750539E+01 -6.593615E+01  1.111729E+02  3.469968E-13 -4.006336E-13
        28  19  1.336911E+03  2.280787E+01 -2.562329E+01  1.813977E+02  8.787006E+00  4.275821E+01
        28  20  1.278414E+03  1.658023E+01 -3.624148E+01  1.565500E+02  2.794338E+00  3.697245E+01
        28  21  1.215656E+03  8.052012E+00 -5.014393E+01  1.321578E+02 -2.314880E+00  3.115616E+01
        28  22  1.315460E+03  3.552724E+01 -2.970307E+01  1.663005E+02  7.931154E+00  4.904666E+01
        28  23  1.251199E+03  2.588076E+01 -4.190116E+01  1.432702E+02  2.446781E+00  4.239965E+01
        28  24  1.182587E+03  1.385125E+01 -5.759613E+01  1.206912E+02 -2.146641E+00  3.572945E+01
        28  25  1.293527E+03  4.633890E+01 -3.423657E+01  1.531391E+02  7.051502E+00  5.480634E+01
        28  26  1.223354E+03  3.315433E+01 -4.823202E+01  1.319327E+02  2.080304E+00  4.728983E+01
        28  27  1.148741E+03  1.750539E+01 -6.593615E+01  1.111729E+02 -1.992416E+00  3.975781E+01
        29   1  1.797440E+02 -3.906267E+02 -1.125178E+02 -2.228377E+02  5.533965E+01  7.973880E+01
        29   2  1.116466E+02 -4.022879E+02 -1.204556E+02 -1.792323E+02  6.362885E+01  6.544909E+01
        29   3  5.793847E+01 -4.091251E+02 -1.259978E+02 -1.371043E+02  7.060216E+01  5.109606E+01
        29   4  2.184177E+02 -3.172645E+02 -8.979561E+01 -2.296784E+02  5.859086E+01  7.205608E+01
        29   5  1.524366E+02 -3.237527E+02 -9.727645E+01 -1.853571E+02  6.612147E+01  5.896212E+01
        29   6  1.012164E+02 -3.251599E+02 -1.018731E+02 -1.425248E+02  7.232005E+01  4.580431E+01
        29   7  2.500449E+02 -2.597875E+02 -7.464837E+01 -2.367622E+02  6.186209E+01  6.502159E+01
        29   8  1.862952E+02 -2.609598E+02 -8.142754E+01 -1.917467E+02  6.863040E+01  5.313732E+01
        29   9  1.376805E+02 -2.567921E+02 -8.483265E+01 -1.482320E+02  7.405033E+01  4.118872E+01
        29  10  1.797440E+02 -3.906267E+02 -1.125178E+02 -2.228377E+02 -3.152526E-13 -1.871813E-13
        29  11  1.116466E+02 -4.022879E+02 -1.204556E+02 -1.792323E+02 -2.101684E-13 -1.915598E-14
        29  12  5.793847E+01 -4.091251E+02 -1.259978E+02 -1.371043E+02 -1.225982E-13  1.647414E-13
        29  13  2.184177E+02 -3.172645E+02 -8.979561E+01 -2.296784E+02 -4.788994E-14 -1.225982E-13
        29  14  1.524366E+02 -3.237527E+02 -9.727645E+01 -1.853571E+02 -2.646261E-13 -2.189254E-14
        29  15  1.012164E+02 -3.251599E+02 -1.018731E+02 -1.425248E+02  3.229150E-14  6.896151E-14
        29  16  2.500449E+02 -2.597875E+02 -7.464837E+01 -2.367622E+02  7.005614E-14  8.866480E-14
        29  17  1.862952E+02 -2.609598E+02 -8.142754E+01 -1.917467E+02  1.751404E-14 -8.209704E-15
        29  18  1.376805E+02 -2.567921E+02 -8.483265E+01 -1.482320E+02  4.816360E-14  1.299870E-14
        29  19  1.797440E+02 -3.906267E+02 -1.125178E+02 -2.228377E+02 -5.533965E+01 -7.973880E+01
        29  20  1.116466E+02 -4.022879E+02 -1.204556E+02 -1.792323E+02 -6.362885E+01 -6.544909E+01
        29  21  5.793847E+01 -4.091251E+02 -1.259978E+02 -1.371043E+02 -7.060216E+01 -5.109606E+01
        29  22  2.184177E+02 -3.172645E+02 -8.979561E+01 -2.296784E+02 -5.859086E+01 -7.205608E+01
        29  23  1.524366E+02 -3.237527E+02 -9.727645E+01 -1.853571E+02 -6.612147E+01 -5.896212E+01
        29  24  1.012164E+02 -3.251599E+02 -1.018731E+02 -1.425248E+02 -7.232005E+01 -4.580431E+01
        29  25  2.500449E+02 -2.597875E+02 -7.464837E+01 -2.367622E+02 -6.186209E+01 -6.502159E+01
        29  26  1.862952E+02 -2.609598E+02 -8.142754E+01 -1.917467E+02 -6.863040E+01 -5.313732E+01
        29  27  1.376805E+02 -2.567921E+02 -8.483265E+01 -1.482320E+02 -7.405033E+01 -4.118872E+01
        30   1  3.066673E+01 -4.201754E+02 -1.317781E+02 -1.080099E+02  7.383027E+01  4.105473E+01
        30   2  2.928867E+00 -4.238386E+02 -1.346570E+02 -6.147011E+01  7.763881E+01  2.330083E+01
        30   3 -8.383030E+00 -4.218573E+02 -1.350282E+02 -1.495631E+01  7.958520E+01  5.457590E+00
        30   4  7.812966E+01 -3.262899E+02 -1.040894E+02 -1.133718E+02  7.523205E+01  3.692617E+01
        30   5  5.087027E+01 -3.283621E+02 -1.071368E+02 -6.432494E+01  7.870717E+01  2.087929E+01
        30   6  4.050702E+01 -3.244502E+02 -1.070178E+02 -1.529576E+01  8.029790E+01  4.742268E+00
        30   7  1.156037E+02 -2.554901E+02 -8.661366E+01 -1.188192E+02  7.663796E+01  3.307852E+01
        30   8  8.886099E+01 -2.559349E+02 -8.973303E+01 -6.728045E+01  7.977801E+01  1.875798E+01
        30   9  7.948717E+01 -2.500547E+02 -8.902606E+01 -1.575159E+01  8.101116E+01  4.346567E+00
        30  10  3.066673E+01 -4.201754E+02 -1.317781E+02 -1.080099E+02 -8.757018E-14  1.313553E-13
        30  11  2.928867E+00 -4.238386E+02 -1.346570E+02 -6.147011E+01 -1.050842E-13  2.189254E-15
        30  12 -8.383030E+00 -4.218573E+02 -1.350282E+02 -1.495631E+01 -2.517643E-13 -1.289608E-13
        30  13  7.812966E+01 -3.262899E+02 -1.040894E+02 -1.133718E+02 -9.441160E-15  1.751404E-13
        30  14  5.087027E+01 -3.283621E+02 -1.071368E+02 -6.432494E+01  1.122677E-13  2.517643E-14
        30  15  4.050702E+01 -3.244502E+02 -1.070178E+02 -1.529576E+01  1.773980E-13 -1.446276E-13
        30  16  1.156037E+02 -2.554901E+02 -8.661366E+01 -1.188192E+02  1.050842E-13  1.942963E-13
        30  17  8.886099E+01 -2.559349E+02 -8.973303E+01 -6.728045E+01  9.632719E-14  1.258821E-14
        30  18  7.948717E+01 -2.500547E+02 -8.902606E+01 -1.575159E+01  1.904651E-13 -1.772612E-13
        30  19  3.066673E+01 -4.201754E+02 -1.317781E+02 -1.080099E+02 -7.383027E+01 -4.105473E+01
        30  20  2.928867E+00 -4.238386E+02 -1.346570E+02 -6.147011E+01 -7.763881E+01 -2.330083E+01
        30  21 -8.383030E+00 -4.218573E+02 -1.350282E+02 -1.495631E+01 -7.958520E+01 -5.457590E+00
        30  22  7.812966E+01 -3.262899E+02 -1.040894E+02 -1.133718E+02 -7.523205E+01 -3.692617E+01
        30  23  5.087027E+01 -3.283621E+02 -1.071368E+02 -6.432494E+01 -7.870717E+01 -2.087929E+01
        30  24  4.050702E+01 -3.244502E+02 -1.070178E+02 -1.529576E+01 -8.029790E+01 -4.742268E+00
        30  25  1.156037E+02 -2.554901E+02 -8.661366E+01 -1.188192E+02 -7.663796E+01 -3.307852E+01
        30  26  8.886099E+01 -2.559349E+02 -8.973303E+01 -6.728045E+01 -7.977801E+01 -1.875798E+01
        30  27  7.948717E+01 -2.500547E+02 -8.902606E+01 -1.575159E+01 -8.101116E+01 -4.346567E+00
        31   1  1.421443E+02 -2.192220E+02 -7.659998E+01 -1.179442E+02  7.636375E+01  3.104556E+01
        31   2  1.170352E+02 -2.187261E+02 -7.931562E+01 -6.692997E+01  7.908835E+01  1.759292E+01
        31   3  1.084622E+02 -2.121343E+02 -7.831213E+01 -1.551105E+01  8.042395E+01  4.074215E+00
        31   4  1.870964E+02 -1.634796E+02 -6.134553E+01 -1.149409E+02  7.481779E+01  2.789998E+01
        31   5  1.631413E+02 -1.626485E+02 -6.417763E+01 -6.512287E+01  7.728962E+01  1.574014E+01
        31   6  1.561263E+02 -1.554452E+02 -6.277579E+01 -1.489385E+01  7.835563E+01  3.514068E+00
        31   7  2.272616E+02 -1.191026E+02 -5.063827E+01 -1.123343E+02  7.327499E+01  2.497203E+01
        31   8  2.044927E+02 -1.179157E+02 -5.351488E+01 -6.374864E+01  7.549280E+01  1.411989E+01
        31   9  1.990706E+02 -1.100793E+02 -5.164166E+01 -1.474556E+01  7.628777E+01  3.201358E+00
        31  10  1.421443E+02 -2.192220E+02 -7.659998E+01 -1.179442E+02  3.502807E-13  1.666570E-13
        31  11  1.170352E+02 -2.187261E+02 -7.931562E+01 -6.692997E+01  2.627105E-13  3.092322E-14
        31  12  1.084622E+02 -2.121343E+02 -7.831213E+01 -1.551105E+01  2.977386E-13 -1.446276E-13
        31  13  1.870964E+02 -1.634796E+02 -6.134553E+01 -1.149409E+02  4.077486E-14  6.020450E-14
        31  14  1.631413E+02 -1.626485E+02 -6.417763E+01 -6.512287E+01  3.104636E-13  0.000000E+00
        31  15  1.561263E+02 -1.554452E+02 -6.277579E+01 -1.489385E+01 -7.039821E-14 -7.005614E-14
        31  16  2.272616E+02 -1.191026E+02 -5.063827E+01 -1.123343E+02 -2.451965E-13 -4.351143E-14
        31  17  2.044927E+02 -1.179157E+02 -5.351488E+01 -6.374864E+01 -5.254211E-14  4.652166E-15
        31  18  1.990706E+02 -1.100793E+02 -5.164166E+01 -1.474556E+01 -1.795189E-13 -4.310095E-15
        31  19  1.421443E+02 -2.192220E+02 -7.659998E+01 -1.179442E+02 -7.636375E+01 -3.104556E+01
        31  20  1.170352E+02 -2.187261E+02 -7.931562E+01 -6.692997E+01 -7.908835E+01 -1.759292E+01
        31  21  1.084622E+02 -2.121343E+02 -7.831213E+01 -1.551105E+01 -8.042395E+01 -4.074215E+00
        31  22  1.870964E+02 -1.634796E+02 -6.134553E+01 -1.149409E+02 -7.481779E+01 -2.789998E+01
        31  23  1.631413E+02 -1.626485E+02 -6.417763E+01 -6.512287E+01 -7.728962E+01 -1.574014E+01
        31  24  1.561263E+02 -1.554452E+02 -6.277579E+01 -1.489385E+01 -7.835563E+01 -3.514068E+00
        31  25  2.272616E+02 -1.191026E+02 -5.063827E+01 -1.123343E+02 -7.327499E+01 -2.497203E+01
        31  26  2.044927E+02 -1.179157E+02 -5.351488E+01 -6.374864E+01 -7.549280E+01 -1.411989E+01
        31  27  1.990706E+02 -1.100793E+02 -5.164166E+01 -1.474556E+01 -7.628777E+01 -3.201358E+00
        32   1  2.696451E+02 -2.294186E+02 -6.667210E+01 -2.348482E+02  6.247955E+01  6.122420E+01
        32   2  2.095132E+02 -2.278148E+02 -7.236212E+01 -1.909636E+02  6.875873E+01  4.996888E+01
        32   3  1.633048E+02 -2.211298E+02 -7.496242E+01 -1.470597E+02  7.399130E+01  3.866380E+01
        32   4  3.032832E+02 -1.805438E+02 -5.401732E+01 -2.281960E+02  6.250278E+01  5.520090E+01
        32   5  2.474758E+02 -1.768006E+02 -5.907121E+01 -1.855396E+02  6.813407E+01  4.490837E+01
        32   6  2.059205E+02 -1.677566E+02 -6.063243E+01 -1.428628E+02  7.270568E+01  3.456604E+01
        32   7  3.329379E+02 -1.406979E+02 -4.530773E+01 -2.227839E+02  6.254324E+01  4.974252E+01
        32   8  2.815556E+02 -1.347273E+02 -4.952764E+01 -1.813887E+02  6.752347E+01  4.042439E+01
        32   9  2.447566E+02 -1.232352E+02 -4.985081E+01 -1.399718E+02  7.143076E+01  3.105644E+01
        32  10  2.696451E+02 -2.294186E+02 -6.667210E+01 -2.348482E+02 -2.451965E-13  0.000000E+00
        32  11  2.095132E+02 -2.278148E+02 -7.236212E+01 -1.909636E+02  0.000000E+00 -5.144748E-14
        32  12  1.633048E+02 -2.211298E+02 -7.496242E+01 -1.470597E+02  1.882759E-13 -1.696672E-14
        32  13  3.032832E+02 -1.805438E+02 -5.401732E+01 -2.281960E+02  5.692061E-14 -3.305774E-13
        32  14  2.474758E+02 -1.768006E+02 -5.907121E+01 -1.855396E+02 -2.353448E-14 -1.423015E-13
        32  15  2.059205E+02 -1.677566E+02 -6.063243E+01 -1.428628E+02 -9.851645E-15  1.368284E-15
        32  16  3.329379E+02 -1.406979E+02 -4.530773E+01 -2.227839E+02  1.401123E-13 -3.251043E-13
        32  17  2.815556E+02 -1.347273E+02 -4.952764E+01 -1.813887E+02  2.802246E-13 -6.020450E-14
        32  18  2.447566E+02 -1.232352E+02 -4.985081E+01 -1.399718E+02 -1.357338E-13  2.809087E-13
        32  19  2.696451E+02 -2.294186E+02 -6.667210E+01 -2.348482E+02 -6.247955E+01 -6.122420E+01
        32  20  2.095132E+02 -2.278148E+02 -7.236212E+01 -1.909636E+02 -6.875873E+01 -4.996888E+01
        32  21  1.633048E+02 -2.211298E+02 -7.496242E+01 -1.470597E+02 -7.399130E+01 -3.866380E+01
        32  22  3.032832E+02 -1.805438E+02 -5.401732E+01 -2.281960E+02 -6.250278E+01 -5.520090E+01
        32  23  2.474758E+02 -1.768006E+02 -5.907121E+01 -1.855396E+02 -6.813407E+01 -4.490837E+01
        32  24  2.059205E+02 -1.677566E+02 -6.063243E+01 -1.428628E+02 -7.270568E+01 -3.456604E+01
        32  25  3.329379E+02 -1.406979E+02 -4.530773E+01 -2.227839E+02 -6.254324E+01 -4.974252E+01
        32  26  2.815556E+02 -1.347273E+02 -4.952764E+01 -1.813887E+02 -6.752347E+01 -4.042439E+01
        32  27  2.447566E+02 -1.232352E+02 -4.985081E+01 -1.399718E+02 -7.143076E+01 -3.105644E+01
        33   1  1.092524E+03 -2.539838E+02 -1.045038E+01 -2.704166E+02 -5.608884E+00  7.503760E+01
        33   2  1.093197E+03 -2.835489E+02 -1.391583E+01 -2.747785E+02 -1.133678E+01  8.128179E+01
        33   3  1.096776E+03 -3.125621E+02 -1.719602E+01 -2.818497E+02 -1.736944E+01  8.834135E+01
        33   4  1.019017E+03 -2.494300E+02 -1.367513E+01 -2.924204E+02 -4.722909E-02  7.714927E+01
        33   5  1.014678E+03 -2.768557E+02 -1.717057E+01 -2.974455E+02 -4.726065E+00  8.328747E+01
        33   6  1.013012E+03 -3.046107E+02 -2.053963E+01 -3.052696E+02 -9.756530E+00  9.041506E+01
        33   7  9.450347E+02 -2.444739E+02 -1.667692E+01 -3.134837E+02  5.726632E+00  7.930074E+01
        33   8  9.349600E+02 -2.701344E+02 -2.075583E+01 -3.195858E+02  2.260857E+00  8.540211E+01
        33   9  9.272199E+02 -2.972304E+02 -2.486650E+01 -3.286129E+02 -1.606122E+00  9.270576E+01
        33  10  1.092524E+03 -2.539838E+02 -1.045038E+01 -2.704166E+02 -3.502807E-13  1.401123E-13
        33  11  1.093197E+03 -2.835489E+02 -1.391583E+01 -2.747785E+02 -5.254211E-14 -1.423015E-13
        33  12  1.096776E+03 -3.125621E+02 -1.719602E+01 -2.818497E+02  4.728789E-13 -2.638052E-13
        33  13  1.019017E+03 -2.494300E+02 -1.367513E+01 -2.924204E+02 -7.005614E-14 -3.502807E-14
        33  14  1.014678E+03 -2.768557E+02 -1.717057E+01 -2.974455E+02 -2.802246E-13  4.378509E-14
        33  15  1.013012E+03 -3.046107E+02 -2.053963E+01 -3.052696E+02  5.254211E-14 -2.955493E-14
        33  16  9.450347E+02 -2.444739E+02 -1.667692E+01 -3.134837E+02  3.502807E-14 -1.401123E-13
        33  17  9.349600E+02 -2.701344E+02 -2.075583E+01 -3.195858E+02 -1.313553E-13  2.167362E-13
        33  18  9.272199E+02 -2.972304E+02 -2.486650E+01 -3.286129E+02 -3.809303E-13  2.982859E-13
        33  19  1.092524E+03 -2.539838E+02 -1.045038E+01 -2.704166E+02  5.608884E+00 -7.503760E+01
        33  20  1.093197E+03 -2.835489E+02 -1.391583E+01 -2.747785E+02  1.133678E+01 -8.128179E+01
        33  21  1.096776E+03 -3.125621E+02 -1.719602E+01 -2.818497E+02  1.736944E+01 -8.834135E+01
        33  22  1.019017E+03 -2.494300E+02 -1.367513E+01 -2.924204E+02  4.722909E-02 -7.714927E+01
        33  23  1.014678E+03 -2.768557E+02 -1.717057E+01 -2.974455E+02  4.726065E+00 -8.328747E+01
        33  24  1.013012E+03 -3.046107E+02 -2.053963E+01 -3.052696E+02  9.756530E+00 -9.041506E+01
        33  25  9.450347E+02 -2.444739E+02 -1.667692E+01 -3.134837E+02 -5.726632E+00 -7.930074E+01
        33  26  9.349600E+02 -2.701344E+02 -2.075583E+01 -3.195858E+02 -2.260857E+00 -8.540211E+01
        33  27  9.272199E+02 -2.972304E+02 -2.486650E+01 -3.286129E+02  1.606122E+00 -9.270576E+01
        34   1  1.095730E+03 -3.263424E+02 -1.947448E+01 -2.863754E+02 -2.126733E+01  9.298832E+01
        34   2  1.090914E+03 -3.394578E+02 -2.241146E+01 -2.913906E+02 -3.166924E+01  1.008040E+02
        34   3  1.088456E+03 -3.517287E+02 -2.626589E+01 -2.989162E+02 -4.252629E+01  1.098389E+02
        34   4  1.002265E+03 -3.212674E+02 -2.580844E+01 -3.093572E+02 -1.270969E+01  9.496973E+01
        34   5  9.888141E+02 -3.392148E+02 -3.105242E+01 -3.103488E+02 -2.124869E+01  1.023023E+02
        34   6  9.765584E+02 -3.584602E+02 -3.769756E+01 -3.133421E+02 -3.032692E+01  1.111525E+02
        34   7  9.216120E+02 -3.113262E+02 -2.725238E+01 -3.308867E+02 -4.594254E+00  9.674085E+01
        34   8  8.990973E+02 -3.355424E+02 -3.585981E+01 -3.277988E+02 -1.100431E+01  1.036927E+02
        34   9  8.762913E+02 -3.637840E+02 -4.662499E+01 -3.260904E+02 -1.804387E+01  1.125306E+02
        34  10  1.095730E+03 -3.263424E+02 -1.947448E+01 -2.863754E+02 -2.451965E-13 -2.889816E-13
        34  11  1.090914E+03 -3.394578E+02 -2.241146E+01 -2.913906E+02 -7.005614E-14  1.313553E-13
        34  12  1.088456E+03 -3.517287E+02 -2.626589E+01 -2.989162E+02  5.692061E-14  4.816360E-14
        34  13  1.002265E+03 -3.212674E+02 -2.580844E+01 -3.093572E+02 -3.502807E-14  3.502807E-14
        34  14  9.888141E+02 -3.392148E+02 -3.105242E+01 -3.103488E+02  2.101684E-13  5.692061E-14
        34  15  9.765584E+02 -3.584602E+02 -3.769756E+01 -3.133421E+02  3.152526E-13  1.116520E-13
        34  16  9.216120E+02 -3.113262E+02 -2.725238E+01 -3.308867E+02  0.000000E+00  4.203368E-13
        34  17  8.990973E+02 -3.355424E+02 -3.585981E+01 -3.277988E+02 -1.313553E-13  2.298717E-13
        34  18  8.762913E+02 -3.637840E+02 -4.662499E+01 -3.260904E+02  4.378509E-15  1.466800E-13
        34  19  1.095730E+03 -3.263424E+02 -1.947448E+01 -2.863754E+02  2.126733E+01 -9.298832E+01
        34  20  1.090914E+03 -3.394578E+02 -2.241146E+01 -2.913906E+02  3.166924E+01 -1.008040E+02
        34  21  1.088456E+03 -3.517287E+02 -2.626589E+01 -2.989162E+02  4.252629E+01 -1.098389E+02
        34  22  1.002265E+03 -3.212674E+02 -2.580844E+01 -3.093572E+02  1.270969E+01 -9.496973E+01
        34  23  9.888141E+02 -3.392148E+02 -3.105242E+01 -3.103488E+02  2.124869E+01 -1.023023E+02
        34  24  9.765584E+02 -3.584602E+02 -3.769756E+01 -3.133421E+02  3.032692E+01 -1.111525E+02
        34  25  9.216120E+02 -3.113262E+02 -2.725238E+01 -3.308867E+02  4.594254E+00 -9.674085E+01
        34  26  8.990973E+02 -3.355424E+02 -3.585981E+01 -3.277988E+02  1.100431E+01 -1.036927E+02
        34  27  8.762913E+02 -3.637840E+02 -4.662499E+01 -3.260904E+02  1.804387E+01 -1.125306E+02
        35   1  8.690141E+02 -3.054716E+02 -3.002973E+01 -3.369083E+02  8.652491E-01  9.623435E+01
        35   2  8.509334E+02 -3.273485E+02 -3.604978E+01 -3.385962E+02 -4.838900E+00  1.037855E+02
        35   3  8.332501E+02 -3.509743E+02 -4.313188E+01 -3.415893E+02 -1.076219E+01  1.120234E+02
        35   4  7.735970E+02 -2.941866E+02 -3.698660E+01 -3.430737E+02  1.086169E+01  9.425606E+01
        35   5  7.533758E+02 -3.155343E+02 -4.284067E+01 -3.427088E+02  6.456342E+00  1.006960E+02
        35   6  7.318596E+02 -3.414812E+02 -5.091848E+01 -3.429499E+02  1.813157E+00  1.079577E+02
        35   7  6.933941E+02 -2.750026E+02 -3.834177E+01 -3.458580E+02  1.986044E+01  9.180318E+01
        35   8  6.718323E+02 -2.967311E+02 -4.459505E+01 -3.434714E+02  1.692539E+01  9.709984E+01
        35   9  6.468031E+02 -3.268498E+02 -5.466003E+01 -3.407797E+02  1.373896E+01  1.033923E+02
        35  10  8.690141E+02 -3.054716E+02 -3.002973E+01 -3.369083E+02  0.000000E+00  0.000000E+00
        35  11  8.509334E+02 -3.273485E+02 -3.604978E+01 -3.385962E+02  1.751404E-14  6.348838E-14
        35  12  8.332501E+02 -3.509743E+02 -4.313188E+01 -3.415893E+02  4.816360E-14 -1.102837E-13
        35  13  7.735970E+02 -2.941866E+02 -3.698660E+01 -3.430737E+02  2.802246E-13  5.254211E-14
        35  14  7.533758E+02 -3.155343E+02 -4.284067E+01 -3.427088E+02 -1.751404E-13 -3.940658E-14
        35  15  7.318596E+02 -3.414812E+02 -5.091848E+01 -3.429499E+02  0.000000E+00 -9.851645E-14
        35  16  6.933941E+02 -2.750026E+02 -3.834177E+01 -3.458580E+02  1.663833E-13 -2.189254E-15
        35  17  6.718323E+02 -2.967311E+02 -4.459505E+01 -3.434714E+02  4.816360E-14 -5.910987E-14
        35  18  6.468031E+02 -3.268498E+02 -5.466003E+01 -3.407797E+02 -1.751404E-13 -6.212009E-14
        35  19  8.690141E+02 -3.054716E+02 -3.002973E+01 -3.369083E+02 -8.652491E-01 -9.623435E+01
        35  20  8.509334E+02 -3.273485E+02 -3.604978E+01 -3.385962E+02  4.838900E+00 -1.037855E+02
        35  21  8.332501E+02 -3.509743E+02 -4.313188E+01 -3.415893E+02  1.076219E+01 -1.120234E+02
        35  22  7.735970E+02 -2.941866E+02 -3.698660E+01 -3.430737E+02 -1.086169E+01 -9.425606E+01
        35  23  7.533758E+02 -3.155343E+02 -4.284067E+01 -3.427088E+02 -6.456342E+00 -1.006960E+02
        35  24  7.318596E+02 -3.414812E+02 -5.091848E+01 -3.429499E+02 -1.813157E+00 -1.079577E+02
        35  25  6.933941E+02 -2.750026E+02 -3.834177E+01 -3.458580E+02 -1.986044E+01 -9.180318E+01
        35  26  6.718323E+02 -2.967311E+02 -4.459505E+01 -3.434714E+02 -1.692539E+01 -9.709984E+01
        35  27  6.468031E+02 -3.268498E+02 -5.466003E+01 -3.407797E+02 -1.373896E+01 -1.033923E+02
        36   1  8.997962E+02 -2.380699E+02 -1.793096E+01 -3.223319E+02  9.586831E+00  7.986135E+01
        36   2  8.857297E+02 -2.649537E+02 -2.332347E+01 -3.275534E+02  6.673446E+00  8.586100E+01
        36   3  8.726898E+02 -2.921566E+02 -2.870270E+01 -3.340455E+02  3.621044E+00  9.229648E+01
        36   4  8.151503E+02 -2.268692E+02 -2.241130E+01 -3.286895E+02  1.698232E+01  7.913552E+01
        36   5  8.003937E+02 -2.512062E+02 -2.704418E+01 -3.334164E+02  1.473044E+01  8.456258E+01
        36   6  7.858677E+02 -2.771654E+02 -3.221634E+01 -3.391399E+02  1.233436E+01  9.048751E+01
        36   7  7.339324E+02 -2.137913E+02 -2.577947E+01 -3.338018E+02  2.422449E+01  7.838114E+01
        36   8  7.190927E+02 -2.355108E+02 -2.975407E+01 -3.383508E+02  2.271460E+01  8.324328E+01
        36   9  7.034963E+02 -2.605210E+02 -3.498753E+01 -3.435639E+02  2.105862E+01  8.868326E+01
        36  10  8.997962E+02 -2.380699E+02 -1.793096E+01 -3.223319E+02 -7.005614E-14 -3.502807E-13
        36  11  8.857297E+02 -2.649537E+02 -2.332347E+01 -3.275534E+02  1.576263E-13 -7.224539E-14
        36  12  8.726898E+02 -2.921566E+02 -2.870270E+01 -3.340455E+02  1.532478E-13 -8.237070E-14
        36  13  8.151503E+02 -2.268692E+02 -2.241130E+01 -3.286895E+02 -3.502807E-14 -2.189254E-14
        36  14  8.003937E+02 -2.512062E+02 -2.704418E+01 -3.334164E+02  1.050842E-13  5.254211E-14
        36  15  7.858677E+02 -2.771654E+02 -3.221634E+01 -3.391399E+02  1.751404E-13  4.925822E-14
        36  16  7.339324E+02 -2.137913E+02 -2.577947E+01 -3.338018E+02 -3.108741E-13  1.379230E-13
        36  17  7.190927E+02 -2.355108E+02 -2.975407E+01 -3.383508E+02 -5.692061E-14  3.469968E-13
        36  18  7.034963E+02 -2.605210E+02 -3.498753E+01 -3.435639E+02  1.576263E-13  9.140137E-14
        36  19  8.997962E+02 -2.380699E+02 -1.793096E+01 -3.223319E+02 -9.586831E+00 -7.986135E+01
        36  20  8.857297E+02 -2.649537E+02 -2.332347E+01 -3.275534E+02 -6.673446E+00 -8.586100E+01
        36  21  8.726898E+02 -2.921566E+02 -2.870270E+01 -3.340455E+02 -3.621044E+00 -9.229648E+01
        36  22  8.151503E+02 -2.268692E+02 -2.241130E+01 -3.286895E+02 -1.698232E+01 -7.913552E+01
        36  23  8.003937E+02 -2.512062E+02 -2.704418E+01 -3.334164E+02 -1.473044E+01 -8.456258E+01
        36  24  7.858677E+02 -2.771654E+02 -3.221634E+01 -3.391399E+02 -1.233436E+01 -9.048751E+01
        36  25  7.339324E+02 -2.137913E+02 -2.577947E+01 -3.338018E+02 -2.422449E+01 -7.838114E+01
        36  26  7.190927E+02 -2.355108E+02 -2.975407E+01 -3.383508E+02 -2.271460E+01 -8.324328E+01
        36  27  7.034963E+02 -2.605210E+02 -3.498753E+01 -3.435639E+02 -2.105862E+01 -8.868326E+01
        37   1  1.163100E+03 -3.498883E+02 -2.638719E+01 -2.712265E+02 -5.605205E+01  1.078561E+02
        37   2  1.318476E+03 -3.201308E+02 -7.994481E+00 -2.040365E+02 -6.324557E+01  9.144034E+01
        37   3  1.436181E+03 -3.051189E+02 -4.796751E-01 -1.397799E+02 -6.666169E+01  7.588540E+01
        37   4  1.195687E+03 -3.324902E+02 -2.506034E+01 -2.632786E+02 -6.955489E+01  1.095634E+02
        37   5  1.349082E+03 -3.040245E+02 -6.041915E+00 -1.995415E+02 -7.594801E+01  9.252987E+01
        37   6  1.463693E+03 -2.906867E+02  1.311167E+00 -1.389863E+02 -7.845091E+01  7.654614E+01
        37   7  1.233515E+03 -2.993069E+02 -2.011401E+01 -2.588499E+02 -8.309308E+01  1.106665E+02
        37   8  1.386256E+03 -2.730000E+02 -1.898772E-01 -1.988136E+02 -8.857462E+01  9.292114E+01
        37   9  1.498719E+03 -2.621152E+02  7.193630E+00 -1.422301E+02 -9.004278E+01  7.647068E+01
        37  10  1.163100E+03 -3.498883E+02 -2.638719E+01 -2.712265E+02 -2.802246E-13 -7.881316E-14
        37  11  1.318476E+03 -3.201308E+02 -7.994481E+00 -2.040365E+02 -5.079070E-13 -4.378509E-14
        37  12  1.436181E+03 -3.051189E+02 -4.796751E-01 -1.397799E+02 -4.816360E-14 -9.851645E-15
        37  13  1.195687E+03 -3.324902E+02 -2.506034E+01 -2.632786E+02  9.851645E-14  7.005614E-14
        37  14  1.349082E+03 -3.040245E+02 -6.041915E+00 -1.995415E+02 -7.443465E-14 -4.378509E-14
        37  15  1.463693E+03 -2.906867E+02  1.311167E+00 -1.389863E+02  4.378509E-14 -3.218204E-13
        37  16  1.233515E+03 -2.993069E+02 -2.011401E+01 -2.588499E+02  0.000000E+00  3.152526E-13
        37  17  1.386256E+03 -2.730000E+02 -1.898772E-01 -1.988136E+02  3.327667E-13  0.000000E+00
        37  18  1.498719E+03 -2.621152E+02  7.193630E+00 -1.422301E+02  2.451965E-13 -3.579431E-13
        37  19  1.163100E+03 -3.498883E+02 -2.638719E+01 -2.712265E+02  5.605205E+01 -1.078561E+02
        37  20  1.318476E+03 -3.201308E+02 -7.994481E+00 -2.040365E+02  6.324557E+01 -9.144034E+01
        37  21  1.436181E+03 -3.051189E+02 -4.796751E-01 -1.397799E+02  6.666169E+01 -7.588540E+01
        37  22  1.195687E+03 -3.324902E+02 -2.506034E+01 -2.632786E+02  6.955489E+01 -1.095634E+02
        37  23  1.349082E+03 -3.040245E+02 -6.041915E+00 -1.995415E+02  7.594801E+01 -9.252987E+01
        37  24  1.463693E+03 -2.906867E+02  1.311167E+00 -1.389863E+02  7.845091E+01 -7.654614E+01
        37  25  1.233515E+03 -2.993069E+02 -2.011401E+01 -2.588499E+02  8.309308E+01 -1.106665E+02
        37  26  1.386256E+03 -2.730000E+02 -1.898772E-01 -1.988136E+02  8.857462E+01 -9.292114E+01
        37  27  1.498719E+03 -2.621152E+02  7.193630E+00 -1.422301E+02  9.004278E+01 -7.647068E+01
        38   1  1.480677E+03 -2.879062E+02  1.673440E+00 -9.041479E+01 -6.628025E+01  6.494777E+01
        38   2  1.542680E+03 -2.435741E+02  1.002281E+01 -2.009259E+01 -6.349158E+01  4.906628E+01
        38   3  1.567645E+03 -2.138910E+02  8.284465E+00  4.676975E+01 -5.779111E+01  3.384842E+01
        38   4  1.508713E+03 -2.752486E+02  3.645624E+00 -9.113850E+01 -7.790311E+01  6.536959E+01
        38   5  1.574739E+03 -2.329175E+02  1.326644E+01 -2.174341E+01 -7.524197E+01  4.872970E+01
        38   6  1.601932E+03 -2.058142E+02  1.178132E+01  4.409039E+01 -6.953397E+01  3.291194E+01
        38   7  1.548121E+03 -2.475182E+02  1.114436E+01 -9.882570E+01 -8.961074E+01  6.602869E+01
        38   8  1.618561E+03 -2.087180E+02  2.154495E+01 -2.975490E+01 -8.702047E+01  4.844913E+01
        38   9  1.648006E+03 -1.856326E+02  1.973847E+01  3.556299E+01 -8.122887E+01  3.190209E+01
        38  10  1.480677E+03 -2.879062E+02  1.673440E+00 -9.041479E+01 -1.050842E-13 -7.881316E-14
        38  11  1.542680E+03 -2.435741E+02  1.002281E+01 -2.009259E+01  3.502807E-14 -5.692061E-14
        38  12  1.567645E+03 -2.138910E+02  8.284465E+00  4.676975E+01 -3.393344E-13  3.185365E-13
        38  13  1.508713E+03 -2.752486E+02  3.645624E+00 -9.113850E+01  2.802246E-13 -5.254211E-13
        38  14  1.574739E+03 -2.329175E+02  1.326644E+01 -2.174341E+01 -5.254211E-14  1.576263E-13
        38  15  1.601932E+03 -2.058142E+02  1.178132E+01  4.409039E+01 -2.451965E-13  4.991500E-13
        38  16  1.548121E+03 -2.475182E+02  1.114436E+01 -9.882570E+01  3.152526E-13 -6.830474E-13
        38  17  1.618561E+03 -2.087180E+02  2.154495E+01 -2.975490E+01  2.802246E-13  0.000000E+00
        38  18  1.648006E+03 -1.856326E+02  1.973847E+01  3.556299E+01  1.488693E-13  5.527867E-13
        38  19  1.480677E+03 -2.879062E+02  1.673440E+00 -9.041479E+01  6.628025E+01 -6.494777E+01
        38  20  1.542680E+03 -2.435741E+02  1.002281E+01 -2.009259E+01  6.349158E+01 -4.906628E+01
        38  21  1.567645E+03 -2.138910E+02  8.284465E+00  4.676975E+01  5.779111E+01 -3.384842E+01
        38  22  1.508713E+03 -2.752486E+02  3.645624E+00 -9.113850E+01  7.790311E+01 -6.536959E+01
        38  23  1.574739E+03 -2.329175E+02  1.326644E+01 -2.174341E+01  7.524197E+01 -4.872970E+01
        38  24  1.601932E+03 -2.058142E+02  1.178132E+01  4.409039E+01  6.953397E+01 -3.291194E+01
        38  25  1.548121E+03 -2.475182E+02  1.114436E+01 -9.882570E+01  8.961074E+01 -6.602869E+01
        38  26  1.618561E+03 -2.087180E+02  2.154495E+01 -2.975490E+01  8.702047E+01 -4.844913E+01
        38  27  1.648006E+03 -1.856326E+02  1.973847E+01  3.556299E+01  8.122887E+01 -3.190209E+01
        39   1  1.571995E+03 -2.240107E+02  1.683484E+01 -1.052558E+02 -9.745665E+01  6.572312E+01
        39   2  1.636140E+03 -1.910465E+02  2.389989E+01 -3.795541E+01 -9.391557E+01  4.818170E+01
        39   3  1.672578E+03 -1.687641E+02  2.399157E+01  2.594589E+01 -8.835117E+01  3.136852E+01
        39   4  1.608851E+03 -1.789304E+02  2.446184E+01 -1.270710E+02 -1.106974E+02  6.437831E+01
        39   5  1.678812E+03 -1.488980E+02  3.290553E+01 -6.300714E+01 -1.074585E+02  4.682186E+01
        39   6  1.721554E+03 -1.288406E+02  3.413846E+01 -2.373913E+00 -1.022651E+02  3.012654E+01
        39   7  1.667520E+03 -1.042544E+02  4.463266E+01 -1.614031E+02 -1.238678E+02  6.283708E+01
        39   8  1.744879E+03 -8.003296E+01  5.389182E+01 -1.001513E+02 -1.208995E+02  4.526121E+01
        39   9  1.795459E+03 -6.437519E+01  5.589979E+01 -4.243623E+01 -1.160681E+02  2.871428E+01
        39  10  1.571995E+03 -2.240107E+02  1.683484E+01 -1.052558E+02  1.576263E-13 -6.918044E-13
        39  11  1.636140E+03 -1.910465E+02  2.389989E+01 -3.795541E+01 -3.064956E-13 -6.129912E-14
        39  12  1.672578E+03 -1.687641E+02  2.399157E+01  2.594589E+01 -2.627105E-13  5.538814E-13
        39  13  1.608851E+03 -1.789304E+02  2.446184E+01 -1.270710E+02  8.757018E-14 -1.751404E-13
        39  14  1.678812E+03 -1.488980E+02  3.290553E+01 -6.300714E+01 -1.401123E-13 -2.101684E-13
        39  15  1.721554E+03 -1.288406E+02  3.413846E+01 -2.373913E+00 -1.576263E-13  2.189254E-13
        39  16  1.667520E+03 -1.042544E+02  4.463266E+01 -1.614031E+02 -1.576263E-13  3.240096E-13
        39  17  1.744879E+03 -8.003296E+01  5.389182E+01 -1.001513E+02 -1.663833E-13 -7.005614E-14
        39  18  1.795459E+03 -6.437519E+01  5.589979E+01 -4.243623E+01 -2.189254E-14 -4.925822E-13
        39  19  1.571995E+03 -2.240107E+02  1.683484E+01 -1.052558E+02  9.745665E+01 -6.572312E+01
        39  20  1.636140E+03 -1.910465E+02  2.389989E+01 -3.795541E+01  9.391557E+01 -4.818170E+01
        39  21  1.672578E+03 -1.687641E+02  2.399157E+01  2.594589E+01  8.835117E+01 -3.136852E+01
        39  22  1.608851E+03 -1.789304E+02  2.446184E+01 -1.270710E+02  1.106974E+02 -6.437831E+01
        39  23  1.678812E+03 -1.488980E+02  3.290553E+01 -6.300714E+01  1.074585E+02 -4.682186E+01
        39  24  1.721554E+03 -1.288406E+02  3.413846E+01 -2.373913E+00  1.022651E+02 -3.012654E+01
        39  25  1.667520E+03 -1.042544E+02  4.463266E+01 -1.614031E+02  1.238678E+02 -6.283708E+01
        39  26  1.744879E+03 -8.003296E+01  5.389182E+01 -1.001513E+02  1.208995E+02 -4.526121E+01
        39  27  1.795459E+03 -6.437519E+01  5.589979E+01 -4.243623E+01  1.160681E+02 -2.871428E+01
        40   1  1.265460E+03 -2.700765E+02 -1.254575E+01 -2.587807E+02 -9.161228E+01  1.104333E+02
        40   2  1.408497E+03 -2.483793E+02  4.191909E+00 -2.013679E+02 -9.613788E+01  9.269714E+01
        40   3  1.523433E+03 -2.368207E+02  1.334658E+01 -1.465060E+02 -9.798927E+01  7.592399E+01
        40   4  1.307097E+03 -2.198198E+02 -5.784073E+00 -2.674765E+02 -1.061171E+02  1.087964E+02
        40   5  1.445506E+03 -2.014668E+02  1.053244E+01 -2.150818E+02 -1.100257E+02  9.137526E+01
        40   6  1.557832E+03 -1.920208E+02  1.961638E+01 -1.653382E+02 -1.114281E+02  7.505844E+01
        40   7  1.358160E+03 -1.429546E+02  8.940701E+00 -2.819088E+02 -1.207109E+02  1.056483E+02
        40   8  1.493835E+03 -1.304525E+02  2.466074E+01 -2.357727E+02 -1.237799E+02  8.881969E+01
        40   9  1.605844E+03 -1.246207E+02  3.392004E+01 -1.921782E+02 -1.246084E+02  7.322808E+01
        40  10  1.265460E+03 -2.700765E+02 -1.254575E+01 -2.587807E+02  3.502807E-14  2.189254E-13
        40  11  1.408497E+03 -2.483793E+02  4.191909E+00 -2.013679E+02  1.401123E-13  2.627105E-14
        40  12  1.523433E+03 -2.368207E+02  1.334658E+01 -1.465060E+02 -3.064956E-14 -1.554371E-13
        40  13  1.307097E+03 -2.198198E+02 -5.784073E+00 -2.674765E+02  7.881316E-14 -1.751404E-14
        40  14  1.445506E+03 -2.014668E+02  1.053244E+01 -2.150818E+02  7.005614E-14  1.225982E-13
        40  15  1.557832E+03 -1.920208E+02  1.961638E+01 -1.653382E+02  2.627105E-14  1.488693E-13
        40  16  1.358160E+03 -1.429546E+02  8.940701E+00 -2.819088E+02  1.751404E-13  3.590377E-13
        40  17  1.493835E+03 -1.304525E+02  2.466074E+01 -2.357727E+02  1.751404E-13  5.254211E-14
        40  18  1.605844E+03 -1.246207E+02  3.392004E+01 -1.921782E+02 -1.269768E-13  8.997836E-13
        40  19  1.265460E+03 -2.700765E+02 -1.254575E+01 -2.587807E+02  9.161228E+01 -1.104333E+02
        40  20  1.408497E+03 -2.483793E+02  4.191909E+00 -2.013679E+02  9.613788E+01 -9.269714E+01
        40  21  1.523433E+03 -2.368207E+02  1.334658E+01 -1.465060E+02  9.798927E+01 -7.592399E+01
        40  22  1.307097E+03 -2.198198E+02 -5.784073E+00 -2.674765E+02  1.061171E+02 -1.087964E+02
        40  23  1.445506E+03 -2.014668E+02  1.053244E+01 -2.150818E+02  1.100257E+02 -9.137526E+01
        40  24  1.557832E+03 -1.920208E+02  1.961638E+01 -1.653382E+02  1.114281E+02 -7.505844E+01
        40  25  1.358160E+03 -1.429546E+02  8.940701E+00 -2.819088E+02  1.207109E+02 -1.056483E+02
        40  26  1.493835E+03 -1.304525E+02  2.466074E+01 -2.357727E+02  1.237799E+02 -8.881969E+01
        40  27  1.605844E+03 -1.246207E+02  3.392004E+01 -1.921782E+02  1.246084E+02 -7.322808E+01
        41   1  1.833848E+03 -2.258756E+01  6.885782E+01 -7.845989E+01 -1.236551E+02  2.926078E+01
        41   2  1.892115E+03  3.981407E+01  8.779134E+01 -1.775160E+02 -1.359588E+02  3.303678E+01
        41   3  1.997343E+03  1.426395E+02  1.314352E+02 -2.946831E+02 -1.485153E+02  3.708436E+01
        41   4  1.761776E+03 -4.540577E+01  5.970907E+01 -1.357848E+02 -1.279823E+02  4.630127E+01
        41   5  1.773497E+03  1.493671E+01  6.909077E+01 -2.288756E+02 -1.396356E+02  5.175917E+01
        41   6  1.846461E+03  1.257427E+02  1.110977E+02 -3.443768E+02 -1.517609E+02  5.767662E+01
        41   7  1.702044E+03 -6.134271E+01  5.954338E+01 -1.909384E+02 -1.313058E+02  6.399074E+01
        41   8  1.656430E+03 -2.539869E+00  5.642632E+01 -2.787078E+02 -1.421726E+02  7.144316E+01
        41   9  1.691132E+03  1.191079E+02  9.598890E+01 -3.941714E+02 -1.538016E+02  7.955099E+01
        41  10  1.833848E+03 -2.258756E+01  6.885782E+01 -7.845989E+01  5.429351E-13 -5.604491E-13
        41  11  1.892115E+03  3.981407E+01  8.779134E+01 -1.775160E+02 -1.401123E-13  7.005614E-14
        41  12  1.997343E+03  1.426395E+02  1.314352E+02 -2.946831E+02 -3.940658E-13  4.860145E-13
        41  13  1.761776E+03 -4.540577E+01  5.970907E+01 -1.357848E+02  5.604491E-13  1.401123E-13
        41  14  1.773497E+03  1.493671E+01  6.909077E+01 -2.288756E+02  8.757018E-14  2.276825E-13
        41  15  1.846461E+03  1.257427E+02  1.110977E+02 -3.443768E+02 -6.567763E-14  4.816360E-14
        41  16  1.702044E+03 -6.134271E+01  5.954338E+01 -1.909384E+02 -4.028228E-13  8.231596E-13
        41  17  1.656430E+03 -2.539869E+00  5.642632E+01 -2.787078E+02 -6.129912E-14  4.290939E-13
        41  18  1.691132E+03  1.191079E+02  9.598890E+01 -3.941714E+02 -1.576263E-13 -3.721732E-13
        41  19  1.833848E+03 -2.258756E+01  6.885782E+01 -7.845989E+01  1.236551E+02 -2.926078E+01
        41  20  1.892115E+03  3.981407E+01  8.779134E+01 -1.775160E+02  1.359588E+02 -3.303678E+01
        41  21  1.997343E+03  1.426395E+02  1.314352E+02 -2.946831E+02  1.485153E+02 -3.708436E+01
        41  22  1.761776E+03 -4.540577E+01  5.970907E+01 -1.357848E+02  1.279823E+02 -4.630127E+01
        41  23  1.773497E+03  1.493671E+01  6.909077E+01 -2.288756E+02  1.396356E+02 -5.175917E+01
        41  24  1.846461E+03  1.257427E+02  1.110977E+02 -3.443768E+02  1.517609E+02 -5.767662E+01
        41  25  1.702044E+03 -6.134271E+01  5.954338E+01 -1.909384E+02  1.313058E+02 -6.399074E+01
        41  26  1.656430E+03 -2.539869E+00  5.642632E+01 -2.787078E+02  1.421726E+02 -7.144316E+01
        41  27  1.691132E+03  1.191079E+02  9.598890E+01 -3.941714E+02  1.538016E+02 -7.955099E+01
        42   1  2.045959E+03  2.196031E+02  1.575208E+02 -3.915763E+02 -1.545325E+02  4.046111E+01
        42   2  2.160024E+03  2.935425E+02  1.945263E+02 -6.428568E+02 -1.586221E+02  5.163679E+01
        42   3  2.380603E+03  4.641393E+02  2.935412E+02 -9.350638E+02 -1.623081E+02  6.237557E+01
        42   4  1.839850E+03  2.027941E+02  1.242045E+02 -4.366883E+02 -1.584378E+02  6.204116E+01
        42   5  1.851652E+03  3.018143E+02  1.440913E+02 -6.565761E+02 -1.648262E+02  7.395620E+01
        42   6  1.974391E+03  5.128524E+02  2.316741E+02 -9.208832E+02 -1.701601E+02  8.482690E+01
        42   7  1.681564E+03  1.863636E+02  1.089442E+02 -4.647434E+02 -1.600595E+02  8.578699E+01
        42   8  1.563144E+03  3.089467E+02  1.031182E+02 -6.401615E+02 -1.686153E+02  9.720557E+01
        42   9  1.556294E+03  5.486392E+02  1.664562E+02 -8.620721E+02 -1.754563E+02  1.071418E+02
        42  10  2.045959E+03  2.196031E+02  1.575208E+02 -3.915763E+02 -4.028228E-13 -4.028228E-13
        42  11  2.160024E+03  2.935425E+02  1.945263E+02 -6.428568E+02 -4.028228E-13 -1.488693E-13
        42  12  2.380603E+03  4.641393E+02  2.935412E+02 -9.350638E+02  1.057410E-12  2.627105E-14
        42  13  1.839850E+03  2.027941E+02  1.242045E+02 -4.366883E+02 -3.152526E-13  1.401123E-13
        42  14  1.851652E+03  3.018143E+02  1.440913E+02 -6.565761E+02 -5.254211E-13  1.751404E-14
        42  15  1.974391E+03  5.128524E+02  2.316741E+02 -9.208832E+02 -2.057899E-13 -7.005614E-14
        42  16  1.681564E+03  1.863636E+02  1.089442E+02 -4.647434E+02  2.977386E-13  7.005614E-13
        42  17  1.563144E+03  3.089467E+02  1.031182E+02 -6.401615E+02 -5.429351E-13  6.830474E-13
        42  18  1.556294E+03  5.486392E+02  1.664562E+02 -8.620721E+02 -1.451476E-12 -6.567763E-14
        42  19  2.045959E+03  2.196031E+02  1.575208E+02 -3.915763E+02  1.545325E+02 -4.046111E+01
        42  20  2.160024E+03  2.935425E+02  1.945263E+02 -6.428568E+02  1.586221E+02 -5.163679E+01
        42  21  2.380603E+03  4.641393E+02  2.935412E+02 -9.350638E+02  1.623081E+02 -6.237557E+01
        42  22  1.839850E+03  2.027941E+02  1.242045E+02 -4.366883E+02  1.584378E+02 -6.204116E+01
        42  23  1.851652E+03  3.018143E+02  1.440913E+02 -6.565761E+02  1.648262E+02 -7.395620E+01
        42  24  1.974391E+03  5.128524E+02  2.316741E+02 -9.208832E+02  1.701601E+02 -8.482690E+01
        42  25  1.681564E+03  1.863636E+02  1.089442E+02 -4.647434E+02  1.600595E+02 -8.578699E+01
        42  26  1.563144E+03  3.089467E+02  1.031182E+02 -6.401615E+02  1.686153E+02 -9.720557E+01
        42  27  1.556294E+03  5.486392E+02  1.664562E+02 -8.620721E+02  1.754563E+02 -1.071418E+02
        43   1  1.545426E+03  1.692959E+02  8.615521E+01 -4.622536E+02 -1.590513E+02  9.852030E+01
        43   2  1.411261E+03  3.325728E+02  9.155647E+01 -6.225047E+02 -1.676084E+02  1.091059E+02
        43   3  1.289543E+03  5.263065E+02  1.103599E+02 -7.936749E+02 -1.757643E+02  1.193779E+02
        43   4  1.272210E+03  1.437931E+02  3.793910E+01 -4.520333E+02 -1.526836E+02  1.166315E+02
        43   5  1.101188E+03  3.008949E+02  3.657043E+01 -5.518599E+02 -1.607492E+02  1.268990E+02
        43   6  9.150714E+02  4.738514E+02  3.610850E+01 -6.587346E+02 -1.683046E+02  1.368395E+02
        43   7  1.060592E+03  1.045435E+02  6.001951E+00 -4.321586E+02 -1.465582E+02  1.340407E+02
        43   8  8.484948E+02  2.516253E+02 -4.984122E+00 -4.591854E+02 -1.530669E+02  1.434293E+02
        43   9  5.960685E+02  3.989389E+02 -2.717304E+01 -4.908402E+02 -1.590604E+02  1.525569E+02
        43  10  1.545426E+03  1.692959E+02  8.615521E+01 -4.622536E+02  1.383609E-12  1.068356E-12
        43  11  1.411261E+03  3.325728E+02  9.155647E+01 -6.225047E+02 -1.225982E-13 -1.225982E-13
        43  12  1.289543E+03  5.263065E+02  1.103599E+02 -7.936749E+02 -7.093184E-13 -1.180008E-12
        43  13  1.272210E+03  1.437931E+02  3.793910E+01 -4.520333E+02  6.305053E-13  8.056456E-13
        43  14  1.101188E+03  3.008949E+02  3.657043E+01 -5.518599E+02  4.553649E-13  1.751404E-13
        43  15  9.150714E+02  4.738514E+02  3.610850E+01 -6.587346E+02 -3.415237E-13 -4.641219E-13
        43  16  1.060592E+03  1.045435E+02  6.001951E+00 -4.321586E+02  8.231596E-13  4.203368E-13
        43  17  8.484948E+02  2.516253E+02 -4.984122E+00 -4.591854E+02  0.000000E+00  1.751404E-14
        43  18  5.960685E+02  3.989389E+02 -2.717304E+01 -4.908402E+02  1.576263E-13 -7.662390E-14
        43  19  1.545426E+03  1.692959E+02  8.615521E+01 -4.622536E+02  1.590513E+02 -9.852030E+01
        43  20  1.411261E+03  3.325728E+02  9.155647E+01 -6.225047E+02  1.676084E+02 -1.091059E+02
        43  21  1.289543E+03  5.263065E+02  1.103599E+02 -7.936749E+02  1.757643E+02 -1.193779E+02
        43  22  1.272210E+03  1.437931E+02  3.793910E+01 -4.520333E+02  1.526836E+02 -1.166315E+02
        43  23  1.101188E+03  3.008949E+02  3.657043E+01 -5.518599E+02  1.607492E+02 -1.268990E+02
        43  24  9.150714E+02  4.738514E+02  3.610850E+01 -6.587346E+02  1.683046E+02 -1.368395E+02
        43  25  1.060592E+03  1.045435E+02  6.001951E+00 -4.321586E+02  1.465582E+02 -1.340407E+02
        43  26  8.484948E+02  2.516253E+02 -4.984122E+00 -4.591854E+02  1.530669E+02 -1.434293E+02
        43  27  5.960685E+02  3.989389E+02 -2.717304E+01 -4.908402E+02  1.590604E+02 -1.525569E+02
        44   1  1.649481E+03 -7.034414E+01  5.567645E+01 -2.229325E+02 -1.320225E+02  7.468662E+01
        44   2  1.599123E+03  1.980318E+00  5.825917E+01 -3.099477E+02 -1.428798E+02  8.346712E+01
        44   3  1.551135E+03  8.763747E+01  6.558865E+01 -4.015256E+02 -1.538136E+02  9.230775E+01
        44   4  1.485633E+03 -9.664897E+01  2.575663E+01 -2.661060E+02 -1.295161E+02  9.092189E+01
        44   5  1.408331E+03 -2.651017E+01  2.478626E+01 -3.319168E+02 -1.387737E+02  1.002827E+02
        44   6  1.338964E+03  6.068333E+01  3.177749E+01 -4.051118E+02 -1.483660E+02  1.098609E+02
        44   7  1.369459E+03 -1.062414E+02  1.756449E+01 -3.030655E+02 -1.272843E+02  1.069841E+02
        44   8  1.255181E+03 -3.903634E+01  9.649042E+00 -3.464490E+02 -1.345584E+02  1.171796E+02
        44   9  1.157175E+03  4.977504E+01  1.398946E+01 -4.008265E+02 -1.425433E+02  1.277396E+02
        44  10  1.649481E+03 -7.034414E+01  5.567645E+01 -2.229325E+02  5.954772E-13  7.005614E-13
        44  11  1.599123E+03  1.980318E+00  5.825917E+01 -3.099477E+02 -3.502807E-14 -3.502807E-14
        44  12  1.551135E+03  8.763747E+01  6.558865E+01 -4.015256E+02 -3.108741E-13 -7.760907E-13
        44  13  1.485633E+03 -9.664897E+01  2.575663E+01 -2.661060E+02  2.802246E-13  1.401123E-13
        44  14  1.408331E+03 -2.651017E+01  2.478626E+01 -3.319168E+02 -2.802246E-13 -2.977386E-13
        44  15  1.338964E+03  6.068333E+01  3.177749E+01 -4.051118E+02 -9.895430E-13 -3.853088E-13
        44  16  1.369459E+03 -1.062414E+02  1.756449E+01 -3.030655E+02  3.853088E-13  3.502807E-14
        44  17  1.255181E+03 -3.903634E+01  9.649042E+00 -3.464490E+02  1.225982E-13 -2.451965E-13
        44  18  1.157175E+03  4.977504E+01  1.398946E+01 -4.008265E+02 -6.611548E-13  1.893705E-13
        44  19  1.649481E+03 -7.034414E+01  5.567645E+01 -2.229325E+02  1.320225E+02 -7.468662E+01
        44  20  1.599123E+03  1.980318E+00  5.825917E+01 -3.099477E+02  1.428798E+02 -8.346712E+01
        44  21  1.551135E+03  8.763747E+01  6.558865E+01 -4.015256E+02  1.538136E+02 -9.230775E+01
        44  22  1.485633E+03 -9.664897E+01  2.575663E+01 -2.661060E+02  1.295161E+02 -9.092189E+01
        44  23  1.408331E+03 -2.651017E+01  2.478626E+01 -3.319168E+02  1.387737E+02 -1.002827E+02
        44  24  1.338964E+03  6.068333E+01  3.177749E+01 -4.051118E+02  1.483660E+02 -1.098609E+02
        44  25  1.369459E+03 -1.062414E+02  1.756449E+01 -3.030655E+02  1.272843E+02 -1.069841E+02
        44  26  1.255181E+03 -3.903634E+01  9.649042E+00 -3.464490E+02  1.345584E+02 -1.171796E+02
        44  27  1.157175E+03  4.977504E+01  1.398946E+01 -4.008265E+02  1.425433E+02 -1.277396E+02
        45   1  2.771014E+03  3.507643E+02  3.396004E+02 -9.348376E+02 -1.460304E+02  4.549353E+01
        45   2  2.770102E+03  3.439114E+02  3.190117E+02 -6.320505E+02 -1.322802E+02  1.244201E+01
        45   3  2.693308E+03  2.686769E+02  2.633111E+02 -3.689788E+02 -1.161911E+02 -1.963950E+01
        45   4  3.151021E+03  2.608146E+02  3.918911E+02 -8.277966E+02 -1.229116E+02  2.651001E+01
        45   5  2.986975E+03  2.872414E+02  3.401104E+02 -5.478370E+02 -1.093199E+02 -4.671770E+00
        45   6  2.794064E+03  2.704211E+02  2.738799E+02 -3.018184E+02 -9.587535E+01 -3.590549E+01
        45   7  3.465206E+03  1.812337E+02  4.344507E+02 -6.755822E+02 -9.810820E+01  7.829109E+00
        45   8  3.196507E+03  2.568120E+02  3.728130E+02 -4.227497E+02 -8.519903E+01 -2.044766E+01
        45   9  2.932130E+03  3.141678E+02  3.132059E+02 -1.969660E+02 -7.462586E+01 -4.936857E+01
        45  10  2.771014E+03  3.507643E+02  3.396004E+02 -9.348376E+02 -1.935301E-12 -3.082470E-12
        45  11  2.770102E+03  3.439114E+02  3.190117E+02 -6.320505E+02 -1.401123E-12 -9.545149E-13
        45  12  2.693308E+03  2.686769E+02  2.633111E+02 -3.689788E+02  2.123577E-13  5.254211E-13
        45  13  3.151021E+03  2.608146E+02  3.918911E+02 -8.277966E+02 -7.706175E-13 -1.436151E-12
        45  14  2.986975E+03  2.872414E+02  3.401104E+02 -5.478370E+02 -4.903930E-13 -5.254211E-13
        45  15  2.794064E+03  2.704211E+02  2.738799E+02 -3.018184E+02 -4.816360E-14  3.240096E-13
        45  16  3.465206E+03  1.812337E+02  4.344507E+02 -6.755822E+02  1.129655E-12  1.401123E-13
        45  17  3.196507E+03  2.568120E+02  3.728130E+02 -4.227497E+02  8.757018E-15 -6.129912E-14
        45  18  2.932130E+03  3.141678E+02  3.132059E+02 -1.969660E+02  3.831195E-13 -2.539535E-13
        45  19  2.771014E+03  3.507643E+02  3.396004E+02 -9.348376E+02  1.460304E+02 -4.549353E+01
        45  20  2.770102E+03  3.439114E+02  3.190117E+02 -6.320505E+02  1.322802E+02 -1.244201E+01
        45  21  2.693308E+03  2.686769E+02  2.633111E+02 -3.689788E+02  1.161911E+02  1.963950E+01
        45  22  3.151021E+03  2.608146E+02  3.918911E+02 -8.277966E+02  1.229116E+02 -2.651001E+01
        45  23  2.986975E+03  2.872414E+02  3.401104E+02 -5.478370E+02  1.093199E+02  4.671770E+00
        45  24  2.794064E+03  2.704211E+02  2.738799E+02 -3.018184E+02  9.587535E+01  3.590549E+01
        45  25  3.465206E+03  1.812337E+02  4.344507E+02 -6.755822E+02  9.810820E+01 -7.829109E+00
        45  26  3.196507E+03  2.568120E+02  3.728130E+02 -4.227497E+02  8.519903E+01  2.044766E+01
        45  27  2.932130E+03  3.141678E+02  3.132059E+02 -1.969660E+02  7.462586E+01  4.936857E+01
        46   1  2.647423E+03  3.035015E+02  2.578680E+02 -2.362811E+02 -1.058882E+02 -3.508339E+01
        46   2  2.467048E+03  3.091460E+02  2.064605E+02 -1.237950E+02 -8.812691E+01 -5.325037E+01
        46   3  2.320391E+03  3.203323E+02  1.722419E+02 -1.631185E+01 -7.208847E+01 -7.211869E+01
        46   4  2.698281E+03  3.071021E+02  2.574799E+02 -1.928235E+02 -8.680888E+01 -4.841501E+01
        46   5  2.496647E+03  3.201550E+02  2.069090E+02 -9.819872E+01 -7.117517E+01 -6.390286E+01
        46   6  2.329208E+03  3.405544E+02  1.730696E+02 -9.001053E+00 -5.799907E+01 -8.022831E+01
        46   7  2.763367E+03  3.287093E+02  2.711751E+02 -1.416024E+02 -6.763121E+01 -6.137070E+01
        46   8  2.539139E+03  3.479800E+02  2.197602E+02 -6.513120E+01 -5.398460E+01 -7.356146E+01
        46   9  2.349478E+03  3.763910E+02  1.845853E+02  5.413213E+00 -4.353817E+01 -8.661427E+01
        46  10  2.647423E+03  3.035015E+02  2.578680E+02 -2.362811E+02 -5.604491E-13 -1.751404E-14
        46  11  2.467048E+03  3.091460E+02  2.064605E+02 -1.237950E+02  8.187811E-13 -1.225982E-13
        46  12  2.320391E+03  3.203323E+02  1.722419E+02 -1.631185E+01  6.305053E-13  8.581877E-13
        46  13  2.698281E+03  3.071021E+02  2.574799E+02 -1.928235E+02 -1.225982E-13 -1.261011E-12
        46  14  2.496647E+03  3.201550E+02  2.069090E+02 -9.819872E+01  1.751404E-13 -3.152526E-13
        46  15  2.329208E+03  3.405544E+02  1.730696E+02 -9.001053E+00  1.444908E-13  2.627105E-14
        46  16  2.763367E+03  3.287093E+02  2.711751E+02 -1.416024E+02  5.604491E-13 -8.056456E-13
        46  17  2.539139E+03  3.479800E+02  2.197602E+02 -6.513120E+01  1.313553E-14 -5.254211E-14
        46  18  2.349478E+03  3.763910E+02  1.845853E+02  5.413213E+00  2.057899E-13 -3.371452E-13
        46  19  2.647423E+03  3.035015E+02  2.578680E+02 -2.362811E+02  1.058882E+02  3.508339E+01
        46  20  2.467048E+03  3.091460E+02  2.064605E+02 -1.237950E+02  8.812691E+01  5.325037E+01
        46  21  2.320391E+03  3.203323E+02  1.722419E+02 -1.631185E+01  7.208847E+01  7.211869E+01
        46  22  2.698281E+03  3.071021E+02  2.574799E+02 -1.928235E+02  8.680888E+01  4.841501E+01
        46  23  2.496647E+03  3.201550E+02  2.069090E+02 -9.819872E+01  7.117517E+01  6.390286E+01
        46  24  2.329208E+03  3.405544E+02  1.730696E+02 -9.001053E+00  5.799907E+01  8.022831E+01
        46  25  2.763367E+03  3.287093E+02  2.711751E+02 -1.416024E+02  6.763121E+01  6.137070E+01
        46  26  2.539139E+03  3.479800E+02  2.197602E+02 -6.513120E+01  5.398460E+01  7.356146E+01
        46  27  2.349478E+03  3.763910E+02  1.845853E+02  5.413213E+00  4.353817E+01  8.661427E+01
        47   1  2.813959E+03  3.479153E+02  2.866874E+02 -1.112295E+02 -5.227023E+01 -6.626185E+01
        47   2  2.531186E+03  3.466789E+02  2.135181E+02 -5.418482E+01 -4.296095E+01 -7.787303E+01
        47   3  2.342262E+03  3.851298E+02  1.830746E+02  6.427317E+00 -3.451653E+01 -8.967388E+01
        47   4  2.805319E+03  3.487097E+02  2.781121E+02 -6.022556E+01 -3.022192E+01 -7.251068E+01
        47   5  2.520471E+03  3.522165E+02  2.083530E+02 -2.826955E+01 -2.411457E+01 -8.303385E+01
        47   6  2.324567E+03  3.942319E+02  1.790471E+02  5.792076E+00 -1.958836E+01 -9.375056E+01
        47   7  2.800564E+03  3.587524E+02  2.780692E+02 -1.269747E+01 -8.015803E+00 -7.768636E+01
        47   8  2.511715E+03  3.629845E+02  2.089210E+02 -5.172508E+00 -4.985960E+00 -8.653073E+01
        47   9  2.306837E+03  4.038005E+02  1.777089E+02  3.225726E+00 -4.187063E+00 -9.543591E+01
        47  10  2.813959E+03  3.479153E+02  2.866874E+02 -1.112295E+02  1.681347E-12  5.429351E-13
        47  11  2.531186E+03  3.466789E+02  2.135181E+02 -5.418482E+01  2.780353E-13  4.728789E-13
        47  12  2.342262E+03  3.851298E+02  1.830746E+02  6.427317E+00 -9.799650E-13  8.975943E-13
        47  13  2.805319E+03  3.487097E+02  2.781121E+02 -6.022556E+01  1.225982E-13  0.000000E+00
        47  14  2.520471E+03  3.522165E+02  2.083530E+02 -2.826955E+01  3.940658E-13  9.457579E-13
        47  15  2.324567E+03  3.942319E+02  1.790471E+02  5.792076E+00  4.203368E-13  1.558749E-12
        47  16  2.800564E+03  3.587524E+02  2.780692E+02 -1.269747E+01 -8.428629E-13  7.005614E-14
        47  17  2.511715E+03  3.629845E+02  2.089210E+02 -5.172508E+00 -2.824138E-13  4.378509E-13
        47  18  2.306837E+03  4.038005E+02  1.777089E+02  3.225726E+00  1.192049E-12  8.494307E-13
        47  19  2.813959E+03  3.479153E+02  2.866874E+02 -1.112295E+02  5.227023E+01  6.626185E+01
        47  20  2.531186E+03  3.466789E+02  2.135181E+02 -5.418482E+01  4.296095E+01  7.787303E+01
        47  21  2.342262E+03  3.851298E+02  1.830746E+02  6.427317E+00  3.451653E+01  8.967388E+01
        47  22  2.805319E+03  3.487097E+02  2.781121E+02 -6.022556E+01  3.022192E+01  7.251068E+01
        47  23  2.520471E+03  3.522165E+02  2.083530E+02 -2.826955E+01  2.411457E+01  8.303385E+01
        47  24  2.324567E+03  3.942319E+02  1.790471E+02  5.792076E+00  1.958836E+01  9.375056E+01
        47  25  2.800564E+03  3.587524E+02  2.780692E+02 -1.269747E+01  8.015803E+00  7.768636E+01
        47  26  2.511715E+03  3.629845E+02  2.089210E+02 -5.172508E+00  4.985960E+00  8.653073E+01
        47  27  2.306837E+03  4.038005E+02  1.777089E+02  3.225726E+00  4.187063E+00  9.543591E+01
        48   1  3.662139E+03  1.727580E+02  4.781794E+02 -5.537416E+02 -7.880694E+01  1.754387E-01
        48   2  3.232786E+03  2.188060E+02  3.626718E+02 -3.479133E+02 -6.954035E+01 -2.791644E+01
        48   3  2.967798E+03  3.237216E+02  3.199465E+02 -1.525267E+02 -5.871098E+01 -5.565849E+01
        48   4  3.846191E+03  1.248904E+02  5.037936E+02 -3.193334E+02 -4.541528E+01 -8.766241E+00
        48   5  3.322464E+03  1.903347E+02  3.695876E+02 -2.009779E+02 -3.922023E+01 -3.663962E+01
        48   6  2.976992E+03  3.280641E+02  3.160058E+02 -9.193785E+01 -3.399805E+01 -6.463802E+01
        48   7  3.915011E+03  7.668705E+01  5.031221E+02 -7.567661E+01 -1.118032E+01 -1.561185E+01
        48   8  3.374218E+03  1.860410E+02  3.792378E+02 -4.258687E+01 -8.141711E+00 -4.164580E+01
        48   9  2.999857E+03  3.676489E+02  3.320715E+02 -1.713671E+01 -8.424373E+00 -6.777503E+01
        48  10  3.662139E+03  1.727580E+02  4.781794E+02 -5.537416E+02 -5.560706E-13 -2.802246E-13
        48  11  3.232786E+03  2.188060E+02  3.626718E+02 -3.479133E+02 -5.495029E-13 -6.830474E-13
        48  12  2.967798E+03  3.237216E+02  3.199465E+02 -1.525267E+02  8.412210E-13 -4.137691E-13
        48  13  3.846191E+03  1.248904E+02  5.037936E+02 -3.193334E+02 -2.539535E-13 -1.085870E-12
        48  14  3.322464E+03  1.903347E+02  3.695876E+02 -2.009779E+02 -5.210425E-13 -1.225982E-12
        48  15  2.976992E+03  3.280641E+02  3.160058E+02 -9.193785E+01 -3.480914E-13 -2.351259E-12
        48  16  3.915011E+03  7.668705E+01  5.031221E+02 -7.567661E+01  1.401123E-12  7.531035E-13
        48  17  3.374218E+03  1.860410E+02  3.792378E+02 -4.258687E+01 -2.780353E-13 -5.254211E-13
        48  18  2.999857E+03  3.676489E+02  3.320715E+02 -1.713671E+01 -1.677516E-12 -2.099495E-12
        48  19  3.662139E+03  1.727580E+02  4.781794E+02 -5.537416E+02  7.880694E+01 -1.754387E-01
        48  20  3.232786E+03  2.188060E+02  3.626718E+02 -3.479133E+02  6.954035E+01  2.791644E+01
        48  21  2.967798E+03  3.237216E+02  3.199465E+02 -1.525267E+02  5.871098E+01  5.565849E+01
        48  22  3.846191E+03  1.248904E+02  5.037936E+02 -3.193334E+02  4.541528E+01  8.766241E+00
        48  23  3.322464E+03  1.903347E+02  3.695876E+02 -2.009779E+02  3.922023E+01  3.663962E+01
        48  24  2.976992E+03  3.280641E+02  3.160058E+02 -9.193785E+01  3.399805E+01  6.463802E+01
        48  25  3.915011E+03  7.668705E+01  5.031221E+02 -7.567661E+01  1.118032E+01  1.561185E+01
        48  26  3.374218E+03  1.860410E+02  3.792378E+02 -4.258687E+01  8.141711E+00  4.164580E+01
        48  27  2.999857E+03  3.676489E+02  3.320715E+02 -1.713671E+01  8.424373E+00  6.777503E+01
        49   1  5.311376E+02  3.561735E+00 -1.390225E+01 -1.942225E+02  4.878666E+01  3.245067E+01
        49   2  5.564151E+02  2.081751E+01 -1.133941E+01 -1.849485E+02  4.643841E+01  2.965649E+01
        49   3  5.811014E+02  3.595122E+01 -9.076195E+00 -1.768425E+02  4.407666E+01  2.717381E+01
        49   4  5.719922E+02 -1.112603E+01 -1.366275E+01 -2.187235E+02  4.519817E+01  3.689501E+01
        49   5  5.940811E+02  6.879954E+00 -1.130107E+01 -2.085668E+02  4.317746E+01  3.375953E+01
        49   6  6.155797E+02  2.278303E+01 -9.290090E+00 -1.995618E+02  4.114223E+01  3.093117E+01
        49   7  6.190191E+02 -2.341290E+01 -1.194497E+01 -2.423480E+02  4.123927E+01  4.131994E+01
        49   8  6.380182E+02 -4.607510E+00 -9.650969E+00 -2.313137E+02  3.954102E+01  3.784698E+01
        49   9  6.564262E+02  1.211276E+01 -7.759598E+00 -2.214155E+02  3.782731E+01  3.467685E+01
        49  10  5.311376E+02  3.561735E+00 -1.390225E+01 -1.942225E+02  1.050842E-13  0.000000E+00
        49  11  5.564151E+02  2.081751E+01 -1.133941E+01 -1.849485E+02 -1.926544E-13 -2.096211E-13
        49  12  5.811014E+02  3.595122E+01 -9.076195E+00 -1.768425E+02 -3.283882E-13 -5.518973E-13
        49  13  5.719922E+02 -1.112603E+01 -1.366275E+01 -2.187235E+02 -5.254211E-13 -2.627105E-14
        49  14  5.940811E+02  6.879954E+00 -1.130107E+01 -2.085668E+02 -1.401123E-13 -9.523257E-14
        49  15  6.155797E+02  2.278303E+01 -9.290090E+00 -1.995618E+02 -1.576263E-13 -7.388734E-15
        49  16  6.190191E+02 -2.341290E+01 -1.194497E+01 -2.423480E+02 -1.401123E-13  5.473136E-16
        49  17  6.380182E+02 -4.607510E+00 -9.650969E+00 -2.313137E+02 -1.138412E-13  1.737721E-13
        49  18  6.564262E+02  1.211276E+01 -7.759598E+00 -2.214155E+02 -1.751404E-14  2.796088E-13
        49  19  5.311376E+02  3.561735E+00 -1.390225E+01 -1.942225E+02 -4.878666E+01 -3.245067E+01
        49  20  5.564151E+02  2.081751E+01 -1.133941E+01 -1.849485E+02 -4.643841E+01 -2.965649E+01
        49  21  5.811014E+02  3.595122E+01 -9.076195E+00 -1.768425E+02 -4.407666E+01 -2.717381E+01
        49  22  5.719922E+02 -1.112603E+01 -1.366275E+01 -2.187235E+02 -4.519817E+01 -3.689501E+01
        49  23  5.940811E+02  6.879954E+00 -1.130107E+01 -2.085668E+02 -4.317746E+01 -3.375953E+01
        49  24  6.155797E+02  2.278303E+01 -9.290090E+00 -1.995618E+02 -4.114223E+01 -3.093117E+01
        49  25  6.190191E+02 -2.341290E+01 -1.194497E+01 -2.423480E+02 -4.123927E+01 -4.131994E+01
        49  26  6.380182E+02 -4.607510E+00 -9.650969E+00 -2.313137E+02 -3.954102E+01 -3.784698E+01
        49  27  6.564262E+02  1.211276E+01 -7.759598E+00 -2.214155E+02 -3.782731E+01 -3.467685E+01
        50   1  5.944979E+02  4.368453E+01 -8.136038E+00 -1.720352E+02  4.272017E+01  2.584181E+01
        50   2  6.168309E+02  5.586626E+01 -6.668912E+00 -1.639694E+02  4.047108E+01  2.369444E+01
        50   3  6.388293E+02  6.661729E+01 -5.243584E+00 -1.568401E+02  3.821236E+01  2.177072E+01
        50   4  6.281626E+02  3.130981E+01 -8.102596E+00 -1.941621E+02  3.989261E+01  2.941838E+01
        50   5  6.479881E+02  4.417708E+01 -6.772539E+00 -1.853131E+02  3.787477E+01  2.700161E+01
        50   6  6.674812E+02  5.562696E+01 -5.518010E+00 -1.773885E+02  3.584654E+01  2.480576E+01
        50   7  6.667332E+02  2.079608E+01 -6.908573E+00 -2.156046E+02  3.677710E+01  3.298788E+01
        50   8  6.841268E+02  3.438494E+01 -5.613154E+00 -2.059782E+02  3.498721E+01  3.030471E+01
        50   9  7.011891E+02  4.656880E+01 -4.427572E+00 -1.972644E+02  3.318624E+01  2.783979E+01
        50  10  5.944979E+02  4.368453E+01 -8.136038E+00 -1.720352E+02  5.604491E-13 -4.208842E-13
        50  11  6.168309E+02  5.586626E+01 -6.668912E+00 -1.639694E+02 -1.401123E-13 -2.088001E-13
        50  12  6.388293E+02  6.661729E+01 -5.243584E+00 -1.568401E+02 -2.846031E-13  7.867633E-15
        50  13  6.281626E+02  3.130981E+01 -8.102596E+00 -1.941621E+02  4.203368E-13 -9.851645E-15
        50  14  6.479881E+02  4.417708E+01 -6.772539E+00 -1.853131E+02  0.000000E+00 -1.176724E-13
        50  15  6.674812E+02  5.562696E+01 -5.518010E+00 -1.773885E+02 -1.926544E-13 -5.582599E-14
        50  16  6.667332E+02  2.079608E+01 -6.908573E+00 -2.156046E+02  4.378509E-14  4.203368E-13
        50  17  6.841268E+02  3.438494E+01 -5.613154E+00 -2.059782E+02 -1.838974E-13  2.093475E-13
        50  18  7.011891E+02  4.656880E+01 -4.427572E+00 -1.972644E+02 -5.254211E-14 -7.101394E-14
        50  19  5.944979E+02  4.368453E+01 -8.136038E+00 -1.720352E+02 -4.272017E+01 -2.584181E+01
        50  20  6.168309E+02  5.586626E+01 -6.668912E+00 -1.639694E+02 -4.047108E+01 -2.369444E+01
        50  21  6.388293E+02  6.661729E+01 -5.243584E+00 -1.568401E+02 -3.821236E+01 -2.177072E+01
        50  22  6.281626E+02  3.130981E+01 -8.102596E+00 -1.941621E+02 -3.989261E+01 -2.941838E+01
        50  23  6.479881E+02  4.417708E+01 -6.772539E+00 -1.853131E+02 -3.787477E+01 -2.700161E+01
        50  24  6.674812E+02  5.562696E+01 -5.518010E+00 -1.773885E+02 -3.584654E+01 -2.480576E+01
        50  25  6.667332E+02  2.079608E+01 -6.908573E+00 -2.156046E+02 -3.677710E+01 -3.298788E+01
        50  26  6.841268E+02  3.438494E+01 -5.613154E+00 -2.059782E+02 -3.498721E+01 -3.030471E+01
        50  27  7.011891E+02  4.656880E+01 -4.427572E+00 -1.972644E+02 -3.318624E+01 -2.783979E+01
        51   1  6.902027E+02  1.301898E+01 -6.792482E+00 -2.256122E+02  3.484246E+01  3.470680E+01
        51   2  7.061322E+02  2.736430E+01 -5.398115E+00 -2.155719E+02  3.319798E+01  3.187557E+01
        51   3  7.215502E+02  3.980974E+01 -4.341582E+00 -2.066615E+02  3.153968E+01  2.930521E+01
        51   4  7.324753E+02  6.219149E-01 -6.199322E+00 -2.377920E+02  3.140991E+01  3.705697E+01
        51   5  7.453695E+02  1.557298E+01 -4.961851E+00 -2.277516E+02  3.003038E+01  3.409169E+01
        51   6  7.577533E+02  2.864067E+01 -4.106019E+00 -2.188201E+02  2.863626E+01  3.138285E+01
        51   7  7.769783E+02 -1.096537E+01 -5.274526E+00 -2.493062E+02  2.785682E+01  3.940412E+01
        51   8  7.869234E+02  4.621972E+00 -4.119565E+00 -2.392608E+02  2.673736E+01  3.630605E+01
        51   9  7.963584E+02  1.834157E+01 -3.390559E+00 -2.303037E+02  2.560258E+01  3.346008E+01
        51  10  6.902027E+02  1.301898E+01 -6.792482E+00 -2.256122E+02  2.101684E-13 -2.813192E-13
        51  11  7.061322E+02  2.736430E+01 -5.398115E+00 -2.155719E+02  7.005614E-14 -2.796772E-13
        51  12  7.215502E+02  3.980974E+01 -4.341582E+00 -2.066615E+02 -1.620048E-13 -5.276103E-13
        51  13  7.324753E+02  6.219149E-01 -6.199322E+00 -2.377920E+02  0.000000E+00  2.408180E-14
        51  14  7.453695E+02  1.557298E+01 -4.961851E+00 -2.277516E+02 -1.751404E-13  6.677226E-14
        51  15  7.577533E+02  2.864067E+01 -4.106019E+00 -2.188201E+02 -3.502807E-13 -2.462911E-15
        51  16  7.769783E+02 -1.096537E+01 -5.274526E+00 -2.493062E+02  2.889816E-13  2.780353E-13
        51  17  7.869234E+02  4.621972E+00 -4.119565E+00 -2.392608E+02 -5.254211E-14  4.947715E-13
        51  18  7.963584E+02  1.834157E+01 -3.390559E+00 -2.303037E+02 -4.991500E-13  5.588072E-13
        51  19  6.902027E+02  1.301898E+01 -6.792482E+00 -2.256122E+02 -3.484246E+01 -3.470680E+01
        51  20  7.061322E+02  2.736430E+01 -5.398115E+00 -2.155719E+02 -3.319798E+01 -3.187557E+01
        51  21  7.215502E+02  3.980974E+01 -4.341582E+00 -2.066615E+02 -3.153968E+01 -2.930521E+01
        51  22  7.324753E+02  6.219149E-01 -6.199322E+00 -2.377920E+02 -3.140991E+01 -3.705697E+01
        51  23  7.453695E+02  1.557298E+01 -4.961851E+00 -2.277516E+02 -3.003038E+01 -3.409169E+01
        51  24  7.577533E+02  2.864067E+01 -4.106019E+00 -2.188201E+02 -2.863626E+01 -3.138285E+01
        51  25  7.769783E+02 -1.096537E+01 -5.274526E+00 -2.493062E+02 -2.785682E+01 -3.940412E+01
        51  26  7.869234E+02  4.621972E+00 -4.119565E+00 -2.392608E+02 -2.673736E+01 -3.630605E+01
        51  27  7.963584E+02  1.834157E+01 -3.390559E+00 -2.303037E+02 -2.560258E+01 -3.346008E+01
        52   1  6.476876E+02 -3.231976E+01 -1.156809E+01 -2.529420E+02  3.878618E+01  4.338664E+01
        52   2  6.647481E+02 -1.284792E+01 -9.254138E+00 -2.415460E+02  3.729155E+01  3.974664E+01
        52   3  6.810674E+02  4.098636E+00 -7.557378E+00 -2.315673E+02  3.577773E+01  3.646745E+01
        52   4  6.990511E+02 -4.668012E+01 -1.058465E+01 -2.650692E+02  3.445842E+01  4.611144E+01
        52   5  7.122634E+02 -2.655707E+01 -8.497190E+00 -2.537590E+02  3.333434E+01  4.232932E+01
        52   6  7.247291E+02 -8.941684E+00 -7.094987E+00 -2.438383E+02  3.219018E+01  3.890120E+01
        52   7  7.531251E+02 -5.999064E+01 -9.169642E+00 -2.763691E+02  2.999933E+01  4.882917E+01
        52   8  7.626029E+02 -3.917542E+01 -7.216633E+00 -2.651361E+02  2.923839E+01  4.490610E+01
        52   9  7.713268E+02 -2.085169E+01 -6.017828E+00 -2.552657E+02  2.845656E+01  4.133037E+01
        52  10  6.476876E+02 -3.231976E+01 -1.156809E+01 -2.529420E+02 -1.926544E-13 -3.513753E-13
        52  11  6.647481E+02 -1.284792E+01 -9.254138E+00 -2.415460E+02  0.000000E+00 -2.090738E-13
        52  12  6.810674E+02  4.098636E+00 -7.557378E+00 -2.315673E+02 -1.751404E-14 -2.817297E-13
        52  13  6.990511E+02 -4.668012E+01 -1.058465E+01 -2.650692E+02  1.401123E-13  4.378509E-14
        52  14  7.122634E+02 -2.655707E+01 -8.497190E+00 -2.537590E+02 -3.502807E-14  1.193144E-13
        52  15  7.247291E+02 -8.941684E+00 -7.094987E+00 -2.438383E+02 -1.225982E-13  3.940658E-14
        52  16  7.531251E+02 -5.999064E+01 -9.169642E+00 -2.763691E+02  1.225982E-13  2.101684E-13
        52  17  7.626029E+02 -3.917542E+01 -7.216633E+00 -2.651361E+02 -8.757018E-15  2.112630E-13
        52  18  7.713268E+02 -2.085169E+01 -6.017828E+00 -2.552657E+02 -2.802246E-13  3.680684E-13
        52  19  6.476876E+02 -3.231976E+01 -1.156809E+01 -2.529420E+02 -3.878618E+01 -4.338664E+01
        52  20  6.647481E+02 -1.284792E+01 -9.254138E+00 -2.415460E+02 -3.729155E+01 -3.974664E+01
        52  21  6.810674E+02  4.098636E+00 -7.557378E+00 -2.315673E+02 -3.577773E+01 -3.646745E+01
        52  22  6.990511E+02 -4.668012E+01 -1.058465E+01 -2.650692E+02 -3.445842E+01 -4.611144E+01
        52  23  7.122634E+02 -2.655707E+01 -8.497190E+00 -2.537590E+02 -3.333434E+01 -4.232932E+01
        52  24  7.247291E+02 -8.941684E+00 -7.094987E+00 -2.438383E+02 -3.219018E+01 -3.890120E+01
        52  25  7.531251E+02 -5.999064E+01 -9.169642E+00 -2.763691E+02 -2.999933E+01 -4.882917E+01
        52  26  7.626029E+02 -3.917542E+01 -7.216633E+00 -2.651361E+02 -2.923839E+01 -4.490610E+01
        52  27  7.713268E+02 -2.085169E+01 -6.017828E+00 -2.552657E+02 -2.845656E+01 -4.133037E+01
        53   1  1.248187E+03 -1.020521E+02  3.543439E+00 -1.585605E+02 -4.943129E+00  4.516749E+01
        53   2  1.267641E+03 -1.188642E+02  3.908087E+00 -1.485459E+02 -6.617008E+00  4.668174E+01
        53   3  1.285979E+03 -1.379550E+02  2.867265E+00 -1.384329E+02 -8.280127E+00  4.807451E+01
        53   4  1.214217E+03 -1.081728E+02  2.847743E+00 -1.782061E+02 -3.291046E+00  4.705804E+01
        53   5  1.232956E+03 -1.266596E+02  3.077553E+00 -1.706552E+02 -5.092902E+00  4.902076E+01
        53   6  1.250536E+03 -1.474967E+02  1.856275E+00 -1.629706E+02 -6.881337E+00  5.084956E+01
        53   7  1.174886E+03 -1.165126E+02  3.262430E-01 -1.985704E+02 -1.174396E+00  4.896555E+01
        53   8  1.193066E+03 -1.366007E+02  6.009440E-01 -1.935220E+02 -3.117819E+00  5.138286E+01
        53   9  1.210038E+03 -1.591130E+02 -6.227882E-01 -1.883026E+02 -5.044753E+00  5.365331E+01
        53  10  1.248187E+03 -1.020521E+02  3.543439E+00 -1.585605E+02 -2.451965E-13 -8.757018E-15
        53  11  1.267641E+03 -1.188642E+02  3.908087E+00 -1.485459E+02  1.751404E-14 -1.094627E-14
        53  12  1.285979E+03 -1.379550E+02  2.867265E+00 -1.384329E+02  4.072013E-13  5.166640E-13
        53  13  1.214217E+03 -1.081728E+02  2.847743E+00 -1.782061E+02  7.005614E-14  4.378509E-15
        53  14  1.232956E+03 -1.266596E+02  3.077553E+00 -1.706552E+02  1.401123E-13  1.970329E-13
        53  15  1.250536E+03 -1.474967E+02  1.856275E+00 -1.629706E+02  4.290939E-13  1.039896E-13
        53  16  1.174886E+03 -1.165126E+02  3.262430E-01 -1.985704E+02  1.751404E-14  1.444908E-13
        53  17  1.193066E+03 -1.366007E+02  6.009440E-01 -1.935220E+02  6.129912E-14 -7.005614E-14
        53  18  1.210038E+03 -1.591130E+02 -6.227882E-01 -1.883026E+02  1.707618E-13 -2.227566E-13
        53  19  1.248187E+03 -1.020521E+02  3.543439E+00 -1.585605E+02  4.943129E+00 -4.516749E+01
        53  20  1.267641E+03 -1.188642E+02  3.908087E+00 -1.485459E+02  6.617008E+00 -4.668174E+01
        53  21  1.285979E+03 -1.379550E+02  2.867265E+00 -1.384329E+02  8.280127E+00 -4.807451E+01
        53  22  1.214217E+03 -1.081728E+02  2.847743E+00 -1.782061E+02  3.291046E+00 -4.705804E+01
        53  23  1.232956E+03 -1.266596E+02  3.077553E+00 -1.706552E+02  5.092902E+00 -4.902076E+01
        53  24  1.250536E+03 -1.474967E+02  1.856275E+00 -1.629706E+02  6.881337E+00 -5.084956E+01
        53  25  1.174886E+03 -1.165126E+02  3.262430E-01 -1.985704E+02  1.174396E+00 -4.896555E+01
        53  26  1.193066E+03 -1.366007E+02  6.009440E-01 -1.935220E+02  3.117819E+00 -5.138286E+01
        53  27  1.210038E+03 -1.591130E+02 -6.227882E-01 -1.883026E+02  5.044753E+00 -5.365331E+01
        54   1  1.297914E+03 -1.490099E+02  2.466466E+00 -1.310978E+02 -9.623045E+00  4.872948E+01
        54   2  1.322288E+03 -1.666263E+02  2.771491E+00 -1.160518E+02 -1.278871E+01  4.948996E+01
        54   3  1.345840E+03 -1.854235E+02  1.695761E+00 -1.007548E+02 -1.593301E+01  5.001087E+01
        54   4  1.263569E+03 -1.590677E+02  1.949013E+00 -1.571826E+02 -8.443357E+00  5.181852E+01
        54   5  1.287804E+03 -1.786842E+02  2.120725E+00 -1.450452E+02 -1.187051E+01  5.324193E+01
        54   6  1.311165E+03 -1.995253E+02  8.481273E-01 -1.326048E+02 -1.527164E+01  5.440593E+01
        54   7  1.221126E+03 -1.725331E+02 -1.265825E+00 -1.843285E+02 -6.570657E+00  5.495863E+01
        54   8  1.245499E+03 -1.940075E+02 -9.242185E-01 -1.751303E+02 -1.028146E+01  5.705257E+01
        54   9  1.268941E+03 -2.167520E+02 -2.092429E+00 -1.655753E+02 -1.396094E+01  5.886652E+01
        54  10  1.297914E+03 -1.490099E+02  2.466466E+00 -1.310978E+02 -7.005614E-14  1.401123E-13
        54  11  1.322288E+03 -1.666263E+02  2.771491E+00 -1.160518E+02 -1.751404E-13 -8.757018E-14
        54  12  1.345840E+03 -1.854235E+02  1.695761E+00 -1.007548E+02  1.444908E-13 -3.201785E-13
        54  13  1.263569E+03 -1.590677E+02  1.949013E+00 -1.571826E+02 -5.604491E-13 -3.064956E-14
        54  14  1.287804E+03 -1.786842E+02  2.120725E+00 -1.450452E+02 -4.553649E-13  9.194868E-14
        54  15  1.311165E+03 -1.995253E+02  8.481273E-01 -1.326048E+02 -4.378509E-14  1.970329E-14
        54  16  1.221126E+03 -1.725331E+02 -1.265825E+00 -1.843285E+02 -2.014114E-13 -4.247154E-13
        54  17  1.245499E+03 -1.940075E+02 -9.242185E-01 -1.751303E+02 -2.364395E-13  2.189254E-15
        54  18  1.268941E+03 -2.167520E+02 -2.092429E+00 -1.655753E+02 -2.057899E-13  5.451243E-13
        54  19  1.297914E+03 -1.490099E+02  2.466466E+00 -1.310978E+02  9.623045E+00 -4.872948E+01
        54  20  1.322288E+03 -1.666263E+02  2.771491E+00 -1.160518E+02  1.278871E+01 -4.948996E+01
        54  21  1.345840E+03 -1.854235E+02  1.695761E+00 -1.007548E+02  1.593301E+01 -5.001087E+01
        54  22  1.263569E+03 -1.590677E+02  1.949013E+00 -1.571826E+02  8.443357E+00 -5.181852E+01
        54  23  1.287804E+03 -1.786842E+02  2.120725E+00 -1.450452E+02  1.187051E+01 -5.324193E+01
        54  24  1.311165E+03 -1.995253E+02  8.481273E-01 -1.326048E+02  1.527164E+01 -5.440593E+01
        54  25  1.221126E+03 -1.725331E+02 -1.265825E+00 -1.843285E+02  6.570657E+00 -5.495863E+01
        54  26  1.245499E+03 -1.940075E+02 -9.242185E-01 -1.751303E+02  1.028146E+01 -5.705257E+01
        54  27  1.268941E+03 -2.167520E+02 -2.092429E+00 -1.655753E+02  1.396094E+01 -5.886652E+01
        55   1  1.195045E+03 -1.774533E+02 -2.330312E+00 -2.005071E+02 -5.208222E+00  5.669990E+01
        55   2  1.218536E+03 -1.997609E+02 -2.024668E+00 -1.931153E+02 -8.967977E+00  5.916401E+01
        55   3  1.241264E+03 -2.239614E+02 -3.355618E+00 -1.866252E+02 -1.274078E+01  6.173783E+01
        55   4  1.147420E+03 -1.795022E+02 -2.575680E+00 -2.256257E+02 -2.372909E+00  5.936935E+01
        55   5  1.167389E+03 -2.035088E+02 -2.882415E+00 -2.215491E+02 -6.020630E+00  6.252862E+01
        55   6  1.186633E+03 -2.294354E+02 -4.753702E+00 -2.183500E+02 -9.681448E+00  6.578732E+01
        55   7  1.091085E+03 -1.851574E+02 -5.897336E+00 -2.513022E+02  1.211682E+00  6.209394E+01
        55   8  1.107689E+03 -2.107608E+02 -6.568329E+00 -2.506002E+02 -2.336500E+00  6.595766E+01
        55   9  1.123607E+03 -2.383135E+02 -8.732948E+00 -2.507499E+02 -5.897531E+00  6.991004E+01
        55  10  1.195045E+03 -1.774533E+02 -2.330312E+00 -2.005071E+02  0.000000E+00  5.648276E-13
        55  11  1.218536E+03 -1.997609E+02 -2.024668E+00 -1.931153E+02 -1.050842E-13  4.159583E-13
        55  12  1.241264E+03 -2.239614E+02 -3.355618E+00 -1.866252E+02  1.225982E-13  3.010225E-13
        55  13  1.147420E+03 -1.795022E+02 -2.575680E+00 -2.256257E+02 -2.101684E-13 -1.751404E-14
        55  14  1.167389E+03 -2.035088E+02 -2.882415E+00 -2.215491E+02 -1.050842E-13 -8.757018E-14
        55  15  1.186633E+03 -2.294354E+02 -4.753702E+00 -2.183500E+02 -2.189254E-13  2.736568E-14
        55  16  1.091085E+03 -1.851574E+02 -5.897336E+00 -2.513022E+02 -8.100241E-14 -4.290939E-13
        55  17  1.107689E+03 -2.107608E+02 -6.568329E+00 -2.506002E+02  0.000000E+00 -2.145469E-13
        55  18  1.123607E+03 -2.383135E+02 -8.732948E+00 -2.507499E+02  1.795189E-13 -1.860866E-14
        55  19  1.195045E+03 -1.774533E+02 -2.330312E+00 -2.005071E+02  5.208222E+00 -5.669990E+01
        55  20  1.218536E+03 -1.997609E+02 -2.024668E+00 -1.931153E+02  8.967977E+00 -5.916401E+01
        55  21  1.241264E+03 -2.239614E+02 -3.355618E+00 -1.866252E+02  1.274078E+01 -6.173783E+01
        55  22  1.147420E+03 -1.795022E+02 -2.575680E+00 -2.256257E+02  2.372909E+00 -5.936935E+01
        55  23  1.167389E+03 -2.035088E+02 -2.882415E+00 -2.215491E+02  6.020630E+00 -6.252862E+01
        55  24  1.186633E+03 -2.294354E+02 -4.753702E+00 -2.183500E+02  9.681448E+00 -6.578732E+01
        55  25  1.091085E+03 -1.851574E+02 -5.897336E+00 -2.513022E+02 -1.211682E+00 -6.209394E+01
        55  26  1.107689E+03 -2.107608E+02 -6.568329E+00 -2.506002E+02  2.336500E+00 -6.595766E+01
        55  27  1.123607E+03 -2.383135E+02 -8.732948E+00 -2.507499E+02  5.897531E+00 -6.991004E+01
        56   1  1.151250E+03 -1.193452E+02 -5.562876E-01 -2.103058E+02  2.163965E-01  4.995547E+01
        56   2  1.168391E+03 -1.400726E+02 -3.396002E-01 -2.064711E+02 -1.719561E+00  5.251469E+01
        56   3  1.184497E+03 -1.635453E+02 -1.652500E+00 -2.033506E+02 -3.669699E+00  5.519389E+01
        56   4  1.109291E+03 -1.193937E+02 -7.592462E-01 -2.282395E+02  2.881821E+00  5.140455E+01
        56   5  1.123565E+03 -1.410910E+02 -8.606875E-01 -2.271447E+02  1.069999E+00  5.441519E+01
        56   6  1.136819E+03 -1.656074E+02 -2.452158E+00 -2.267470E+02 -7.567911E-01  5.754043E+01
        56   7  1.061460E+03 -1.218666E+02 -3.120197E+00 -2.464017E+02  6.040141E+00  5.287171E+01
        56   8  1.072942E+03 -1.444798E+02 -3.397209E+00 -2.481089E+02  4.345785E+00  5.634061E+01
        56   9  1.083418E+03 -1.699891E+02 -5.125818E+00 -2.504941E+02  2.635799E+00  5.991836E+01
        56  10  1.151250E+03 -1.193452E+02 -5.562876E-01 -2.103058E+02 -3.502807E-14  5.604491E-13
        56  11  1.168391E+03 -1.400726E+02 -3.396002E-01 -2.064711E+02  3.502807E-14  4.903930E-13
        56  12  1.184497E+03 -1.635453E+02 -1.652500E+00 -2.033506E+02 -8.757018E-14  5.336308E-13
        56  13  1.109291E+03 -1.193937E+02 -7.592462E-01 -2.282395E+02 -7.005614E-14 -6.567763E-15
        56  14  1.123565E+03 -1.410910E+02 -8.606875E-01 -2.271447E+02 -7.005614E-14 -6.786689E-14
        56  15  1.136819E+03 -1.656074E+02 -2.452158E+00 -2.267470E+02  1.488693E-13  0.000000E+00
        56  16  1.061460E+03 -1.218666E+02 -3.120197E+00 -2.464017E+02  2.769407E-13 -5.735846E-13
        56  17  1.072942E+03 -1.444798E+02 -3.397209E+00 -2.481089E+02 -6.129912E-14 -7.093184E-13
        56  18  1.083418E+03 -1.699891E+02 -5.125818E+00 -2.504941E+02  1.707618E-13 -3.623216E-13
        56  19  1.151250E+03 -1.193452E+02 -5.562876E-01 -2.103058E+02 -2.163965E-01 -4.995547E+01
        56  20  1.168391E+03 -1.400726E+02 -3.396002E-01 -2.064711E+02  1.719561E+00 -5.251469E+01
        56  21  1.184497E+03 -1.635453E+02 -1.652500E+00 -2.033506E+02  3.669699E+00 -5.519389E+01
        56  22  1.109291E+03 -1.193937E+02 -7.592462E-01 -2.282395E+02 -2.881821E+00 -5.140455E+01
        56  23  1.123565E+03 -1.410910E+02 -8.606875E-01 -2.271447E+02 -1.069999E+00 -5.441519E+01
        56  24  1.136819E+03 -1.656074E+02 -2.452158E+00 -2.267470E+02  7.567911E-01 -5.754043E+01
        56  25  1.061460E+03 -1.218666E+02 -3.120197E+00 -2.464017E+02 -6.040141E+00 -5.287171E+01
        56  26  1.072942E+03 -1.444798E+02 -3.397209E+00 -2.481089E+02 -4.345785E+00 -5.634061E+01
        56  27  1.083418E+03 -1.699891E+02 -5.125818E+00 -2.504941E+02 -2.635799E+00 -5.991836E+01
        57   1  1.238802E+03 -9.231534E+01  3.866317E+00 -1.631667E+02 -4.326263E+00  4.421042E+01
        57   2  1.204238E+03 -9.796503E+01  2.821465E+00 -1.816578E+02 -2.524112E+00  4.589613E+01
        57   3  1.166433E+03 -1.049181E+02  8.111513E-01 -2.006971E+02 -4.482326E-01  4.759014E+01
        57   4  1.223881E+03 -7.657709E+01  4.582186E+00 -1.691716E+02 -3.608764E+00  4.247585E+01
        57   5  1.189927E+03 -8.080723E+01  3.652468E+00 -1.860005E+02 -1.724996E+00  4.390294E+01
        57   6  1.152683E+03 -8.637196E+01  1.671482E+00 -2.033649E+02  4.351728E-01  4.533670E+01
        57   7  1.207936E+03 -6.311882E+01  4.153520E+00 -1.751672E+02 -2.887705E+00  4.066438E+01
        57   8  1.174573E+03 -6.596047E+01  3.310045E+00 -1.903270E+02 -9.219731E-01  4.183033E+01
        57   9  1.137871E+03 -7.016816E+01  1.329383E+00 -2.060094E+02  1.322849E+00  4.300127E+01
        57  10  1.238802E+03 -9.231534E+01  3.866317E+00 -1.631667E+02 -3.152526E-13 -3.152526E-13
        57  11  1.204238E+03 -9.796503E+01  2.821465E+00 -1.816578E+02 -2.276825E-13 -5.692061E-14
        57  12  1.166433E+03 -1.049181E+02  8.111513E-01 -2.006971E+02  8.757018E-14  7.169808E-14
        57  13  1.223881E+03 -7.657709E+01  4.582186E+00 -1.691716E+02 -6.567763E-14  1.488693E-13
        57  14  1.189927E+03 -8.080723E+01  3.652468E+00 -1.860005E+02  2.758461E-13 -7.443465E-14
        57  15  1.152683E+03 -8.637196E+01  1.671482E+00 -2.033649E+02  1.751404E-14 -2.068845E-13
        57  16  1.207936E+03 -6.311882E+01  4.153520E+00 -1.751672E+02  2.101684E-13  9.632719E-14
        57  17  1.174573E+03 -6.596047E+01  3.310045E+00 -1.903270E+02  1.751404E-13 -4.378509E-14
        57  18  1.137871E+03 -7.016816E+01  1.329383E+00 -2.060094E+02 -1.225982E-13  4.925822E-14
        57  19  1.238802E+03 -9.231534E+01  3.866317E+00 -1.631667E+02  4.326263E+00 -4.421042E+01
        57  20  1.204238E+03 -9.796503E+01  2.821465E+00 -1.816578E+02  2.524112E+00 -4.589613E+01
        57  21  1.166433E+03 -1.049181E+02  8.111513E-01 -2.006971E+02  4.482326E-01 -4.759014E+01
        57  22  1.223881E+03 -7.657709E+01  4.582186E+00 -1.691716E+02  3.608764E+00 -4.247585E+01
        57  23  1.189927E+03 -8.080723E+01  3.652468E+00 -1.860005E+02  1.724996E+00 -4.390294E+01
        57  24  1.152683E+03 -8.637196E+01  1.671482E+00 -2.033649E+02 -4.351728E-01 -4.533670E+01
        57  25  1.207936E+03 -6.311882E+01  4.153520E+00 -1.751672E+02  2.887705E+00 -4.066438E+01
        57  26  1.174573E+03 -6.596047E+01  3.310045E+00 -1.903270E+02  9.219731E-01 -4.183033E+01
        57  27  1.137871E+03 -7.016816E+01  1.329383E+00 -2.060094E+02 -1.322849E+00 -4.300127E+01
        58   1  1.143246E+03 -1.073102E+02 -3.653851E-02 -2.116787E+02  9.458889E-01  4.848830E+01
        58   2  1.101314E+03 -1.073789E+02 -6.705616E-01 -2.282480E+02  3.679195E+00  4.972939E+01
        58   3  1.055514E+03 -1.090297E+02 -2.657157E+00 -2.450609E+02  6.710328E+00  5.097962E+01
        58   4  1.130244E+03 -8.781831E+01  9.731982E-01 -2.128989E+02  1.840612E+00  4.597842E+01
        58   5  1.090165E+03 -8.690536E+01  5.110446E-01 -2.274934E+02  4.508623E+00  4.694568E+01
        58   6  1.046191E+03 -8.760257E+01 -1.383259E+00 -2.423127E+02  7.475186E+00  4.792023E+01
        58   7  1.116052E+03 -7.116004E+01  5.967799E-01 -2.146065E+02  2.731710E+00  4.353431E+01
        58   8  1.077828E+03 -6.928910E+01  3.218564E-01 -2.272246E+02  5.334294E+00  4.422709E+01
        58   9  1.035681E+03 -6.905695E+01 -1.465086E+00 -2.400487E+02  8.236176E+00  4.492531E+01
        58  10  1.143246E+03 -1.073102E+02 -3.653851E-02 -2.116787E+02  1.401123E-13  3.677947E-13
        58  11  1.101314E+03 -1.073789E+02 -6.705616E-01 -2.282480E+02  4.378509E-13  2.189254E-14
        58  12  1.055514E+03 -1.090297E+02 -2.657157E+00 -2.450609E+02  5.122855E-13 -2.966440E-13
        58  13  1.130244E+03 -8.781831E+01  9.731982E-01 -2.128989E+02  1.707618E-13  7.881316E-14
        58  14  1.090165E+03 -8.690536E+01  5.110446E-01 -2.274934E+02  4.816360E-13  4.378509E-15
        58  15  1.046191E+03 -8.760257E+01 -1.383259E+00 -2.423127E+02  2.473857E-13  1.488693E-13
        58  16  1.116052E+03 -7.116004E+01  5.967799E-01 -2.146065E+02  3.502807E-13 -7.180754E-13
        58  17  1.077828E+03 -6.928910E+01  3.218564E-01 -2.272246E+02  3.327667E-13  1.313553E-14
        58  18  1.035681E+03 -6.905695E+01 -1.465086E+00 -2.400487E+02  8.319167E-14  5.752266E-13
        58  19  1.143246E+03 -1.073102E+02 -3.653851E-02 -2.116787E+02 -9.458889E-01 -4.848830E+01
        58  20  1.101314E+03 -1.073789E+02 -6.705616E-01 -2.282480E+02 -3.679195E+00 -4.972939E+01
        58  21  1.055514E+03 -1.090297E+02 -2.657157E+00 -2.450609E+02 -6.710328E+00 -5.097962E+01
        58  22  1.130244E+03 -8.781831E+01  9.731982E-01 -2.128989E+02 -1.840612E+00 -4.597842E+01
        58  23  1.090165E+03 -8.690536E+01  5.110446E-01 -2.274934E+02 -4.508623E+00 -4.694568E+01
        58  24  1.046191E+03 -8.760257E+01 -1.383259E+00 -2.423127E+02 -7.475186E+00 -4.792023E+01
        58  25  1.116052E+03 -7.116004E+01  5.967799E-01 -2.146065E+02 -2.731710E+00 -4.353431E+01
        58  26  1.077828E+03 -6.928910E+01  3.218564E-01 -2.272246E+02 -5.334294E+00 -4.422709E+01
        58  27  1.035681E+03 -6.905695E+01 -1.465086E+00 -2.400487E+02 -8.236176E+00 -4.492531E+01
        59   1  1.109886E+03 -6.151965E+01  9.164847E-01 -2.146023E+02  3.010730E+00  4.210404E+01
        59   2  1.071958E+03 -5.951341E+01  3.946655E-01 -2.262539E+02  5.633085E+00  4.267265E+01
        59   3  1.031575E+03 -5.852006E+01 -1.038904E+00 -2.380065E+02  8.430861E+00  4.324381E+01
        59   4  1.100802E+03 -4.580172E+01  1.645365E+00 -2.133092E+02  3.212079E+00  3.964121E+01
        59   5  1.064677E+03 -4.314989E+01  1.222180E+00 -2.234860E+02  5.756965E+00  4.005469E+01
        59   6  1.026095E+03 -4.152202E+01 -1.506848E-01 -2.337480E+02  8.477181E+00  4.046961E+01
        59   7  1.090711E+03 -3.262339E+01  1.294252E+00 -2.125297E+02  3.409285E+00  3.725441E+01
        59   8  1.056393E+03 -2.934809E+01  9.864356E-01 -2.212334E+02  5.876448E+00  3.751295E+01
        59   9  1.019614E+03 -2.710823E+01 -3.091253E-01 -2.300064E+02  8.518846E+00  3.777180E+01
        59  10  1.109886E+03 -6.151965E+01  9.164847E-01 -2.146023E+02 -4.203368E-13 -4.794467E-13
        59  11  1.071958E+03 -5.951341E+01  3.946655E-01 -2.262539E+02 -9.282439E-13  8.100241E-14
        59  12  1.031575E+03 -5.852006E+01 -1.038904E+00 -2.380065E+02 -9.895430E-13  5.574389E-13
        59  13  1.100802E+03 -4.580172E+01  1.645365E+00 -2.133092E+02 -2.780353E-13  1.488693E-13
        59  14  1.064677E+03 -4.314989E+01  1.222180E+00 -2.234860E+02 -7.334002E-13  2.233039E-13
        59  15  1.026095E+03 -4.152202E+01 -1.506848E-01 -2.337480E+02 -1.707618E-13  1.346391E-13
        59  16  1.090711E+03 -3.262339E+01  1.294252E+00 -2.125297E+02  1.751404E-13  5.954772E-13
        59  17  1.056393E+03 -2.934809E+01  9.864356E-01 -2.212334E+02 -1.926544E-13  8.757018E-14
        59  18  1.019614E+03 -2.710823E+01 -3.091253E-01 -2.300064E+02  4.334724E-13 -3.918765E-13
        59  19  1.109886E+03 -6.151965E+01  9.164847E-01 -2.146023E+02 -3.010730E+00 -4.210404E+01
        59  20  1.071958E+03 -5.951341E+01  3.946655E-01 -2.262539E+02 -5.633085E+00 -4.267265E+01
        59  21  1.031575E+03 -5.852006E+01 -1.038904E+00 -2.380065E+02 -8.430861E+00 -4.324381E+01
        59  22  1.100802E+03 -4.580172E+01  1.645365E+00 -2.133092E+02 -3.212079E+00 -3.964121E+01
        59  23  1.064677E+03 -4.314989E+01  1.222180E+00 -2.234860E+02 -5.756965E+00 -4.005469E+01
        59  24  1.026095E+03 -4.152202E+01 -1.506848E-01 -2.337480E+02 -8.477181E+00 -4.046961E+01
        59  25  1.090711E+03 -3.262339E+01  1.294252E+00 -2.125297E+02 -3.409285E+00 -3.725441E+01
        59  26  1.056393E+03 -2.934809E+01  9.864356E-01 -2.212334E+02 -5.876448E+00 -3.751295E+01
        59  27  1.019614E+03 -2.710823E+01 -3.091253E-01 -2.300064E+02 -8.518846E+00 -3.777180E+01
        60   1  1.200181E+03 -5.532561E+01  4.287218E+00 -1.775120E+02 -2.658099E+00  3.954378E+01
        60   2  1.166769E+03 -5.766980E+01  3.273380E+00 -1.918680E+02 -6.126005E-01  4.058865E+01
        60   3  1.131300E+03 -6.082789E+01  1.644355E+00 -2.065774E+02  1.602902E+00  4.163591E+01
        60   4  1.188246E+03 -4.247387E+01  4.751157E+00 -1.798096E+02 -2.489058E+00  3.754281E+01
        60   5  1.155837E+03 -4.373195E+01  3.832049E+00 -1.928883E+02 -4.217433E-01  3.843080E+01
        60   6  1.121354E+03 -4.581726E+01  2.252725E+00 -2.063093E+02  1.816824E+00  3.932018E+01
        60   7  1.175410E+03 -3.177579E+01  4.280608E+00 -1.822799E+02 -2.319128E+00  3.552125E+01
        60   8  1.143994E+03 -3.197460E+01  3.443061E+00 -1.940792E+02 -2.298494E-01  3.625120E+01
        60   9  1.110485E+03 -3.301417E+01  1.900181E+00 -2.062095E+02  2.031945E+00  3.698147E+01
        60  10  1.200181E+03 -5.532561E+01  4.287218E+00 -1.775120E+02 -3.152526E-13 -2.276825E-13
        60  11  1.166769E+03 -5.766980E+01  3.273380E+00 -1.918680E+02 -3.327667E-13 -4.816360E-14
        60  12  1.131300E+03 -6.082789E+01  1.644355E+00 -2.065774E+02  4.378509E-14 -1.855393E-13
        60  13  1.188246E+03 -4.247387E+01  4.751157E+00 -1.798096E+02 -7.881316E-14  3.590377E-13
        60  14  1.155837E+03 -4.373195E+01  3.832049E+00 -1.928883E+02 -1.860866E-13 -7.005614E-14
        60  15  1.121354E+03 -4.581726E+01  2.252725E+00 -2.063093E+02  0.000000E+00 -4.892984E-13
        60  16  1.175410E+03 -3.177579E+01  4.280608E+00 -1.822799E+02  1.401123E-13  4.466079E-13
        60  17  1.143994E+03 -3.197460E+01  3.443061E+00 -1.940792E+02  2.101684E-13 -1.751404E-14
        60  18  1.110485E+03 -3.301417E+01  1.900181E+00 -2.062095E+02  6.567763E-14 -2.282298E-13
        60  19  1.200181E+03 -5.532561E+01  4.287218E+00 -1.775120E+02  2.658099E+00 -3.954378E+01
        60  20  1.166769E+03 -5.766980E+01  3.273380E+00 -1.918680E+02  6.126005E-01 -4.058865E+01
        60  21  1.131300E+03 -6.082789E+01  1.644355E+00 -2.065774E+02 -1.602902E+00 -4.163591E+01
        60  22  1.188246E+03 -4.247387E+01  4.751157E+00 -1.798096E+02  2.489058E+00 -3.754281E+01
        60  23  1.155837E+03 -4.373195E+01  3.832049E+00 -1.928883E+02  4.217433E-01 -3.843080E+01
        60  24  1.121354E+03 -4.581726E+01  2.252725E+00 -2.063093E+02 -1.816824E+00 -3.932018E+01
        60  25  1.175410E+03 -3.177579E+01  4.280608E+00 -1.822799E+02  2.319128E+00 -3.552125E+01
        60  26  1.143994E+03 -3.197460E+01  3.443061E+00 -1.940792E+02  2.298494E-01 -3.625120E+01
        60  27  1.110485E+03 -3.301417E+01  1.900181E+00 -2.062095E+02 -2.031945E+00 -3.698147E+01
        61   1  1.258291E+03 -8.647816E+01  5.209185E+00 -1.520694E+02 -5.210145E+00  4.313111E+01
        61   2  1.243058E+03 -7.225833E+01  5.635758E+00 -1.591100E+02 -4.576280E+00  4.160776E+01
        61   3  1.227117E+03 -5.948142E+01  5.280344E+00 -1.657736E+02 -3.933982E+00  3.989229E+01
        61   4  1.290149E+03 -7.597544E+01  7.507141E+00 -1.338985E+02 -6.488466E+00  4.109439E+01
        61   5  1.275217E+03 -6.346435E+01  7.916663E+00 -1.418699E+02 -6.048437E+00  3.977756E+01
        61   6  1.259600E+03 -5.238820E+01  7.596361E+00 -1.494722E+02 -5.601110E+00  3.827126E+01
        61   7  1.320629E+03 -6.591016E+01  9.761541E+00 -1.164392E+02 -7.564798E+00  3.905890E+01
        61   8  1.305947E+03 -5.514529E+01  1.007427E+01 -1.253473E+02 -7.315909E+00  3.794838E+01
        61   9  1.290602E+03 -4.580734E+01  9.709309E+00 -1.338939E+02 -7.060824E+00  3.665103E+01
        61  10  1.258291E+03 -8.647816E+01  5.209185E+00 -1.520694E+02 -1.751404E-13 -4.378509E-15
        61  11  1.243058E+03 -7.225833E+01  5.635758E+00 -1.591100E+02 -3.502807E-14  1.926544E-13
        61  12  1.227117E+03 -5.948142E+01  5.280344E+00 -1.657736E+02  3.809303E-13  2.484804E-13
        61  13  1.290149E+03 -7.597544E+01  7.507141E+00 -1.338985E+02  0.000000E+00  1.532478E-14
        61  14  1.275217E+03 -6.346435E+01  7.916663E+00 -1.418699E+02  1.401123E-13  1.376494E-13
        61  15  1.259600E+03 -5.238820E+01  7.596361E+00 -1.494722E+02  4.816360E-13  2.818665E-14
        61  16  1.320629E+03 -6.591016E+01  9.761541E+00 -1.164392E+02 -2.977386E-13  4.247154E-13
        61  17  1.305947E+03 -5.514529E+01  1.007427E+01 -1.253473E+02  5.254211E-14 -5.692061E-14
        61  18  1.290602E+03 -4.580734E+01  9.709309E+00 -1.338939E+02  4.903930E-13 -3.612270E-14
        61  19  1.258291E+03 -8.647816E+01  5.209185E+00 -1.520694E+02  5.210145E+00 -4.313111E+01
        61  20  1.243058E+03 -7.225833E+01  5.635758E+00 -1.591100E+02  4.576280E+00 -4.160776E+01
        61  21  1.227117E+03 -5.948142E+01  5.280344E+00 -1.657736E+02  3.933982E+00 -3.989229E+01
        61  22  1.290149E+03 -7.597544E+01  7.507141E+00 -1.338985E+02  6.488466E+00 -4.109439E+01
        61  23  1.275217E+03 -6.346435E+01  7.916663E+00 -1.418699E+02  6.048437E+00 -3.977756E+01
        61  24  1.259600E+03 -5.238820E+01  7.596361E+00 -1.494722E+02  5.601110E+00 -3.827126E+01
        61  25  1.320629E+03 -6.591016E+01  9.761541E+00 -1.164392E+02  7.564798E+00 -3.905890E+01
        61  26  1.305947E+03 -5.514529E+01  1.007427E+01 -1.253473E+02  7.315909E+00 -3.794838E+01
        61  27  1.290602E+03 -4.580734E+01  9.709309E+00 -1.338939E+02  7.060824E+00 -3.665103E+01
        62   1  1.219294E+03 -5.215353E+01  5.422656E+00 -1.685514E+02 -3.745846E+00  3.883089E+01
        62   2  1.206766E+03 -4.046003E+01  5.657670E+00 -1.716147E+02 -3.612885E+00  3.696140E+01
        62   3  1.193590E+03 -3.026164E+01  5.237447E+00 -1.746139E+02 -3.475624E+00  3.499240E+01
        62   4  1.251156E+03 -4.620520E+01  7.485109E+00 -1.528899E+02 -5.453424E+00  3.731210E+01
        62   5  1.238161E+03 -3.588811E+01  7.653635E+00 -1.567424E+02 -5.415282E+00  3.558366E+01
        62   6  1.224524E+03 -2.706847E+01  7.187157E+00 -1.605365E+02 -5.373434E+00  3.375746E+01
        62   7  1.282189E+03 -4.049484E+01  9.596565E+00 -1.377153E+02 -7.025075E+00  3.579375E+01
        62   8  1.268697E+03 -3.157738E+01  9.646569E+00 -1.423602E+02 -7.080022E+00  3.420618E+01
        62   9  1.254568E+03 -2.415975E+01  9.081752E+00 -1.469525E+02 -7.131838E+00  3.252257E+01
        62  10  1.219294E+03 -5.215353E+01  5.422656E+00 -1.685514E+02 -3.502807E-14  2.802246E-13
        62  11  1.206766E+03 -4.046003E+01  5.657670E+00 -1.716147E+02 -3.502807E-14  1.291660E-13
        62  12  1.193590E+03 -3.026164E+01  5.237447E+00 -1.746139E+02  3.327667E-13  2.692783E-13
        62  13  1.251156E+03 -4.620520E+01  7.485109E+00 -1.528899E+02 -3.502807E-13 -7.744487E-14
        62  14  1.238161E+03 -3.588811E+01  7.653635E+00 -1.567424E+02  3.502807E-14 -2.458806E-13
        62  15  1.224524E+03 -2.706847E+01  7.187157E+00 -1.605365E+02  2.977386E-13 -7.286112E-15
        62  16  1.282189E+03 -4.049484E+01  9.596565E+00 -1.377153E+02 -8.932158E-13 -7.005614E-13
        62  17  1.268697E+03 -3.157738E+01  9.646569E+00 -1.423602E+02  3.502807E-14 -5.582599E-13
        62  18  1.254568E+03 -2.415975E+01  9.081752E+00 -1.469525E+02  6.655333E-13 -5.681115E-13
        62  19  1.219294E+03 -5.215353E+01  5.422656E+00 -1.685514E+02  3.745846E+00 -3.883089E+01
        62  20  1.206766E+03 -4.046003E+01  5.657670E+00 -1.716147E+02  3.612885E+00 -3.696140E+01
        62  21  1.193590E+03 -3.026164E+01  5.237447E+00 -1.746139E+02  3.475624E+00 -3.499240E+01
        62  22  1.251156E+03 -4.620520E+01  7.485109E+00 -1.528899E+02  5.453424E+00 -3.731210E+01
        62  23  1.238161E+03 -3.588811E+01  7.653635E+00 -1.567424E+02  5.415282E+00 -3.558366E+01
        62  24  1.224524E+03 -2.706847E+01  7.187157E+00 -1.605365E+02  5.373434E+00 -3.375746E+01
        62  25  1.282189E+03 -4.049484E+01  9.596565E+00 -1.377153E+02  7.025075E+00 -3.579375E+01
        62  26  1.268697E+03 -3.157738E+01  9.646569E+00 -1.423602E+02  7.080022E+00 -3.420618E+01
        62  27  1.254568E+03 -2.415975E+01  9.081752E+00 -1.469525E+02  7.131838E+00 -3.252257E+01
        63   1  1.300413E+03 -3.593869E+01  1.141550E+01 -1.287116E+02 -7.863728E+00  3.477687E+01
        63   2  1.286402E+03 -2.839654E+01  1.114212E+01 -1.336475E+02 -7.983625E+00  3.328179E+01
        63   3  1.272110E+03 -2.152735E+01  1.062266E+01 -1.385047E+02 -8.099561E+00  3.165312E+01
        63   4  1.331457E+03 -2.943673E+01  1.447721E+01 -1.129996E+02 -9.181190E+00  3.249048E+01
        63   5  1.316998E+03 -2.326087E+01  1.405340E+01 -1.180317E+02 -9.429463E+00  3.111448E+01
        63   6  1.302270E+03 -1.775522E+01  1.341620E+01 -1.229849E+02 -9.674527E+00  2.960647E+01
        63   7  1.363446E+03 -2.234977E+01  1.855446E+01 -9.775618E+01 -1.038963E+01  3.020431E+01
        63   8  1.348528E+03 -1.755410E+01  1.794113E+01 -1.028891E+02 -1.076469E+01  2.894726E+01
        63   9  1.333353E+03 -1.342578E+01  1.714712E+01 -1.079428E+02 -1.113729E+01  2.755979E+01
        63  10  1.300413E+03 -3.593869E+01  1.141550E+01 -1.287116E+02 -3.152526E-13 -4.378509E-15
        63  11  1.286402E+03 -2.839654E+01  1.114212E+01 -1.336475E+02 -1.751404E-14  5.604491E-13
        63  12  1.272110E+03 -2.152735E+01  1.062266E+01 -1.385047E+02  4.028228E-13  4.323777E-14
        63  13  1.331457E+03 -2.943673E+01  1.447721E+01 -1.129996E+02  0.000000E+00  1.702145E-13
        63  14  1.316998E+03 -2.326087E+01  1.405340E+01 -1.180317E+02 -3.502807E-14  3.876349E-13
        63  15  1.302270E+03 -1.775522E+01  1.341620E+01 -1.229849E+02 -1.488693E-13  1.465432E-13
        63  16  1.363446E+03 -2.234977E+01  1.855446E+01 -9.775618E+01  6.830474E-13  1.444908E-13
        63  17  1.348528E+03 -1.755410E+01  1.794113E+01 -1.028891E+02  5.254211E-14  2.079792E-13
        63  18  1.333353E+03 -1.342578E+01  1.714712E+01 -1.079428E+02 -7.925101E-13  1.138412E-13
        63  19  1.300413E+03 -3.593869E+01  1.141550E+01 -1.287116E+02  7.863728E+00 -3.477687E+01
        63  20  1.286402E+03 -2.839654E+01  1.114212E+01 -1.336475E+02  7.983625E+00 -3.328179E+01
        63  21  1.272110E+03 -2.152735E+01  1.062266E+01 -1.385047E+02  8.099561E+00 -3.165312E+01
        63  22  1.331457E+03 -2.943673E+01  1.447721E+01 -1.129996E+02  9.181190E+00 -3.249048E+01
        63  23  1.316998E+03 -2.326087E+01  1.405340E+01 -1.180317E+02  9.429463E+00 -3.111448E+01
        63  24  1.302270E+03 -1.775522E+01  1.341620E+01 -1.229849E+02  9.674527E+00 -2.960647E+01
        63  25  1.363446E+03 -2.234977E+01  1.855446E+01 -9.775618E+01  1.038963E+01 -3.020431E+01
        63  26  1.348528E+03 -1.755410E+01  1.794113E+01 -1.028891E+02  1.076469E+01 -2.894726E+01
        63  27  1.333353E+03 -1.342578E+01  1.714712E+01 -1.079428E+02  1.113729E+01 -2.755979E+01
        64   1  1.338499E+03 -5.838433E+01  1.184272E+01 -1.066676E+02 -8.085275E+00  3.780396E+01
        64   2  1.323730E+03 -4.930698E+01  1.180300E+01 -1.159214E+02 -7.961441E+00  3.681453E+01
        64   3  1.308702E+03 -4.072736E+01  1.151351E+01 -1.247269E+02 -7.830506E+00  3.558884E+01
        64   4  1.368733E+03 -4.757893E+01  1.512840E+01 -9.091682E+01 -8.839025E+00  3.518286E+01
        64   5  1.354424E+03 -4.018399E+01  1.499822E+01 -1.001122E+02 -8.951731E+00  3.432325E+01
        64   6  1.339884E+03 -3.327571E+01  1.468553E+01 -1.088585E+02 -9.058646E+00  3.322933E+01
        64   7  1.400289E+03 -3.600684E+01  1.968648E+01 -7.586802E+01 -9.472848E+00  3.256256E+01
        64   8  1.386425E+03 -3.030897E+01  1.942230E+01 -8.501189E+01 -9.820118E+00  3.183257E+01
        64   9  1.372361E+03 -2.508669E+01  1.904287E+01 -9.370579E+01 -1.016289E+01  3.087019E+01
        64  10  1.338499E+03 -5.838433E+01  1.184272E+01 -1.066676E+02 -2.451965E-13  2.933601E-13
        64  11  1.323730E+03 -4.930698E+01  1.180300E+01 -1.159214E+02 -1.751404E-14 -8.757018E-15
        64  12  1.308702E+03 -4.072736E+01  1.151351E+01 -1.247269E+02  2.451965E-13 -7.005614E-14
        64  13  1.368733E+03 -4.757893E+01  1.512840E+01 -9.091682E+01 -7.005614E-14  5.856255E-14
        64  14  1.354424E+03 -4.018399E+01  1.499822E+01 -1.001122E+02 -7.005614E-14  3.393344E-14
        64  15  1.339884E+03 -3.327571E+01  1.468553E+01 -1.088585E+02 -8.757018E-15  2.271351E-14
        64  16  1.400289E+03 -3.600684E+01  1.968648E+01 -7.586802E+01  1.751404E-14  3.064956E-14
        64  17  1.386425E+03 -3.030897E+01  1.942230E+01 -8.501189E+01 -1.751404E-14  2.627105E-14
        64  18  1.372361E+03 -2.508669E+01  1.904287E+01 -9.370579E+01  6.567763E-14 -1.806135E-13
        64  19  1.338499E+03 -5.838433E+01  1.184272E+01 -1.066676E+02  8.085275E+00 -3.780396E+01
        64  20  1.323730E+03 -4.930698E+01  1.180300E+01 -1.159214E+02  7.961441E+00 -3.681453E+01
        64  21  1.308702E+03 -4.072736E+01  1.151351E+01 -1.247269E+02  7.830506E+00 -3.558884E+01
        64  22  1.368733E+03 -4.757893E+01  1.512840E+01 -9.091682E+01  8.839025E+00 -3.518286E+01
        64  23  1.354424E+03 -4.018399E+01  1.499822E+01 -1.001122E+02  8.951731E+00 -3.432325E+01
        64  24  1.339884E+03 -3.327571E+01  1.468553E+01 -1.088585E+02  9.058646E+00 -3.322933E+01
        64  25  1.400289E+03 -3.600684E+01  1.968648E+01 -7.586802E+01  9.472848E+00 -3.256256E+01
        64  26  1.386425E+03 -3.030897E+01  1.942230E+01 -8.501189E+01  9.820118E+00 -3.183257E+01
        64  27  1.372361E+03 -2.508669E+01  1.904287E+01 -9.370579E+01  1.016289E+01 -3.087019E+01
        65   1  1.351679E+03 -1.066086E+01  1.969686E+01 -9.862506E+01 -1.192987E+01  2.606975E+01
        65   2  1.383524E+03 -8.003577E+00  2.420142E+01 -8.093413E+01 -1.316308E+01  2.245865E+01
        65   3  1.418363E+03 -3.775893E+00  3.094564E+01 -6.350927E+01 -1.425586E+01  1.884749E+01
        65   4  1.367177E+03 -1.427865E+01  2.053357E+01 -9.362235E+01 -1.148727E+01  2.738208E+01
        65   5  1.399989E+03 -1.057121E+01  2.532802E+01 -7.661201E+01 -1.260663E+01  2.361641E+01
        65   6  1.435806E+03 -5.274296E+00  3.241177E+01 -5.986685E+01 -1.358635E+01  1.985048E+01
        65   7  1.382782E+03 -1.775621E+01  2.155688E+01 -8.879730E+01 -1.104277E+01  2.857793E+01
        65   8  1.416572E+03 -1.298986E+01  2.667284E+01 -7.246335E+01 -1.204867E+01  2.465847E+01
        65   9  1.453377E+03 -6.614931E+00  3.412781E+01 -5.639367E+01 -1.291573E+01  2.073858E+01
        65  10  1.351679E+03 -1.066086E+01  1.969686E+01 -9.862506E+01 -5.254211E-13 -1.313553E-13
        65  11  1.383524E+03 -8.003577E+00  2.420142E+01 -8.093413E+01 -1.225982E-13 -5.473136E-14
        65  12  1.418363E+03 -3.775893E+00  3.094564E+01 -6.350927E+01 -2.846031E-13  4.706897E-14
        65  13  1.367177E+03 -1.427865E+01  2.053357E+01 -9.362235E+01 -4.597434E-14  2.101684E-13
        65  14  1.399989E+03 -1.057121E+01  2.532802E+01 -7.661201E+01  7.224539E-14 -8.757018E-14
        65  15  1.435806E+03 -5.274296E+00  3.241177E+01 -5.986685E+01  1.236929E-13 -7.224539E-14
        65  16  1.382782E+03 -1.775621E+01  2.155688E+01 -8.879730E+01  5.954772E-13 -4.378509E-14
        65  17  1.416572E+03 -1.298986E+01  2.667284E+01 -7.246335E+01  6.129912E-13 -1.247875E-13
        65  18  1.453377E+03 -6.614931E+00  3.412781E+01 -5.639367E+01  6.392623E-13  4.214315E-14
        65  19  1.351679E+03 -1.066086E+01  1.969686E+01 -9.862506E+01  1.192987E+01 -2.606975E+01
        65  20  1.383524E+03 -8.003577E+00  2.420142E+01 -8.093413E+01  1.316308E+01 -2.245865E+01
        65  21  1.418363E+03 -3.775893E+00  3.094564E+01 -6.350927E+01  1.425586E+01 -1.884749E+01
        65  22  1.367177E+03 -1.427865E+01  2.053357E+01 -9.362235E+01  1.148727E+01 -2.738208E+01
        65  23  1.399989E+03 -1.057121E+01  2.532802E+01 -7.661201E+01  1.260663E+01 -2.361641E+01
        65  24  1.435806E+03 -5.274296E+00  3.241177E+01 -5.986685E+01  1.358635E+01 -1.985048E+01
        65  25  1.382782E+03 -1.775621E+01  2.155688E+01 -8.879730E+01  1.104277E+01 -2.857793E+01
        65  26  1.416572E+03 -1.298986E+01  2.667284E+01 -7.246335E+01  1.204867E+01 -2.465847E+01
        65  27  1.453377E+03 -6.614931E+00  3.412781E+01 -5.639367E+01  1.291573E+01 -2.073858E+01
        66   1  1.439082E+03 -1.897714E+00  3.524040E+01 -5.243952E+01 -1.480515E+01  1.614899E+01
        66   2  1.475484E+03 -1.794304E+00  4.310042E+01 -3.038757E+01 -1.548174E+01  9.521601E+00
        66   3  1.516890E+03  9.793759E-01  5.485975E+01 -8.155285E+00 -1.584680E+01  2.893898E+00
        66   4  1.457463E+03 -2.966142E+00  3.697793E+01 -4.912585E+01 -1.408845E+01  1.700968E+01
        66   5  1.496117E+03 -2.506438E+00  4.544607E+01 -2.829078E+01 -1.471689E+01  1.004819E+01
        66   6  1.539803E+03  6.645077E-01  5.792127E+01 -7.278853E+00 -1.503606E+01  3.086064E+00
        66   7  1.476155E+03 -3.485506E+00  3.914794E+01 -4.652240E+01 -1.337139E+01  1.782018E+01
        66   8  1.517058E+03 -2.660784E+00  4.823686E+01 -2.689825E+01 -1.395184E+01  1.052680E+01
        66   9  1.563025E+03  9.161540E-01  6.144057E+01 -7.100643E+00 -1.422530E+01  3.232497E+00
        66  10  1.439082E+03 -1.897714E+00  3.524040E+01 -5.243952E+01 -2.802246E-13  3.502807E-14
        66  11  1.475484E+03 -1.794304E+00  4.310042E+01 -3.038757E+01  2.802246E-13 -1.225982E-13
        66  12  1.516890E+03  9.793759E-01  5.485975E+01 -8.155285E+00  1.094627E-13 -1.510586E-13
        66  13  1.457463E+03 -2.966142E+00  3.697793E+01 -4.912585E+01 -2.627105E-14 -1.401123E-13
        66  14  1.496117E+03 -2.506438E+00  4.544607E+01 -2.829078E+01 -8.893846E-14 -2.014114E-13
        66  15  1.539803E+03  6.645077E-01  5.792127E+01 -7.278853E+00 -1.110362E-13 -8.757018E-15
        66  16  1.476155E+03 -3.485506E+00  3.914794E+01 -4.652240E+01  3.152526E-13  9.632719E-14
        66  17  1.517058E+03 -2.660784E+00  4.823686E+01 -2.689825E+01 -1.751404E-14 -7.881316E-14
        66  18  1.563025E+03  9.161540E-01  6.144057E+01 -7.100643E+00 -4.203368E-13 -1.412069E-13
        66  19  1.439082E+03 -1.897714E+00  3.524040E+01 -5.243952E+01  1.480515E+01 -1.614899E+01
        66  20  1.475484E+03 -1.794304E+00  4.310042E+01 -3.038757E+01  1.548174E+01 -9.521601E+00
        66  21  1.516890E+03  9.793759E-01  5.485975E+01 -8.155285E+00  1.584680E+01 -2.893898E+00
        66  22  1.457463E+03 -2.966142E+00  3.697793E+01 -4.912585E+01  1.408845E+01 -1.700968E+01
        66  23  1.496117E+03 -2.506438E+00  4.544607E+01 -2.829078E+01  1.471689E+01 -1.004819E+01
        66  24  1.539803E+03  6.645077E-01  5.792127E+01 -7.278853E+00  1.503606E+01 -3.086064E+00
        66  25  1.476155E+03 -3.485506E+00  3.914794E+01 -4.652240E+01  1.337139E+01 -1.782018E+01
        66  26  1.517058E+03 -2.660784E+00  4.823686E+01 -2.689825E+01  1.395184E+01 -1.052680E+01
        66  27  1.563025E+03  9.161540E-01  6.144057E+01 -7.100643E+00  1.422530E+01 -3.232497E+00
        67   1  1.486493E+03 -3.825043E+00  4.032279E+01 -4.414005E+01 -1.285154E+01  1.823435E+01
        67   2  1.527561E+03 -3.163314E+00  4.932548E+01 -2.554974E+01 -1.333897E+01  1.078292E+01
        67   3  1.576570E+03  1.499148E+00  6.372300E+01 -6.923375E+00 -1.363934E+01  3.330821E+00
        67   4  1.500919E+03 -5.299396E+00  4.125778E+01 -3.873500E+01 -1.188343E+01  1.882107E+01
        67   5  1.543583E+03 -4.157360E+00  5.075689E+01 -2.226338E+01 -1.228183E+01  1.115826E+01
        67   6  1.594180E+03  1.000459E+00  6.571042E+01 -5.759379E+00 -1.249429E+01  3.494657E+00
        67   7  1.515832E+03 -5.841314E+00  4.285328E+01 -3.377606E+01 -1.091456E+01  1.931774E+01
        67   8  1.560100E+03 -4.206739E+00  5.287527E+01 -1.941073E+01 -1.122426E+01  1.144471E+01
        67   9  1.612292E+03  1.458873E+00  6.841144E+01 -5.016579E+00 -1.134914E+01  3.570768E+00
        67  10  1.486493E+03 -3.825043E+00  4.032279E+01 -4.414005E+01 -5.954772E-13  2.802246E-13
        67  11  1.527561E+03 -3.163314E+00  4.932548E+01 -2.554974E+01 -5.254211E-14 -1.532478E-13
        67  12  1.576570E+03  1.499148E+00  6.372300E+01 -6.923375E+00  2.583320E-13 -2.178308E-13
        67  13  1.500919E+03 -5.299396E+00  4.125778E+01 -3.873500E+01 -5.582599E-14  1.751404E-14
        67  14  1.543583E+03 -4.157360E+00  5.075689E+01 -2.226338E+01  1.964856E-13 -2.802246E-13
        67  15  1.594180E+03  1.000459E+00  6.571042E+01 -5.759379E+00  2.332924E-14 -1.904651E-13
        67  16  1.515832E+03 -5.841314E+00  4.285328E+01 -3.377606E+01  3.152526E-13  3.502807E-14
        67  17  1.560100E+03 -4.206739E+00  5.287527E+01 -1.941073E+01  3.502807E-13 -1.532478E-13
        67  18  1.612292E+03  1.458873E+00  6.841144E+01 -5.016579E+00 -5.210425E-13 -3.612270E-14
        67  19  1.486493E+03 -3.825043E+00  4.032279E+01 -4.414005E+01  1.285154E+01 -1.823435E+01
        67  20  1.527561E+03 -3.163314E+00  4.932548E+01 -2.554974E+01  1.333897E+01 -1.078292E+01
        67  21  1.576570E+03  1.499148E+00  6.372300E+01 -6.923375E+00  1.363934E+01 -3.330821E+00
        67  22  1.500919E+03 -5.299396E+00  4.125778E+01 -3.873500E+01  1.188343E+01 -1.882107E+01
        67  23  1.543583E+03 -4.157360E+00  5.075689E+01 -2.226338E+01  1.228183E+01 -1.115826E+01
        67  24  1.594180E+03  1.000459E+00  6.571042E+01 -5.759379E+00  1.249429E+01 -3.494657E+00
        67  25  1.515832E+03 -5.841314E+00  4.285328E+01 -3.377606E+01  1.091456E+01 -1.931774E+01
        67  26  1.560100E+03 -4.206739E+00  5.287527E+01 -1.941073E+01  1.122426E+01 -1.144471E+01
        67  27  1.612292E+03  1.458873E+00  6.841144E+01 -5.016579E+00  1.134914E+01 -3.570768E+00
        68   1  1.391619E+03 -2.004338E+01  2.205474E+01 -8.489826E+01 -1.074062E+01  2.920371E+01
        68   2  1.425284E+03 -1.477666E+01  2.712895E+01 -6.897172E+01 -1.163692E+01  2.521109E+01
        68   3  1.463472E+03 -7.246172E+00  3.521061E+01 -5.352762E+01 -1.245040E+01  2.121816E+01
        68   4  1.405454E+03 -2.464406E+01  2.240116E+01 -7.643248E+01 -1.026970E+01  3.009962E+01
        68   5  1.439181E+03 -1.808206E+01  2.765569E+01 -6.170163E+01 -1.096035E+01  2.600916E+01
        68   6  1.477421E+03 -9.249577E+00  3.594427E+01 -4.745187E+01 -1.156838E+01  2.191835E+01
        68   7  1.419515E+03 -2.878445E+01  2.307126E+01 -6.777872E+01 -9.795333E+00  3.078988E+01
        68   8  1.453328E+03 -2.091014E+01  2.856722E+01 -5.423526E+01 -1.028101E+01  2.660173E+01
        68   9  1.491646E+03 -1.075864E+01  3.712383E+01 -4.117151E+01 -1.068427E+01  2.241321E+01
        68  10  1.391619E+03 -2.004338E+01  2.205474E+01 -8.489826E+01 -4.553649E-13 -1.050842E-13
        68  11  1.425284E+03 -1.477666E+01  2.712895E+01 -6.897172E+01  1.576263E-13  8.319167E-14
        68  12  1.463472E+03 -7.246172E+00  3.521061E+01 -5.352762E+01 -5.254211E-14 -6.567763E-15
        68  13  1.405454E+03 -2.464406E+01  2.240116E+01 -7.643248E+01  1.849920E-13 -1.225982E-13
        68  14  1.439181E+03 -1.808206E+01  2.765569E+01 -6.170163E+01  8.975943E-14  2.364395E-13
        68  15  1.477421E+03 -9.249577E+00  3.594427E+01 -4.745187E+01  1.291660E-13  1.116520E-13
        68  16  1.419515E+03 -2.878445E+01  2.307126E+01 -6.777872E+01  1.050842E-13 -7.049399E-13
        68  17  1.453328E+03 -2.091014E+01  2.856722E+01 -5.423526E+01  2.977386E-13  6.567763E-14
        68  18  1.491646E+03 -1.075864E+01  3.712383E+01 -4.117151E+01  5.735846E-13  8.800803E-13
        68  19  1.391619E+03 -2.004338E+01  2.205474E+01 -8.489826E+01  1.074062E+01 -2.920371E+01
        68  20  1.425284E+03 -1.477666E+01  2.712895E+01 -6.897172E+01  1.163692E+01 -2.521109E+01
        68  21  1.463472E+03 -7.246172E+00  3.521061E+01 -5.352762E+01  1.245040E+01 -2.121816E+01
        68  22  1.405454E+03 -2.464406E+01  2.240116E+01 -7.643248E+01  1.026970E+01 -3.009962E+01
        68  23  1.439181E+03 -1.808206E+01  2.765569E+01 -6.170163E+01  1.096035E+01 -2.600916E+01
        68  24  1.477421E+03 -9.249577E+00  3.594427E+01 -4.745187E+01  1.156838E+01 -2.191835E+01
        68  25  1.419515E+03 -2.878445E+01  2.307126E+01 -6.777872E+01  9.795333E+00 -3.078988E+01
        68  26  1.453328E+03 -2.091014E+01  2.856722E+01 -5.423526E+01  1.028101E+01 -2.660173E+01
        68  27  1.491646E+03 -1.075864E+01  3.712383E+01 -4.117151E+01  1.068427E+01 -2.241321E+01
        69   1  8.191256E+02  1.190644E+01 -3.238877E+00 -2.345679E+02  2.379890E+01  3.436926E+01
        69   2  8.586656E+02  2.634618E+00 -2.552652E+00 -2.383045E+02  2.072232E+01  3.550814E+01
        69   3  8.981783E+02 -6.736238E+00 -2.180447E+00 -2.415214E+02  1.766375E+01  3.664709E+01
        69   4  8.115053E+02 -2.015972E+00 -3.838664E+00 -2.433723E+02  2.478529E+01  3.726574E+01
        69   5  8.541584E+02 -1.165569E+01 -2.965573E+00 -2.463855E+02  2.146028E+01  3.841400E+01
        69   6  8.966952E+02 -2.142114E+01 -2.451364E+00 -2.488972E+02  1.815857E+01  3.956250E+01
        69   7  8.031636E+02 -1.829240E+01 -5.103277E+00 -2.532758E+02  2.575671E+01  4.040424E+01
        69   8  8.489188E+02 -2.827280E+01 -4.091130E+00 -2.555424E+02  2.218364E+01  4.155691E+01
        69   9  8.944682E+02 -3.840675E+01 -3.483233E+00 -2.573262E+02  1.863915E+01  4.271009E+01
        69  10  8.191256E+02  1.190644E+01 -3.238877E+00 -2.345679E+02 -2.802246E-13 -3.688894E-13
        69  11  8.586656E+02  2.634618E+00 -2.552652E+00 -2.383045E+02 -4.203368E-13  1.806135E-14
        69  12  8.981783E+02 -6.736238E+00 -2.180447E+00 -2.415214E+02 -3.590377E-13  2.592898E-13
        69  13  8.115053E+02 -2.015972E+00 -3.838664E+00 -2.433723E+02 -4.378509E-15 -3.196311E-13
        69  14  8.541584E+02 -1.165569E+01 -2.965573E+00 -2.463855E+02 -1.488693E-13  2.189254E-15
        69  15  8.966952E+02 -2.142114E+01 -2.451364E+00 -2.488972E+02 -4.597434E-14  2.791299E-13
        69  16  8.031636E+02 -1.829240E+01 -5.103277E+00 -2.532758E+02  2.802246E-13 -2.977386E-13
        69  17  8.489188E+02 -2.827280E+01 -4.091130E+00 -2.555424E+02 -7.005614E-14 -4.378509E-15
        69  18  8.944682E+02 -3.840675E+01 -3.483233E+00 -2.573262E+02  2.189254E-13  1.603629E-13
        69  19  8.191256E+02  1.190644E+01 -3.238877E+00 -2.345679E+02 -2.379890E+01 -3.436926E+01
        69  20  8.586656E+02  2.634618E+00 -2.552652E+00 -2.383045E+02 -2.072232E+01 -3.550814E+01
        69  21  8.981783E+02 -6.736238E+00 -2.180447E+00 -2.415214E+02 -1.766375E+01 -3.664709E+01
        69  22  8.115053E+02 -2.015972E+00 -3.838664E+00 -2.433723E+02 -2.478529E+01 -3.726574E+01
        69  23  8.541584E+02 -1.165569E+01 -2.965573E+00 -2.463855E+02 -2.146028E+01 -3.841400E+01
        69  24  8.966952E+02 -2.142114E+01 -2.451364E+00 -2.488972E+02 -1.815857E+01 -3.956250E+01
        69  25  8.031636E+02 -1.829240E+01 -5.103277E+00 -2.532758E+02 -2.575671E+01 -4.040424E+01
        69  26  8.489188E+02 -2.827280E+01 -4.091130E+00 -2.555424E+02 -2.218364E+01 -4.155691E+01
        69  27  8.944682E+02 -3.840675E+01 -3.483233E+00 -2.573262E+02 -1.863915E+01 -4.271009E+01
        70   1  9.211388E+02 -1.165426E+01 -1.931401E+00 -2.411469E+02  1.589638E+01  3.705876E+01
        70   2  9.604058E+02 -1.764532E+01 -9.001317E-01 -2.376811E+02  1.294696E+01  3.740543E+01
        70   3  9.979444E+02 -2.440315E+01 -7.029128E-01 -2.339672E+02  1.012064E+01  3.775243E+01
        70   4  9.213205E+02 -2.636309E+01 -2.091767E+00 -2.480452E+02  1.626917E+01  3.997324E+01
        70   5  9.631363E+02 -3.228848E+01 -9.249902E-01 -2.433172E+02  1.314750E+01  4.022770E+01
        70   6  1.003167E+03 -3.899306E+01 -5.981883E-01 -2.383648E+02  1.015246E+01  4.048370E+01
        70   7  9.205714E+02 -4.371749E+01 -3.199421E+00 -2.558205E+02  1.663122E+01  4.306332E+01
        70   8  9.649374E+02 -4.953772E+01 -1.924374E+00 -2.498119E+02  1.333745E+01  4.322204E+01
        70   9  1.007462E+03 -5.615068E+01 -1.495696E+00 -2.436028E+02  1.017386E+01  4.338359E+01
        70  10  9.211388E+02 -1.165426E+01 -1.931401E+00 -2.411469E+02 -3.152526E-13 -4.728789E-13
        70  11  9.604058E+02 -1.764532E+01 -9.001317E-01 -2.376811E+02  1.926544E-13 -1.554371E-13
        70  12  9.979444E+02 -2.440315E+01 -7.029128E-01 -2.339672E+02  7.531035E-13 -5.035285E-14
        70  13  9.213205E+02 -2.636309E+01 -2.091767E+00 -2.480452E+02  1.138412E-13 -5.954772E-13
        70  14  9.631363E+02 -3.228848E+01 -9.249902E-01 -2.433172E+02 -8.757018E-15 -3.174419E-13
        70  15  1.003167E+03 -3.899306E+01 -5.981883E-01 -2.383648E+02  3.940658E-14  1.329972E-13
        70  16  9.205714E+02 -4.371749E+01 -3.199421E+00 -2.558205E+02  3.152526E-13 -7.531035E-13
        70  17  9.649374E+02 -4.953772E+01 -1.924374E+00 -2.498119E+02 -1.926544E-13 -1.641941E-13
        70  18  1.007462E+03 -5.615068E+01 -1.495696E+00 -2.436028E+02 -4.685004E-13  2.980123E-13
        70  19  9.211388E+02 -1.165426E+01 -1.931401E+00 -2.411469E+02 -1.589638E+01 -3.705876E+01
        70  20  9.604058E+02 -1.764532E+01 -9.001317E-01 -2.376811E+02 -1.294696E+01 -3.740543E+01
        70  21  9.979444E+02 -2.440315E+01 -7.029128E-01 -2.339672E+02 -1.012064E+01 -3.775243E+01
        70  22  9.213205E+02 -2.636309E+01 -2.091767E+00 -2.480452E+02 -1.626917E+01 -3.997324E+01
        70  23  9.631363E+02 -3.228848E+01 -9.249902E-01 -2.433172E+02 -1.314750E+01 -4.022770E+01
        70  24  1.003167E+03 -3.899306E+01 -5.981883E-01 -2.383648E+02 -1.015246E+01 -4.048370E+01
        70  25  9.205714E+02 -4.371749E+01 -3.199421E+00 -2.558205E+02 -1.663122E+01 -4.306332E+01
        70  26  9.649374E+02 -4.953772E+01 -1.924374E+00 -2.498119E+02 -1.333745E+01 -4.322204E+01
        70  27  1.007462E+03 -5.615068E+01 -1.495696E+00 -2.436028E+02 -1.017386E+01 -4.338359E+01
        71   1  9.209540E+02 -5.443541E+01 -3.729174E+00 -2.601901E+02  1.670111E+01  4.496612E+01
        71   2  9.672399E+02 -6.002736E+01 -2.231793E+00 -2.533262E+02  1.325204E+01  4.503902E+01
        71   3  1.010713E+03 -6.681691E+01 -1.978661E+00 -2.462364E+02  1.003191E+01  4.511830E+01
        71   4  9.241518E+02 -7.361395E+01 -4.098369E+00 -2.668517E+02  1.645257E+01  4.843960E+01
        71   5  9.734642E+02 -7.895712E+01 -2.389238E+00 -2.582637E+02  1.278637E+01  4.831638E+01
        71   6  1.019908E+03 -8.550528E+01 -1.906455E+00 -2.494805E+02  9.353606E+00  4.820202E+01
        71   7  9.262049E+02 -9.589564E+01 -5.749846E+00 -2.745336E+02  1.619065E+01  5.213189E+01
        71   8  9.785403E+02 -1.009495E+02 -3.870574E+00 -2.642000E+02  1.230756E+01  5.180804E+01
        71   9  1.027950E+03 -1.072174E+02 -3.200350E+00 -2.537022E+02  8.662408E+00  5.149561E+01
        71  10  9.209540E+02 -5.443541E+01 -3.729174E+00 -2.601901E+02 -5.604491E-13 -7.355895E-13
        71  11  9.672399E+02 -6.002736E+01 -2.231793E+00 -2.533262E+02 -4.728789E-13 -4.269046E-14
        71  12  1.010713E+03 -6.681691E+01 -1.978661E+00 -2.462364E+02 -4.816360E-14  6.488403E-13
        71  13  9.241518E+02 -7.361395E+01 -4.098369E+00 -2.668517E+02  1.204090E-13 -3.152526E-13
        71  14  9.734642E+02 -7.895712E+01 -2.389238E+00 -2.582637E+02 -1.992221E-13 -1.663833E-13
        71  15  1.019908E+03 -8.550528E+01 -1.906455E+00 -2.494805E+02 -1.094627E-13  2.829611E-13
        71  16  9.262049E+02 -9.589564E+01 -5.749846E+00 -2.745336E+02  4.553649E-13 -2.276825E-13
        71  17  9.785403E+02 -1.009495E+02 -3.870574E+00 -2.642000E+02  1.576263E-13 -2.298717E-14
        71  18  1.027950E+03 -1.072174E+02 -3.200350E+00 -2.537022E+02 -5.692061E-14  5.426614E-13
        71  19  9.209540E+02 -5.443541E+01 -3.729174E+00 -2.601901E+02 -1.670111E+01 -4.496612E+01
        71  20  9.672399E+02 -6.002736E+01 -2.231793E+00 -2.533262E+02 -1.325204E+01 -4.503902E+01
        71  21  1.010713E+03 -6.681691E+01 -1.978661E+00 -2.462364E+02 -1.003191E+01 -4.511830E+01
        71  22  9.241518E+02 -7.361395E+01 -4.098369E+00 -2.668517E+02 -1.645257E+01 -4.843960E+01
        71  23  9.734642E+02 -7.895712E+01 -2.389238E+00 -2.582637E+02 -1.278637E+01 -4.831638E+01
        71  24  1.019908E+03 -8.550528E+01 -1.906455E+00 -2.494805E+02 -9.353606E+00 -4.820202E+01
        71  25  9.262049E+02 -9.589564E+01 -5.749846E+00 -2.745336E+02 -1.619065E+01 -5.213189E+01
        71  26  9.785403E+02 -1.009495E+02 -3.870574E+00 -2.642000E+02 -1.230756E+01 -5.180804E+01
        71  27  1.027950E+03 -1.072174E+02 -3.200350E+00 -2.537022E+02 -8.662408E+00 -5.149561E+01
        72   1  7.988117E+02 -2.835957E+01 -5.749733E+00 -2.590783E+02  2.623652E+01  4.235319E+01
        72   2  8.464698E+02 -3.859344E+01 -4.669853E+00 -2.609073E+02  2.248116E+01  4.349262E+01
        72   3  8.936986E+02 -4.905893E+01 -4.087606E+00 -2.621257E+02  1.880349E+01  4.463410E+01
        72   4  7.923520E+02 -4.685090E+01 -6.764273E+00 -2.685663E+02  2.681466E+01  4.596253E+01
        72   5  8.438990E+02 -5.740082E+01 -5.404632E+00 -2.693618E+02  2.272284E+01  4.705203E+01
        72   6  8.949165E+02 -6.821065E+01 -4.581066E+00 -2.695710E+02  1.871572E+01  4.814466E+01
        72   7  7.849547E+02 -6.823805E+01 -8.751869E+00 -2.794061E+02  2.737301E+01  4.989565E+01
        72   8  8.403725E+02 -7.907810E+01 -7.184161E+00 -2.791400E+02  2.294512E+01  5.092856E+01
        72   9  8.951599E+02 -9.020780E+01 -6.191542E+00 -2.783122E+02  1.860892E+01  5.196581E+01
        72  10  7.988117E+02 -2.835957E+01 -5.749733E+00 -2.590783E+02 -3.502807E-13 -4.203368E-13
        72  11  8.464698E+02 -3.859344E+01 -4.669853E+00 -2.609073E+02 -7.355895E-13  1.806135E-14
        72  12  8.936986E+02 -4.905893E+01 -4.087606E+00 -2.621257E+02 -6.830474E-13  3.138843E-13
        72  13  7.923520E+02 -4.685090E+01 -6.764273E+00 -2.685663E+02  5.692061E-14  1.072735E-13
        72  14  8.438990E+02 -5.740082E+01 -5.404632E+00 -2.693618E+02 -1.269768E-13  3.721732E-14
        72  15  8.949165E+02 -6.821065E+01 -4.581066E+00 -2.695710E+02  1.050842E-13  6.649860E-14
        72  16  7.849547E+02 -6.823805E+01 -8.751869E+00 -2.794061E+02  4.553649E-13  2.473857E-13
        72  17  8.403725E+02 -7.907810E+01 -7.184161E+00 -2.791400E+02  4.203368E-13  5.473136E-14
        72  18  8.951599E+02 -9.020780E+01 -6.191542E+00 -2.783122E+02  5.166640E-13  1.063157E-13
        72  19  7.988117E+02 -2.835957E+01 -5.749733E+00 -2.590783E+02 -2.623652E+01 -4.235319E+01
        72  20  8.464698E+02 -3.859344E+01 -4.669853E+00 -2.609073E+02 -2.248116E+01 -4.349262E+01
        72  21  8.936986E+02 -4.905893E+01 -4.087606E+00 -2.621257E+02 -1.880349E+01 -4.463410E+01
        72  22  7.923520E+02 -4.685090E+01 -6.764273E+00 -2.685663E+02 -2.681466E+01 -4.596253E+01
        72  23  8.438990E+02 -5.740082E+01 -5.404632E+00 -2.693618E+02 -2.272284E+01 -4.705203E+01
        72  24  8.949165E+02 -6.821065E+01 -4.581066E+00 -2.695710E+02 -1.871572E+01 -4.814466E+01
        72  25  7.849547E+02 -6.823805E+01 -8.751869E+00 -2.794061E+02 -2.737301E+01 -4.989565E+01
        72  26  8.403725E+02 -7.907810E+01 -7.184161E+00 -2.791400E+02 -2.294512E+01 -5.092856E+01
        72  27  8.951599E+02 -9.020780E+01 -6.191542E+00 -2.783122E+02 -1.860892E+01 -5.196581E+01
        73   1  1.622091E+03  2.092741E+00  7.000163E+01 -4.678490E+00 -1.056887E+01  3.635672E+00
        73   2  1.631377E+03  1.367638E+00  7.019581E+01 -3.243274E+00 -9.126550E+00  3.745767E+00
        73   3  1.641394E+03  2.083542E+00  7.138974E+01 -1.773816E+00 -7.684068E+00  3.712429E+00
        73   4  1.567122E+03 -4.830005E+00  5.327868E+01 -1.720022E+01 -1.039503E+01  1.157397E+01
        73   5  1.576032E+03 -6.111314E+00  5.321958E+01 -1.254486E+01 -9.089223E+00  1.169925E+01
        73   6  1.585649E+03 -5.986489E+00  5.411166E+01 -7.881195E+00 -7.782533E+00  1.168268E+01
        73   7  1.523512E+03 -6.237851E+00  4.356657E+01 -2.989927E+01 -1.024710E+01  1.951269E+01
        73   8  1.531967E+03 -8.102936E+00  4.323466E+01 -2.204692E+01 -9.076165E+00  1.965309E+01
        73   9  1.541104E+03 -8.596209E+00  4.380578E+01 -1.421172E+01 -7.903667E+00  1.965322E+01
        73  10  1.622091E+03  2.092741E+00  7.000163E+01 -4.678490E+00  2.451965E-13  1.401123E-13
        73  11  1.631377E+03  1.367638E+00  7.019581E+01 -3.243274E+00 -1.050842E-13  3.064956E-14
        73  12  1.641394E+03  2.083542E+00  7.138974E+01 -1.773816E+00  3.940658E-14 -5.177587E-13
        73  13  1.567122E+03 -4.830005E+00  5.327868E+01 -1.720022E+01 -3.502807E-13  5.801524E-14
        73  14  1.576032E+03 -6.111314E+00  5.321958E+01 -1.254486E+01  1.751404E-13  7.224539E-14
        73  15  1.585649E+03 -5.986489E+00  5.411166E+01 -7.881195E+00 -1.576263E-13  1.532478E-14
        73  16  1.523512E+03 -6.237851E+00  4.356657E+01 -2.989927E+01  0.000000E+00 -1.488693E-13
        73  17  1.531967E+03 -8.102936E+00  4.323466E+01 -2.204692E+01  3.502807E-14  2.539535E-13
        73  18  1.541104E+03 -8.596209E+00  4.380578E+01 -1.421172E+01  3.064956E-14  4.225261E-13
        73  19  1.622091E+03  2.092741E+00  7.000163E+01 -4.678490E+00  1.056887E+01 -3.635672E+00
        73  20  1.631377E+03  1.367638E+00  7.019581E+01 -3.243274E+00  9.126550E+00 -3.745767E+00
        73  21  1.641394E+03  2.083542E+00  7.138974E+01 -1.773816E+00  7.684068E+00 -3.712429E+00
        73  22  1.567122E+03 -4.830005E+00  5.327868E+01 -1.720022E+01  1.039503E+01 -1.157397E+01
        73  23  1.576032E+03 -6.111314E+00  5.321958E+01 -1.254486E+01  9.089223E+00 -1.169925E+01
        73  24  1.585649E+03 -5.986489E+00  5.411166E+01 -7.881195E+00  7.782533E+00 -1.168268E+01
        73  25  1.523512E+03 -6.237851E+00  4.356657E+01 -2.989927E+01  1.024710E+01 -1.951269E+01
        73  26  1.531967E+03 -8.102936E+00  4.323466E+01 -2.204692E+01  9.076165E+00 -1.965309E+01
        73  27  1.541104E+03 -8.596209E+00  4.380578E+01 -1.421172E+01  7.903667E+00 -1.965322E+01
        74   1  1.645389E+03  2.708637E+00  7.176118E+01 -1.226941E+00 -6.749924E+00  3.718082E+00
        74   2  1.643112E+03  1.761657E+00  6.936552E+01  4.222877E-01 -5.106427E+00  3.730126E+00
        74   3  1.641765E+03  2.682927E+00  6.820540E+01  2.753197E+00 -3.462645E+00  3.535019E+00
        74   4  1.587603E+03 -6.711366E+00  5.346095E+01 -4.671972E+00 -6.772834E+00  1.160328E+01
        74   5  1.586768E+03 -8.156601E+00  5.132485E+01  1.314721E+00 -5.330714E+00  1.132231E+01
        74   6  1.586818E+03 -7.780769E+00  5.035034E+01  7.938670E+00 -3.887358E+00  1.083938E+01
        74   7  1.544780E+03 -9.045185E+00  4.373393E+01 -8.617182E+00 -7.138839E+00  1.949675E+01
        74   8  1.545204E+03 -1.108087E+01  4.170936E+01  1.679031E+00 -5.892810E+00  1.892487E+01
        74   9  1.546470E+03 -1.134214E+01  4.077290E+01  1.256895E+01 -4.644644E+00  1.815611E+01
        74  10  1.645389E+03  2.708637E+00  7.176118E+01 -1.226941E+00  6.655333E-13 -1.576263E-13
        74  11  1.643112E+03  1.761657E+00  6.936552E+01  4.222877E-01  1.050842E-13  4.334724E-13
        74  12  1.641765E+03  2.682927E+00  6.820540E+01  2.753197E+00 -1.007057E-13  7.574820E-13
        74  13  1.587603E+03 -6.711366E+00  5.346095E+01 -4.671972E+00  4.203368E-13 -3.502807E-14
        74  14  1.586768E+03 -8.156601E+00  5.132485E+01  1.314721E+00  2.101684E-13 -1.970329E-14
        74  15  1.586818E+03 -7.780769E+00  5.035034E+01  7.938670E+00 -3.590377E-13  2.627105E-14
        74  16  1.544780E+03 -9.045185E+00  4.373393E+01 -8.617182E+00  3.853088E-13  0.000000E+00
        74  17  1.545204E+03 -1.108087E+01  4.170936E+01  1.679031E+00  1.401123E-13 -3.940658E-14
        74  18  1.546470E+03 -1.134214E+01  4.077290E+01  1.256895E+01 -1.204090E-13 -4.345670E-13
        74  19  1.645389E+03  2.708637E+00  7.176118E+01 -1.226941E+00  6.749924E+00 -3.718082E+00
        74  20  1.643112E+03  1.761657E+00  6.936552E+01  4.222877E-01  5.106427E+00 -3.730126E+00
        74  21  1.641765E+03  2.682927E+00  6.820540E+01  2.753197E+00  3.462645E+00 -3.535019E+00
        74  22  1.587603E+03 -6.711366E+00  5.346095E+01 -4.671972E+00  6.772834E+00 -1.160328E+01
        74  23  1.586768E+03 -8.156601E+00  5.132485E+01  1.314721E+00  5.330714E+00 -1.132231E+01
        74  24  1.586818E+03 -7.780769E+00  5.035034E+01  7.938670E+00  3.887358E+00 -1.083938E+01
        74  25  1.544780E+03 -9.045185E+00  4.373393E+01 -8.617182E+00  7.138839E+00 -1.949675E+01
        74  26  1.545204E+03 -1.108087E+01  4.170936E+01  1.679031E+00  5.892810E+00 -1.892487E+01
        74  27  1.546470E+03 -1.134214E+01  4.077290E+01  1.256895E+01  4.644644E+00 -1.815611E+01
        75   1  1.521745E+03 -1.641459E+01  3.766458E+01 -1.122097E+01 -7.405585E+00  2.254579E+01
        75   2  1.523386E+03 -1.913158E+01  3.572857E+01  6.081750E-01 -6.356613E+00  2.196369E+01
        75   3  1.525764E+03 -2.020472E+01  3.476219E+01  1.378263E+01 -5.301160E+00  2.090751E+01
        75   4  1.485000E+03 -3.234593E+01  2.793573E+01 -1.826797E+01 -7.871907E+00  2.673435E+01
        75   5  1.489694E+03 -3.643288E+01  2.636463E+01 -3.911751E+00 -7.297683E+00  2.601032E+01
        75   6  1.495040E+03 -3.894846E+01  2.559885E+01  1.175420E+01 -6.714878E+00  2.481945E+01
        75   7  1.456142E+03 -4.449154E+01  2.274636E+01 -2.626279E+01 -8.512397E+00  3.092724E+01
        75   8  1.463757E+03 -5.000092E+01  2.144966E+01 -9.390583E+00 -8.405555E+00  3.006213E+01
        75   9  1.471939E+03 -5.401098E+01  2.079454E+01  8.756368E+00 -8.288150E+00  2.873732E+01
        75  10  1.521745E+03 -1.641459E+01  3.766458E+01 -1.122097E+01  3.677947E-13 -2.627105E-13
        75  11  1.523386E+03 -1.913158E+01  3.572857E+01  6.081750E-01  8.757018E-14 -5.429351E-13
        75  12  1.525764E+03 -2.020472E+01  3.476219E+01  1.378263E+01 -3.196311E-13 -7.585766E-13
        75  13  1.485000E+03 -3.234593E+01  2.793573E+01 -1.826797E+01  0.000000E+00 -1.007057E-13
        75  14  1.489694E+03 -3.643288E+01  2.636463E+01 -3.911751E+00 -3.502807E-14 -1.116520E-13
        75  15  1.495040E+03 -3.894846E+01  2.559885E+01  1.175420E+01  1.225982E-13 -1.225982E-13
        75  16  1.456142E+03 -4.449154E+01  2.274636E+01 -2.626279E+01 -2.101684E-13  1.488693E-13
        75  17  1.463757E+03 -5.000092E+01  2.144966E+01 -9.390583E+00 -7.005614E-14  3.064956E-14
        75  18  1.471939E+03 -5.401098E+01  2.079454E+01  8.756368E+00  2.014114E-13  2.638052E-13
        75  19  1.521745E+03 -1.641459E+01  3.766458E+01 -1.122097E+01  7.405585E+00 -2.254579E+01
        75  20  1.523386E+03 -1.913158E+01  3.572857E+01  6.081750E-01  6.356613E+00 -2.196369E+01
        75  21  1.525764E+03 -2.020472E+01  3.476219E+01  1.378263E+01  5.301160E+00 -2.090751E+01
        75  22  1.485000E+03 -3.234593E+01  2.793573E+01 -1.826797E+01  7.871907E+00 -2.673435E+01
        75  23  1.489694E+03 -3.643288E+01  2.636463E+01 -3.911751E+00  7.297683E+00 -2.601032E+01
        75  24  1.495040E+03 -3.894846E+01  2.559885E+01  1.175420E+01  6.714878E+00 -2.481945E+01
        75  25  1.456142E+03 -4.449154E+01  2.274636E+01 -2.626279E+01  8.512397E+00 -3.092724E+01
        75  26  1.463757E+03 -5.000092E+01  2.144966E+01 -9.390583E+00  8.405555E+00 -3.006213E+01
        75  27  1.471939E+03 -5.401098E+01  2.079454E+01  8.756368E+00  8.288150E+00 -2.873732E+01
        76   1  1.499467E+03 -1.153188E+01  3.780153E+01 -3.654387E+01 -1.010696E+01  2.264344E+01
        76   2  1.508160E+03 -1.406844E+01  3.737265E+01 -2.758021E+01 -9.072484E+00  2.285239E+01
        76   3  1.517347E+03 -1.558315E+01  3.765265E+01 -1.787200E+01 -8.033379E+00  2.272516E+01
        76   4  1.460245E+03 -2.303748E+01  2.863720E+01 -4.864469E+01 -9.788394E+00  2.686045E+01
        76   5  1.470287E+03 -2.703853E+01  2.824182E+01 -3.780692E+01 -9.083594E+00  2.707401E+01
        76   6  1.480767E+03 -3.006340E+01  2.844556E+01 -2.624854E+01 -8.372700E+00  2.695554E+01
        76   7  1.427225E+03 -3.152739E+01  2.327336E+01 -6.146226E+01 -9.492019E+00  3.107779E+01
        76   8  1.438547E+03 -3.700753E+01  2.289207E+01 -4.875850E+01 -9.112686E+00  3.129597E+01
        76   9  1.450253E+03 -4.155692E+01  2.300046E+01 -3.535777E+01 -8.725842E+00  3.118623E+01
        76  10  1.499467E+03 -1.153188E+01  3.780153E+01 -3.654387E+01  4.203368E-13  2.802246E-13
        76  11  1.508160E+03 -1.406844E+01  3.737265E+01 -2.758021E+01 -1.576263E-13 -2.889816E-13
        76  12  1.517347E+03 -1.558315E+01  3.765265E+01 -1.787200E+01 -1.094627E-13 -1.970329E-13
        76  13  1.460245E+03 -2.303748E+01  2.863720E+01 -4.864469E+01 -5.604491E-13  1.532478E-14
        76  14  1.470287E+03 -2.703853E+01  2.824182E+01 -3.780692E+01 -2.101684E-13  1.860866E-14
        76  15  1.480767E+03 -3.006340E+01  2.844556E+01 -2.624854E+01 -4.903930E-13 -7.552928E-14
        76  16  1.427225E+03 -3.152739E+01  2.327336E+01 -6.146226E+01 -3.327667E-13 -8.406737E-13
        76  17  1.438547E+03 -3.700753E+01  2.289207E+01 -4.875850E+01 -1.225982E-13  1.094627E-13
        76  18  1.450253E+03 -4.155692E+01  2.300046E+01 -3.535777E+01  1.313553E-13  2.681837E-13
        76  19  1.499467E+03 -1.153188E+01  3.780153E+01 -3.654387E+01  1.010696E+01 -2.264344E+01
        76  20  1.508160E+03 -1.406844E+01  3.737265E+01 -2.758021E+01  9.072484E+00 -2.285239E+01
        76  21  1.517347E+03 -1.558315E+01  3.765265E+01 -1.787200E+01  8.033379E+00 -2.272516E+01
        76  22  1.460245E+03 -2.303748E+01  2.863720E+01 -4.864469E+01  9.788394E+00 -2.686045E+01
        76  23  1.470287E+03 -2.703853E+01  2.824182E+01 -3.780692E+01  9.083594E+00 -2.707401E+01
        76  24  1.480767E+03 -3.006340E+01  2.844556E+01 -2.624854E+01  8.372700E+00 -2.695554E+01
        76  25  1.427225E+03 -3.152739E+01  2.327336E+01 -6.146226E+01  9.492019E+00 -3.107779E+01
        76  26  1.438547E+03 -3.700753E+01  2.289207E+01 -4.875850E+01  9.112686E+00 -3.129597E+01
        76  27  1.450253E+03 -4.155692E+01  2.300046E+01 -3.535777E+01  8.725842E+00 -3.118623E+01
        77   1  1.547699E+03 -1.971960E+02  7.881526E+00  6.760565E+01 -4.827684E+01  2.972455E+01
        77   2  1.506036E+03 -2.064478E+02  5.456276E+00  3.428191E+01 -4.064388E+01  3.608730E+01
        77   3  1.465687E+03 -2.097592E+02  2.820406E+00  3.946089E+00 -3.293728E+01  4.098528E+01
        77   4  1.535268E+03 -1.679097E+02  7.633949E+00  9.016061E+01 -3.986846E+01  2.420624E+01
        77   5  1.503321E+03 -1.765816E+02  5.854839E+00  5.774011E+01 -3.401289E+01  3.066971E+01
        77   6  1.473500E+03 -1.781482E+02  5.082514E+00  2.852715E+01 -2.809982E+01  3.553604E+01
        77   7  1.517991E+03 -1.400614E+02  6.619435E+00  1.125214E+02 -3.140595E+01  1.867797E+01
        77   8  1.496452E+03 -1.479643E+02  5.864599E+00  8.113292E+01 -2.746136E+01  2.526464E+01
        77   9  1.477903E+03 -1.475346E+02  7.368470E+00  5.319154E+01 -2.348083E+01  3.011290E+01
        77  10  1.547699E+03 -1.971960E+02  7.881526E+00  6.760565E+01  1.401123E-13  0.000000E+00
        77  11  1.506036E+03 -2.064478E+02  5.456276E+00  3.428191E+01 -2.627105E-14 -2.539535E-13
        77  12  1.465687E+03 -2.097592E+02  2.820406E+00  3.946089E+00 -7.443465E-14  9.085406E-14
        77  13  1.535268E+03 -1.679097E+02  7.633949E+00  9.016061E+01  4.203368E-13 -1.926544E-13
        77  14  1.503321E+03 -1.765816E+02  5.854839E+00  5.774011E+01 -3.502807E-14 -2.451965E-13
        77  15  1.473500E+03 -1.781482E+02  5.082514E+00  2.852715E+01 -2.014114E-13 -1.751404E-14
        77  16  1.517991E+03 -1.400614E+02  6.619435E+00  1.125214E+02 -1.225982E-13  1.313553E-13
        77  17  1.496452E+03 -1.479643E+02  5.864599E+00  8.113292E+01 -2.627105E-14 -5.166640E-13
        77  18  1.477903E+03 -1.475346E+02  7.368470E+00  5.319154E+01 -1.970329E-14 -1.061788E-13
        77  19  1.547699E+03 -1.971960E+02  7.881526E+00  6.760565E+01  4.827684E+01 -2.972455E+01
        77  20  1.506036E+03 -2.064478E+02  5.456276E+00  3.428191E+01  4.064388E+01 -3.608730E+01
        77  21  1.465687E+03 -2.097592E+02  2.820406E+00  3.946089E+00  3.293728E+01 -4.098528E+01
        77  22  1.535268E+03 -1.679097E+02  7.633949E+00  9.016061E+01  3.986846E+01 -2.420624E+01
        77  23  1.503321E+03 -1.765816E+02  5.854839E+00  5.774011E+01  3.401289E+01 -3.066971E+01
        77  24  1.473500E+03 -1.781482E+02  5.082514E+00  2.852715E+01  2.809982E+01 -3.553604E+01
        77  25  1.517991E+03 -1.400614E+02  6.619435E+00  1.125214E+02  3.140595E+01 -1.867797E+01
        77  26  1.496452E+03 -1.479643E+02  5.864599E+00  8.113292E+01  2.746136E+01 -2.526464E+01
        77  27  1.477903E+03 -1.475346E+02  7.368470E+00  5.319154E+01  2.348083E+01 -3.011290E+01
        78   1  1.448909E+03 -2.049340E+02  4.274019E+00 -1.419665E+01 -2.929799E+01  4.308670E+01
        78   2  1.413070E+03 -1.953508E+02  3.679229E+00 -4.334832E+01 -2.367499E+01  4.561758E+01
        78   3  1.377876E+03 -1.820931E+02  2.654422E+00 -7.005096E+01 -1.799731E+01  4.705794E+01
        78   4  1.458922E+03 -1.748403E+02  5.973850E+00  1.115262E+01 -2.550077E+01  3.779613E+01
        78   5  1.429789E+03 -1.679125E+02  5.652737E+00 -1.803537E+01 -2.114114E+01  4.088723E+01
        78   6  1.401862E+03 -1.565389E+02  5.732791E+00 -4.461672E+01 -1.673939E+01  4.280541E+01
        78   7  1.463366E+03 -1.463089E+02  6.880539E+00  3.532318E+01 -2.117699E+01  3.245407E+01
        78   8  1.441265E+03 -1.421051E+02  6.795664E+00  6.149881E+00 -1.815958E+01  3.613005E+01
        78   9  1.420966E+03 -1.326453E+02  7.965897E+00 -2.024561E+01 -1.511617E+01  3.854534E+01
        78  10  1.448909E+03 -2.049340E+02  4.274019E+00 -1.419665E+01 -2.627105E-13  2.802246E-13
        78  11  1.413070E+03 -1.953508E+02  3.679229E+00 -4.334832E+01 -1.751404E-14 -8.757018E-15
        78  12  1.377876E+03 -1.820931E+02  2.654422E+00 -7.005096E+01  2.802246E-13  1.357338E-13
        78  13  1.458922E+03 -1.748403E+02  5.973850E+00  1.115262E+01 -4.903930E-13  1.313553E-14
        78  14  1.429789E+03 -1.679125E+02  5.652737E+00 -1.803537E+01  1.050842E-13  1.204090E-13
        78  15  1.401862E+03 -1.565389E+02  5.732791E+00 -4.461672E+01  2.451965E-13  2.517643E-14
        78  16  1.463366E+03 -1.463089E+02  6.880539E+00  3.532318E+01  3.502807E-14 -2.889816E-13
        78  17  1.441265E+03 -1.421051E+02  6.795664E+00  6.149881E+00 -4.378509E-14 -9.632719E-14
        78  18  1.420966E+03 -1.326453E+02  7.965897E+00 -2.024561E+01  1.225982E-13 -2.638052E-13
        78  19  1.448909E+03 -2.049340E+02  4.274019E+00 -1.419665E+01  2.929799E+01 -4.308670E+01
        78  20  1.413070E+03 -1.953508E+02  3.679229E+00 -4.334832E+01  2.367499E+01 -4.561758E+01
        78  21  1.377876E+03 -1.820931E+02  2.654422E+00 -7.005096E+01  1.799731E+01 -4.705794E+01
        78  22  1.458922E+03 -1.748403E+02  5.973850E+00  1.115262E+01  2.550077E+01 -3.779613E+01
        78  23  1.429789E+03 -1.679125E+02  5.652737E+00 -1.803537E+01  2.114114E+01 -4.088723E+01
        78  24  1.401862E+03 -1.565389E+02  5.732791E+00 -4.461672E+01  1.673939E+01 -4.280541E+01
        78  25  1.463366E+03 -1.463089E+02  6.880539E+00  3.532318E+01  2.117699E+01 -3.245407E+01
        78  26  1.441265E+03 -1.421051E+02  6.795664E+00  6.149881E+00  1.815958E+01 -3.613005E+01
        78  27  1.420966E+03 -1.326453E+02  7.965897E+00 -2.024561E+01  1.511617E+01 -3.854534E+01
        79   1  1.465431E+03 -1.293150E+02  7.920621E+00  4.436634E+01 -1.866999E+01  3.047105E+01
        79   2  1.447773E+03 -1.240804E+02  8.858789E+00  1.678706E+01 -1.629362E+01  3.380186E+01
        79   3  1.430724E+03 -1.167834E+02  9.940281E+00 -8.978331E+00 -1.390927E+01  3.641686E+01
        79   4  1.471057E+03 -1.021802E+02  1.032485E+01  5.384431E+01 -1.467646E+01  2.705739E+01
        79   5  1.458142E+03 -9.939890E+01  1.097582E+01  2.814799E+01 -1.317866E+01  3.040266E+01
        79   6  1.446242E+03 -9.402724E+01  1.232188E+01  4.454287E+00 -1.168552E+01  3.296175E+01
        79   7  1.478643E+03 -7.358060E+01  1.458355E+01  6.202482E+01 -1.061669E+01  2.363726E+01
        79   8  1.471063E+03 -7.313947E+01  1.519656E+01  3.831067E+01 -1.007159E+01  2.700393E+01
        79   9  1.464951E+03 -6.954507E+01  1.707976E+01  1.680748E+01 -9.547666E+00  2.950839E+01
        79  10  1.465431E+03 -1.293150E+02  7.920621E+00  4.436634E+01 -1.751404E-13 -1.225982E-13
        79  11  1.447773E+03 -1.240804E+02  8.858789E+00  1.678706E+01  2.627105E-14  1.138412E-13
        79  12  1.430724E+03 -1.167834E+02  9.940281E+00 -8.978331E+00  3.590377E-13 -4.706897E-14
        79  13  1.471057E+03 -1.021802E+02  1.032485E+01  5.384431E+01  2.101684E-13  5.692061E-14
        79  14  1.458142E+03 -9.939890E+01  1.097582E+01  2.814799E+01  1.751404E-13  3.021171E-13
        79  15  1.446242E+03 -9.402724E+01  1.232188E+01  4.454287E+00 -8.757018E-15  4.269046E-14
        79  16  1.478643E+03 -7.358060E+01  1.458355E+01  6.202482E+01  2.627105E-13  2.889816E-13
        79  17  1.471063E+03 -7.313947E+01  1.519656E+01  3.831067E+01  6.129912E-14  5.079070E-13
        79  18  1.464951E+03 -6.954507E+01  1.707976E+01  1.680748E+01 -4.597434E-13  3.327667E-13
        79  19  1.465431E+03 -1.293150E+02  7.920621E+00  4.436634E+01  1.866999E+01 -3.047105E+01
        79  20  1.447773E+03 -1.240804E+02  8.858789E+00  1.678706E+01  1.629362E+01 -3.380186E+01
        79  21  1.430724E+03 -1.167834E+02  9.940281E+00 -8.978331E+00  1.390927E+01 -3.641686E+01
        79  22  1.471057E+03 -1.021802E+02  1.032485E+01  5.384431E+01  1.467646E+01 -2.705739E+01
        79  23  1.458142E+03 -9.939890E+01  1.097582E+01  2.814799E+01  1.317866E+01 -3.040266E+01
        79  24  1.446242E+03 -9.402724E+01  1.232188E+01  4.454287E+00  1.168552E+01 -3.296175E+01
        79  25  1.478643E+03 -7.358060E+01  1.458355E+01  6.202482E+01  1.061669E+01 -2.363726E+01
        79  26  1.471063E+03 -7.313947E+01  1.519656E+01  3.831067E+01  1.007159E+01 -2.700393E+01
        79  27  1.464951E+03 -6.954507E+01  1.707976E+01  1.680748E+01  9.547666E+00 -2.950839E+01
        80   1  1.507713E+03 -1.230208E+02  6.678150E+00  1.199736E+02 -2.674833E+01  1.653424E+01
        80   2  1.492381E+03 -1.275475E+02  7.530665E+00  9.000908E+01 -2.367231E+01  2.266251E+01
        80   3  1.477764E+03 -1.295968E+02  8.483661E+00  6.203142E+01 -2.058756E+01  2.800603E+01
        80   4  1.492648E+03 -9.762026E+01  6.643259E+00  1.213332E+02 -1.948641E+01  1.422912E+01
        80   5  1.483712E+03 -1.020891E+02  7.486921E+00  9.419612E+01 -1.747442E+01  1.990228E+01
        80   6  1.475988E+03 -1.034206E+02  9.117254E+00  6.928022E+01 -1.546774E+01  2.469461E+01
        80   7  1.482328E+03 -6.982863E+01  9.012236E+00  1.219537E+02 -1.264987E+01  1.200493E+01
        80   8  1.480729E+03 -7.386431E+01  1.048354E+01  9.778059E+01 -1.180940E+01  1.722484E+01
        80   9  1.480891E+03 -7.405688E+01  1.345728E+01  7.608659E+01 -1.099321E+01  2.146017E+01
        80  10  1.507713E+03 -1.230208E+02  6.678150E+00  1.199736E+02 -2.276825E-13 -1.225982E-13
        80  11  1.492381E+03 -1.275475E+02  7.530665E+00  9.000908E+01 -6.129912E-14  3.502807E-14
        80  12  1.477764E+03 -1.295968E+02  8.483661E+00  6.203142E+01  2.254932E-13 -3.480914E-13
        80  13  1.492648E+03 -9.762026E+01  6.643259E+00  1.213332E+02  3.502807E-14  7.005614E-14
        80  14  1.483712E+03 -1.020891E+02  7.486921E+00  9.419612E+01  1.926544E-13  2.802246E-13
        80  15  1.475988E+03 -1.034206E+02  9.117254E+00  6.928022E+01 -3.502807E-13  9.632719E-14
        80  16  1.482328E+03 -6.982863E+01  9.012236E+00  1.219537E+02  4.728789E-13  1.401123E-13
        80  17  1.480729E+03 -7.386431E+01  1.048354E+01  9.778059E+01 -4.378509E-14  2.977386E-13
        80  18  1.480891E+03 -7.405688E+01  1.345728E+01  7.608659E+01 -5.932879E-13  5.319888E-13
        80  19  1.507713E+03 -1.230208E+02  6.678150E+00  1.199736E+02  2.674833E+01 -1.653424E+01
        80  20  1.492381E+03 -1.275475E+02  7.530665E+00  9.000908E+01  2.367231E+01 -2.266251E+01
        80  21  1.477764E+03 -1.295968E+02  8.483661E+00  6.203142E+01  2.058756E+01 -2.800603E+01
        80  22  1.492648E+03 -9.762026E+01  6.643259E+00  1.213332E+02  1.948641E+01 -1.422912E+01
        80  23  1.483712E+03 -1.020891E+02  7.486921E+00  9.419612E+01  1.747442E+01 -1.990228E+01
        80  24  1.475988E+03 -1.034206E+02  9.117254E+00  6.928022E+01  1.546774E+01 -2.469461E+01
        80  25  1.482328E+03 -6.982863E+01  9.012236E+00  1.219537E+02  1.264987E+01 -1.200493E+01
        80  26  1.480729E+03 -7.386431E+01  1.048354E+01  9.778059E+01  1.180940E+01 -1.722484E+01
        80  27  1.480891E+03 -7.405688E+01  1.345728E+01  7.608659E+01  1.099321E+01 -2.146017E+01
        81   1  1.363250E+03 -1.719112E+02  3.521250E+00 -8.264421E+01 -1.581824E+01  4.737290E+01
        81   2  1.340126E+03 -1.556631E+02  4.105674E+00 -1.000356E+02 -1.293584E+01  4.739860E+01
        81   3  1.316560E+03 -1.391898E+02  3.896918E+00 -1.161798E+02 -1.000942E+01  4.688953E+01
        81   4  1.387698E+03 -1.485406E+02  6.005556E+00 -5.786217E+01 -1.495867E+01  4.337340E+01
        81   5  1.367321E+03 -1.347094E+02  6.745823E+00 -7.644606E+01 -1.266091E+01  4.385584E+01
        81   6  1.346600E+03 -1.206474E+02  6.865105E+00 -9.380549E+01 -1.032600E+01  4.381095E+01
        81   7  1.408205E+03 -1.264873E+02  7.959105E+00 -3.427942E+01 -1.367618E+01  3.937052E+01
        81   8  1.390397E+03 -1.152009E+02  8.634254E+00 -5.408858E+01 -1.195558E+01  4.031090E+01
        81   9  1.372341E+03 -1.036799E+02  8.859430E+00 -7.269677E+01 -1.020454E+01  4.073147E+01
        81  10  1.363250E+03 -1.719112E+02  3.521250E+00 -8.264421E+01 -7.005614E-14 -4.290939E-13
        81  11  1.340126E+03 -1.556631E+02  4.105674E+00 -1.000356E+02  0.000000E+00 -2.714675E-13
        81  12  1.316560E+03 -1.391898E+02  3.896918E+00 -1.161798E+02  8.757018E-15 -8.242543E-13
        81  13  1.387698E+03 -1.485406E+02  6.005556E+00 -5.786217E+01 -7.005614E-14 -7.771853E-14
        81  14  1.367321E+03 -1.347094E+02  6.745823E+00 -7.644606E+01 -1.751404E-13 -1.899178E-13
        81  15  1.346600E+03 -1.206474E+02  6.865105E+00 -9.380549E+01 -1.225982E-13 -6.362521E-14
        81  16  1.408205E+03 -1.264873E+02  7.959105E+00 -3.427942E+01 -1.401123E-13  1.313553E-13
        81  17  1.390397E+03 -1.152009E+02  8.634254E+00 -5.408858E+01 -7.005614E-14  2.276825E-13
        81  18  1.372341E+03 -1.036799E+02  8.859430E+00 -7.269677E+01  3.152526E-13  2.627105E-13
        81  19  1.363250E+03 -1.719112E+02  3.521250E+00 -8.264421E+01  1.581824E+01 -4.737290E+01
        81  20  1.340126E+03 -1.556631E+02  4.105674E+00 -1.000356E+02  1.293584E+01 -4.739860E+01
        81  21  1.316560E+03 -1.391898E+02  3.896918E+00 -1.161798E+02  1.000942E+01 -4.688953E+01
        81  22  1.387698E+03 -1.485406E+02  6.005556E+00 -5.786217E+01  1.495867E+01 -4.337340E+01
        81  23  1.367321E+03 -1.347094E+02  6.745823E+00 -7.644606E+01  1.266091E+01 -4.385584E+01
        81  24  1.346600E+03 -1.206474E+02  6.865105E+00 -9.380549E+01  1.032600E+01 -4.381095E+01
        81  25  1.408205E+03 -1.264873E+02  7.959105E+00 -3.427942E+01  1.367618E+01 -3.937052E+01
        81  26  1.390397E+03 -1.152009E+02  8.634254E+00 -5.408858E+01  1.195558E+01 -4.031090E+01
        81  27  1.372341E+03 -1.036799E+02  8.859430E+00 -7.269677E+01  1.020454E+01 -4.073147E+01
        82   1  1.305058E+03 -1.288507E+02  4.351283E+00 -1.243477E+02 -8.800952E+00  4.640064E+01
        82   2  1.286685E+03 -1.116515E+02  5.078053E+00 -1.360382E+02 -7.286760E+00  4.537102E+01
        82   3  1.267489E+03 -9.566547E+01  4.832858E+00 -1.469179E+02 -5.744767E+00  4.400286E+01
        82   4  1.334870E+03 -1.122670E+02  6.833784E+00 -1.029283E+02 -9.292282E+00  4.355182E+01
        82   5  1.317779E+03 -9.728947E+01  7.626890E+00 -1.158209E+02 -8.126940E+00  4.284667E+01
        82   6  1.299908E+03 -8.355434E+01  7.532289E+00 -1.279235E+02 -6.938160E+00  4.180882E+01
        82   7  1.362315E+03 -9.645692E+01  9.098815E+00 -8.246209E+01 -9.493839E+00  4.070288E+01
        82   8  1.346382E+03 -8.379267E+01  9.802628E+00 -9.658458E+01 -8.671583E+00  4.032308E+01
        82   9  1.329711E+03 -7.240140E+01  9.702126E+00 -1.099388E+02 -7.830160E+00  3.961645E+01
        82  10  1.305058E+03 -1.288507E+02  4.351283E+00 -1.243477E+02  2.451965E-13 -4.203368E-13
        82  11  1.286685E+03 -1.116515E+02  5.078053E+00 -1.360382E+02  1.225982E-13 -5.648276E-13
        82  12  1.267489E+03 -9.566547E+01  4.832858E+00 -1.469179E+02 -2.451965E-13 -7.334002E-13
        82  13  1.334870E+03 -1.122670E+02  6.833784E+00 -1.029283E+02  2.101684E-13 -7.050083E-14
        82  14  1.317779E+03 -9.728947E+01  7.626890E+00 -1.158209E+02  1.050842E-13 -3.439866E-13
        82  15  1.299908E+03 -8.355434E+01  7.532289E+00 -1.279235E+02  1.751404E-13 -7.306637E-14
        82  16  1.362315E+03 -9.645692E+01  9.098815E+00 -8.246209E+01 -2.977386E-13  7.049399E-13
        82  17  1.346382E+03 -8.379267E+01  9.802628E+00 -9.658458E+01  0.000000E+00  1.313553E-14
        82  18  1.329711E+03 -7.240140E+01  9.702126E+00 -1.099388E+02  4.115798E-13  3.404291E-13
        82  19  1.305058E+03 -1.288507E+02  4.351283E+00 -1.243477E+02  8.800952E+00 -4.640064E+01
        82  20  1.286685E+03 -1.116515E+02  5.078053E+00 -1.360382E+02  7.286760E+00 -4.537102E+01
        82  21  1.267489E+03 -9.566547E+01  4.832858E+00 -1.469179E+02  5.744767E+00 -4.400286E+01
        82  22  1.334870E+03 -1.122670E+02  6.833784E+00 -1.029283E+02  9.292282E+00 -4.355182E+01
        82  23  1.317779E+03 -9.728947E+01  7.626890E+00 -1.158209E+02  8.126940E+00 -4.284667E+01
        82  24  1.299908E+03 -8.355434E+01  7.532289E+00 -1.279235E+02  6.938160E+00 -4.180882E+01
        82  25  1.362315E+03 -9.645692E+01  9.098815E+00 -8.246209E+01  9.493839E+00 -4.070288E+01
        82  26  1.346382E+03 -8.379267E+01  9.802628E+00 -9.658458E+01  8.671583E+00 -4.032308E+01
        82  27  1.329711E+03 -7.240140E+01  9.702126E+00 -1.099388E+02  7.830160E+00 -3.961645E+01
        83   1  1.378218E+03 -8.526227E+01  1.132181E+01 -7.185437E+01 -9.467101E+00  3.909859E+01
        83   2  1.362745E+03 -7.471850E+01  1.163469E+01 -8.641654E+01 -8.860475E+00  3.889365E+01
        83   3  1.347035E+03 -6.427677E+01  1.169644E+01 -1.000137E+02 -8.233617E+00  3.829750E+01
        83   4  1.404819E+03 -6.906906E+01  1.460203E+01 -5.644491E+01 -9.265207E+00  3.608407E+01
        83   5  1.390992E+03 -6.058805E+01  1.492883E+01 -7.078688E+01 -9.052729E+00  3.603357E+01
        83   6  1.376987E+03 -5.221923E+01  1.511611E+01 -8.415339E+01 -8.824748E+00  3.559323E+01
        83   7  1.432951E+03 -5.196633E+01  1.938081E+01 -4.197962E+01 -8.942489E+00  3.306960E+01
        83   8  1.420770E+03 -4.557192E+01  1.966643E+01 -5.612394E+01 -9.122791E+00  3.317391E+01
        83   9  1.408472E+03 -3.930019E+01  1.992423E+01 -6.928281E+01 -9.292317E+00  3.288975E+01
        83  10  1.378218E+03 -8.526227E+01  1.132181E+01 -7.185437E+01 -2.101684E-13  1.488693E-13
        83  11  1.362745E+03 -7.471850E+01  1.163469E+01 -8.641654E+01  1.751404E-14  7.443465E-14
        83  12  1.347035E+03 -6.427677E+01  1.169644E+01 -1.000137E+02  2.101684E-13 -3.612270E-14
        83  13  1.404819E+03 -6.906906E+01  1.460203E+01 -5.644491E+01 -7.005614E-14  2.584346E-14
        83  14  1.390992E+03 -6.058805E+01  1.492883E+01 -7.078688E+01  2.451965E-13  2.383551E-13
        83  15  1.376987E+03 -5.221923E+01  1.511611E+01 -8.415339E+01  3.327667E-13  4.597434E-14
        83  16  1.432951E+03 -5.196633E+01  1.938081E+01 -4.197962E+01 -1.926544E-13  0.000000E+00
        83  17  1.420770E+03 -4.557192E+01  1.966643E+01 -5.612394E+01  1.751404E-14  1.313553E-14
        83  18  1.408472E+03 -3.930019E+01  1.992423E+01 -6.928281E+01 -1.576263E-13  2.090738E-13
        83  19  1.378218E+03 -8.526227E+01  1.132181E+01 -7.185437E+01  9.467101E+00 -3.909859E+01
        83  20  1.362745E+03 -7.471850E+01  1.163469E+01 -8.641654E+01  8.860475E+00 -3.889365E+01
        83  21  1.347035E+03 -6.427677E+01  1.169644E+01 -1.000137E+02  8.233617E+00 -3.829750E+01
        83  22  1.404819E+03 -6.906906E+01  1.460203E+01 -5.644491E+01  9.265207E+00 -3.608407E+01
        83  23  1.390992E+03 -6.058805E+01  1.492883E+01 -7.078688E+01  9.052729E+00 -3.603357E+01
        83  24  1.376987E+03 -5.221923E+01  1.511611E+01 -8.415339E+01  8.824748E+00 -3.559323E+01
        83  25  1.432951E+03 -5.196633E+01  1.938081E+01 -4.197962E+01  8.942489E+00 -3.306960E+01
        83  26  1.420770E+03 -4.557192E+01  1.966643E+01 -5.612394E+01  9.122791E+00 -3.317391E+01
        83  27  1.408472E+03 -3.930019E+01  1.992423E+01 -6.928281E+01  9.292317E+00 -3.288975E+01
        84   1  1.419530E+03 -1.121988E+02  9.805949E+00 -2.323033E+01 -1.277672E+01  3.745320E+01
        84   2  1.403378E+03 -1.023075E+02  1.046465E+01 -4.331988E+01 -1.139402E+01  3.852886E+01
        84   3  1.387210E+03 -9.166726E+01  1.098271E+01 -6.194037E+01 -9.982410E+00  3.904456E+01
        84   4  1.438710E+03 -9.005958E+01  1.285993E+01 -8.821355E+00 -1.111190E+01  3.401669E+01
        84   5  1.425731E+03 -8.242548E+01  1.359113E+01 -2.842685E+01 -1.032663E+01  3.525681E+01
        84   6  1.412843E+03 -7.402408E+01  1.437143E+01 -4.654731E+01 -9.519121E+00  3.593735E+01
        84   7  1.459322E+03 -6.698451E+01  1.752146E+01  4.381030E+00 -9.315754E+00  3.057918E+01
        84   8  1.449522E+03 -6.163110E+01  1.826897E+01 -1.476765E+01 -9.127560E+00  3.198417E+01
        84   9  1.439922E+03 -5.549224E+01  1.925553E+01 -3.241591E+01 -8.923834E+00  3.282996E+01
        84  10  1.419530E+03 -1.121988E+02  9.805949E+00 -2.323033E+01 -3.327667E-13  1.401123E-13
        84  11  1.403378E+03 -1.023075E+02  1.046465E+01 -4.331988E+01  7.005614E-14  3.459022E-13
        84  12  1.387210E+03 -9.166726E+01  1.098271E+01 -6.194037E+01  2.583320E-13 -4.159583E-14
        84  13  1.438710E+03 -9.005958E+01  1.285993E+01 -8.821355E+00  7.005614E-14  8.757018E-14
        84  14  1.425731E+03 -8.242548E+01  1.359113E+01 -2.842685E+01  1.050842E-13  3.242833E-13
        84  15  1.412843E+03 -7.402408E+01  1.437143E+01 -4.654731E+01  6.129912E-14  9.318014E-14
        84  16  1.459322E+03 -6.698451E+01  1.752146E+01  4.381030E+00  4.028228E-13 -1.401123E-13
        84  17  1.449522E+03 -6.163110E+01  1.826897E+01 -1.476765E+01  5.254211E-14  2.802246E-13
        84  18  1.439922E+03 -5.549224E+01  1.925553E+01 -3.241591E+01 -5.954772E-13  1.160305E-13
        84  19  1.419530E+03 -1.121988E+02  9.805949E+00 -2.323033E+01  1.277672E+01 -3.745320E+01
        84  20  1.403378E+03 -1.023075E+02  1.046465E+01 -4.331988E+01  1.139402E+01 -3.852886E+01
        84  21  1.387210E+03 -9.166726E+01  1.098271E+01 -6.194037E+01  9.982410E+00 -3.904456E+01
        84  22  1.438710E+03 -9.005958E+01  1.285993E+01 -8.821355E+00  1.111190E+01 -3.401669E+01
        84  23  1.425731E+03 -8.242548E+01  1.359113E+01 -2.842685E+01  1.032663E+01 -3.525681E+01
        84  24  1.412843E+03 -7.402408E+01  1.437143E+01 -4.654731E+01  9.519121E+00 -3.593735E+01
        84  25  1.459322E+03 -6.698451E+01  1.752146E+01  4.381030E+00  9.315754E+00 -3.057918E+01
        84  26  1.449522E+03 -6.163110E+01  1.826897E+01 -1.476765E+01  9.127560E+00 -3.198417E+01
        84  27  1.439922E+03 -5.549224E+01  1.925553E+01 -3.241591E+01  8.923834E+00 -3.282996E+01
        85   1  1.407247E+03 -1.449465E+01 -9.968043E+00  1.879311E+02 -9.761363E+00 -2.106851E+01
        85   2  1.424632E+03 -2.582649E+01 -6.134019E+00  1.779629E+02 -9.779031E+00 -1.415624E+01
        85   3  1.443247E+03 -3.554158E+01 -1.325268E+00  1.704803E+02 -9.813126E+00 -7.475373E+00
        85   4  1.367162E+03 -1.108679E+01 -1.642473E+01  1.630845E+02 -3.336573E+00 -1.827231E+01
        85   5  1.392106E+03 -1.915118E+01 -1.074855E+01  1.546916E+02 -3.536734E+00 -1.232168E+01
        85   6  1.418138E+03 -2.567611E+01 -4.157079E+00  1.487279E+02 -3.748263E+00 -6.573301E+00
        85   7  1.332597E+03 -5.566946E+00 -2.131083E+01  1.382443E+02  2.089894E+00 -1.541805E+01
        85   8  1.365037E+03 -1.032252E+01 -1.358980E+01  1.314190E+02  1.736263E+00 -1.042817E+01
        85   9  1.398427E+03 -1.361322E+01 -5.010263E+00  1.269668E+02  1.375444E+00 -5.611527E+00
        85  10  1.407247E+03 -1.449465E+01 -9.968043E+00  1.879311E+02  5.254211E-14  2.627105E-13
        85  11  1.424632E+03 -2.582649E+01 -6.134019E+00  1.779629E+02 -3.502807E-14 -2.101684E-13
        85  12  1.443247E+03 -3.554158E+01 -1.325268E+00  1.704803E+02 -1.674780E-13  2.233039E-13
        85  13  1.367162E+03 -1.108679E+01 -1.642473E+01  1.630845E+02 -8.757018E-14 -1.094627E-13
        85  14  1.392106E+03 -1.915118E+01 -1.074855E+01  1.546916E+02 -2.101684E-13 -3.940658E-13
        85  15  1.418138E+03 -2.567611E+01 -4.157079E+00  1.487279E+02  2.320610E-13 -1.882759E-13
        85  16  1.332597E+03 -5.566946E+00 -2.131083E+01  1.382443E+02 -3.853088E-13 -2.802246E-13
        85  17  1.365037E+03 -1.032252E+01 -1.358980E+01  1.314190E+02 -7.881316E-14 -4.028228E-13
        85  18  1.398427E+03 -1.361322E+01 -5.010263E+00  1.269668E+02  4.882037E-13 -4.203368E-13
        85  19  1.407247E+03 -1.449465E+01 -9.968043E+00  1.879311E+02  9.761363E+00  2.106851E+01
        85  20  1.424632E+03 -2.582649E+01 -6.134019E+00  1.779629E+02  9.779031E+00  1.415624E+01
        85  21  1.443247E+03 -3.554158E+01 -1.325268E+00  1.704803E+02  9.813126E+00  7.475373E+00
        85  22  1.367162E+03 -1.108679E+01 -1.642473E+01  1.630845E+02  3.336573E+00  1.827231E+01
        85  23  1.392106E+03 -1.915118E+01 -1.074855E+01  1.546916E+02  3.536734E+00  1.232168E+01
        85  24  1.418138E+03 -2.567611E+01 -4.157079E+00  1.487279E+02  3.748263E+00  6.573301E+00
        85  25  1.332597E+03 -5.566946E+00 -2.131083E+01  1.382443E+02 -2.089894E+00  1.541805E+01
        85  26  1.365037E+03 -1.032252E+01 -1.358980E+01  1.314190E+02 -1.736263E+00  1.042817E+01
        85  27  1.398427E+03 -1.361322E+01 -5.010263E+00  1.269668E+02 -1.375444E+00  5.611527E+00
        86   1  1.453358E+03 -3.998664E+01  1.682420E+00  1.626346E+02 -9.910648E+00 -3.699104E+00
        86   2  1.462898E+03 -4.813158E+01  4.409515E+00  1.448767E+02 -9.673419E+00  2.396990E+00
        86   3  1.473982E+03 -5.380673E+01  8.387115E+00  1.294837E+02 -9.469110E+00  8.029744E+00
        86   4  1.430624E+03 -2.941230E+01 -1.034145E+00  1.422198E+02 -4.001274E+00 -3.305414E+00
        86   5  1.447441E+03 -3.543600E+01  3.169243E+00  1.271458E+02 -4.195467E+00  1.979880E+00
        86   6  1.465713E+03 -3.899755E+01  8.664431E+00  1.143534E+02 -4.414366E+00  6.827267E+00
        86   7  1.416767E+03 -1.504961E+01 -1.336969E-01  1.213973E+02  1.043081E+00 -2.855586E+00
        86   8  1.440703E+03 -1.895459E+01  5.692019E+00  1.090082E+02  4.439177E-01  1.619133E+00
        86   9  1.466012E+03 -2.040157E+01  1.285440E+01  9.881779E+01 -1.725252E-01  5.681240E+00
        86  10  1.453358E+03 -3.998664E+01  1.682420E+00  1.626346E+02  2.627105E-13  0.000000E+00
        86  11  1.462898E+03 -4.813158E+01  4.409515E+00  1.448767E+02  8.757018E-15  1.401123E-13
        86  12  1.473982E+03 -5.380673E+01  8.387115E+00  1.294837E+02 -1.685726E-13  2.714675E-13
        86  13  1.430624E+03 -2.941230E+01 -1.034145E+00  1.422198E+02  1.751404E-13 -1.050842E-13
        86  14  1.447441E+03 -3.543600E+01  3.169243E+00  1.271458E+02  8.757018E-14 -1.926544E-13
        86  15  1.465713E+03 -3.899755E+01  8.664431E+00  1.143534E+02  3.064956E-14  4.378509E-15
        86  16  1.416767E+03 -1.504961E+01 -1.336969E-01  1.213973E+02  1.751404E-14 -1.751404E-13
        86  17  1.440703E+03 -1.895459E+01  5.692019E+00  1.090082E+02  2.627105E-14 -4.728789E-13
        86  18  1.466012E+03 -2.040157E+01  1.285440E+01  9.881779E+01  4.597434E-13 -3.962550E-13
        86  19  1.453358E+03 -3.998664E+01  1.682420E+00  1.626346E+02  9.910648E+00  3.699104E+00
        86  20  1.462898E+03 -4.813158E+01  4.409515E+00  1.448767E+02  9.673419E+00 -2.396990E+00
        86  21  1.473982E+03 -5.380673E+01  8.387115E+00  1.294837E+02  9.469110E+00 -8.029744E+00
        86  22  1.430624E+03 -2.941230E+01 -1.034145E+00  1.422198E+02  4.001274E+00  3.305414E+00
        86  23  1.447441E+03 -3.543600E+01  3.169243E+00  1.271458E+02  4.195467E+00 -1.979880E+00
        86  24  1.465713E+03 -3.899755E+01  8.664431E+00  1.143534E+02  4.414366E+00 -6.827267E+00
        86  25  1.416767E+03 -1.504961E+01 -1.336969E-01  1.213973E+02 -1.043081E+00  2.855586E+00
        86  26  1.440703E+03 -1.895459E+01  5.692019E+00  1.090082E+02 -4.439177E-01 -1.619133E+00
        86  27  1.466012E+03 -2.040157E+01  1.285440E+01  9.881779E+01  1.725252E-01 -5.681240E+00
        87   1  1.409786E+03 -8.730946E+00  4.093844E-03  1.039682E+02  3.545042E+00 -2.282540E+00
        87   2  1.438788E+03 -1.089328E+01  7.299225E+00  9.274760E+01  2.766036E+00  1.532645E+00
        87   3  1.468730E+03 -1.171171E+01  1.549559E+01  8.462436E+01  1.979510E+00  5.123838E+00
        87   4  1.400830E+03 -6.414706E+00 -1.650489E+00  6.203930E+01  6.616346E+00 -1.237117E+00
        87   5  1.438954E+03 -7.959035E+00  7.854619E+00  5.476525E+01  5.633790E+00  1.037350E+00
        87   6  1.477913E+03 -8.109786E+00  1.827392E+01  5.046004E+01  4.647884E+00  3.132651E+00
        87   7  1.407456E+03  2.678593E+00  3.109071E+00  1.876026E+01  8.117715E+00 -9.008691E-02
        87   8  1.454460E+03  1.771376E+00  1.512328E+01  1.546079E+01  6.977156E+00  6.443222E-01
        87   9  1.502208E+03  2.312810E+00  2.807028E+01  1.500121E+01  5.836066E+00  1.244221E+00
        87  10  1.409786E+03 -8.730946E+00  4.093844E-03  1.039682E+02 -1.401123E-13  9.983000E-13
        87  11  1.438788E+03 -1.089328E+01  7.299225E+00  9.274760E+01  3.502807E-14  5.604491E-13
        87  12  1.468730E+03 -1.171171E+01  1.549559E+01  8.462436E+01  2.791299E-13  9.391901E-13
        87  13  1.400830E+03 -6.414706E+00 -1.650489E+00  6.203930E+01  4.903930E-13  5.692061E-14
        87  14  1.438954E+03 -7.959035E+00  7.854619E+00  5.476525E+01 -1.751404E-14  2.276825E-13
        87  15  1.477913E+03 -8.109786E+00  1.827392E+01  5.046004E+01 -2.714675E-13  1.269768E-13
        87  16  1.407456E+03  2.678593E+00  3.109071E+00  1.876026E+01  3.415237E-13 -7.355895E-13
        87  17  1.454460E+03  1.771376E+00  1.512328E+01  1.546079E+01 -1.751404E-14 -4.903930E-13
        87  18  1.502208E+03  2.312810E+00  2.807028E+01  1.500121E+01 -7.049399E-13 -1.532478E-14
        87  19  1.409786E+03 -8.730946E+00  4.093844E-03  1.039682E+02 -3.545042E+00  2.282540E+00
        87  20  1.438788E+03 -1.089328E+01  7.299225E+00  9.274760E+01 -2.766036E+00 -1.532645E+00
        87  21  1.468730E+03 -1.171171E+01  1.549559E+01  8.462436E+01 -1.979510E+00 -5.123838E+00
        87  22  1.400830E+03 -6.414706E+00 -1.650489E+00  6.203930E+01 -6.616346E+00  1.237117E+00
        87  23  1.438954E+03 -7.959035E+00  7.854619E+00  5.476525E+01 -5.633790E+00 -1.037350E+00
        87  24  1.477913E+03 -8.109786E+00  1.827392E+01  5.046004E+01 -4.647884E+00 -3.132651E+00
        87  25  1.407456E+03  2.678593E+00  3.109071E+00  1.876026E+01 -8.117715E+00  9.008691E-02
        87  26  1.454460E+03  1.771376E+00  1.512328E+01  1.546079E+01 -6.977156E+00 -6.443222E-01
        87  27  1.502208E+03  2.312810E+00  2.807028E+01  1.500121E+01 -5.836066E+00 -1.244221E+00
        88   1  1.312328E+03 -3.297717E+00 -2.483095E+01  1.183961E+02  4.806417E+00 -1.311121E+01
        88   2  1.350348E+03 -5.897202E+00 -1.538902E+01  1.116227E+02  4.379495E+00 -8.807347E+00
        88   3  1.389004E+03 -7.963446E+00 -5.460105E+00  1.087069E+02  3.948350E+00 -4.631488E+00
        88   4  1.278057E+03 -2.707482E+00 -3.266569E+01  7.054606E+01  8.216190E+00 -7.666351E+00
        88   5  1.326756E+03 -4.327996E+00 -2.047734E+01  6.576322E+01  7.692151E+00 -5.118654E+00
        88   6  1.375945E+03 -5.378716E+00 -7.834184E+00  6.475669E+01  7.166707E+00 -2.646575E+00
        88   7  1.252876E+03  1.552053E+00 -3.795233E+01  2.135880E+01  9.850570E+00 -2.118083E+00
        88   8  1.312190E+03  1.012014E+00 -2.262258E+01  1.859797E+01  9.280507E+00 -1.325081E+00
        88   9  1.371856E+03  1.081922E+00 -6.866159E+00  1.953162E+01  8.710330E+00 -5.556247E-01
        88  10  1.312328E+03 -3.297717E+00 -2.483095E+01  1.183961E+02 -4.028228E-13 -2.977386E-13
        88  11  1.350348E+03 -5.897202E+00 -1.538902E+01  1.116227E+02  9.632719E-14  2.364395E-13
        88  12  1.389004E+03 -7.963446E+00 -5.460105E+00  1.087069E+02  8.439576E-13  5.582599E-13
        88  13  1.278057E+03 -2.707482E+00 -3.266569E+01  7.054606E+01 -3.677947E-13  1.094627E-13
        88  14  1.326756E+03 -4.327996E+00 -2.047734E+01  6.576322E+01  2.802246E-13  1.488693E-13
        88  15  1.375945E+03 -5.378716E+00 -7.834184E+00  6.475669E+01  6.589656E-13 -3.940658E-14
        88  16  1.252876E+03  1.552053E+00 -3.795233E+01  2.135880E+01 -3.853088E-13  4.028228E-13
        88  17  1.312190E+03  1.012014E+00 -2.262258E+01  1.859797E+01  7.005614E-14  4.378509E-14
        88  18  1.371856E+03  1.081922E+00 -6.866159E+00  1.953162E+01  5.681115E-13 -5.735846E-13
        88  19  1.312328E+03 -3.297717E+00 -2.483095E+01  1.183961E+02 -4.806417E+00  1.311121E+01
        88  20  1.350348E+03 -5.897202E+00 -1.538902E+01  1.116227E+02 -4.379495E+00  8.807347E+00
        88  21  1.389004E+03 -7.963446E+00 -5.460105E+00  1.087069E+02 -3.948350E+00  4.631488E+00
        88  22  1.278057E+03 -2.707482E+00 -3.266569E+01  7.054606E+01 -8.216190E+00  7.666351E+00
        88  23  1.326756E+03 -4.327996E+00 -2.047734E+01  6.576322E+01 -7.692151E+00  5.118654E+00
        88  24  1.375945E+03 -5.378716E+00 -7.834184E+00  6.475669E+01 -7.166707E+00  2.646575E+00
        88  25  1.252876E+03  1.552053E+00 -3.795233E+01  2.135880E+01 -9.850570E+00  2.118083E+00
        88  26  1.312190E+03  1.012014E+00 -2.262258E+01  1.859797E+01 -9.280507E+00  1.325081E+00
        88  27  1.371856E+03  1.081922E+00 -6.866159E+00  1.953162E+01 -8.710330E+00  5.556247E-01
        89   1  1.527558E+03  3.055148E+00  3.513594E+01  1.398873E+01  4.988381E+00  1.624015E+00
        89   2  1.496452E+03 -8.523073E+00  2.312513E+01  4.634969E+01  3.765755E+00  4.291068E+00
        89   3  1.483134E+03 -1.209641E+01  1.948255E+01  7.748623E+01  1.380165E+00  7.037549E+00
        89   4  1.559124E+03  2.086603E+00  4.329784E+01  1.049245E+01  3.455064E+00  2.234489E+00
        89   5  1.521500E+03 -9.664253E+00  2.954933E+01  3.771847E+01  2.480981E+00  6.066114E+00
        89   6  1.501726E+03 -1.330503E+01  2.451441E+01  6.376878E+01  3.548791E-01  9.969325E+00
        89   7  1.591664E+03  3.082206E+00  5.271142E+01  9.201658E+00  1.921310E+00  2.597325E+00
        89   8  1.547512E+03 -8.912433E+00  3.714569E+01  3.132293E+01  1.194172E+00  7.582681E+00
        89   9  1.521273E+03 -1.269044E+01  3.063973E+01  5.231634E+01 -6.741808E-01  1.263198E+01
        89  10  1.527558E+03  3.055148E+00  3.513594E+01  1.398873E+01 -4.028228E-13 -8.406737E-13
        89  11  1.496452E+03 -8.523073E+00  2.312513E+01  4.634969E+01  1.401123E-13  7.005614E-14
        89  12  1.483134E+03 -1.209641E+01  1.948255E+01  7.748623E+01 -3.940658E-14  3.634162E-13
        89  13  1.559124E+03  2.086603E+00  4.329784E+01  1.049245E+01 -2.037375E-13  0.000000E+00
        89  14  1.521500E+03 -9.664253E+00  2.954933E+01  3.771847E+01 -3.251043E-13  2.627105E-13
        89  15  1.501726E+03 -1.330503E+01  2.451441E+01  6.376878E+01 -7.552928E-14  3.064956E-14
        89  16  1.591664E+03  3.082206E+00  5.271142E+01  9.201658E+00 -2.802246E-13 -1.050842E-13
        89  17  1.547512E+03 -8.912433E+00  3.714569E+01  3.132293E+01  1.401123E-13  8.757018E-14
        89  18  1.521273E+03 -1.269044E+01  3.063973E+01  5.231634E+01  2.167362E-13 -4.378509E-15
        89  19  1.527558E+03  3.055148E+00  3.513594E+01  1.398873E+01 -4.988381E+00 -1.624015E+00
        89  20  1.496452E+03 -8.523073E+00  2.312513E+01  4.634969E+01 -3.765755E+00 -4.291068E+00
        89  21  1.483134E+03 -1.209641E+01  1.948255E+01  7.748623E+01 -1.380165E+00 -7.037549E+00
        89  22  1.559124E+03  2.086603E+00  4.329784E+01  1.049245E+01 -3.455064E+00 -2.234489E+00
        89  23  1.521500E+03 -9.664253E+00  2.954933E+01  3.771847E+01 -2.480981E+00 -6.066114E+00
        89  24  1.501726E+03 -1.330503E+01  2.451441E+01  6.376878E+01 -3.548791E-01 -9.969325E+00
        89  25  1.591664E+03  3.082206E+00  5.271142E+01  9.201658E+00 -1.921310E+00 -2.597325E+00
        89  26  1.547512E+03 -8.912433E+00  3.714569E+01  3.132293E+01 -1.194172E+00 -7.582681E+00
        89  27  1.521273E+03 -1.269044E+01  3.063973E+01  5.231634E+01  6.741808E-01 -1.263198E+01
        90   1  1.478091E+03 -2.108349E+01  1.635304E+01  9.036833E+01 -5.949251E-01  7.926147E+00
        90   2  1.473191E+03 -4.080457E+01  1.104656E+01  1.043981E+02 -4.633746E+00  9.479006E+00
        90   3  1.477721E+03 -5.625958E+01  1.016036E+01  1.176230E+02 -9.278548E+00  1.107323E+01
        90   4  1.492824E+03 -2.302935E+01  2.047201E+01  7.457122E+01 -1.381573E+00  1.146792E+01
        90   5  1.481934E+03 -4.323471E+01  1.417579E+01  8.536635E+01 -4.871245E+00  1.363156E+01
        90   6  1.480547E+03 -5.910104E+01  1.251021E+01  9.538870E+01 -8.966006E+00  1.583276E+01
        90   7  1.508853E+03 -2.235185E+01  2.597389E+01  6.087952E+01 -2.177892E+00  1.445120E+01
        90   8  1.491919E+03 -4.315211E+01  1.851325E+01  6.844772E+01 -5.121654E+00  1.722480E+01
        90   9  1.484562E+03 -5.953978E+01  1.589372E+01  7.527485E+01 -8.669575E+00  2.003218E+01
        90  10  1.478091E+03 -2.108349E+01  1.635304E+01  9.036833E+01 -1.751404E-14 -2.451965E-13
        90  11  1.473191E+03 -4.080457E+01  1.104656E+01  1.043981E+02 -1.401123E-13 -1.751404E-14
        90  12  1.477721E+03 -5.625958E+01  1.016036E+01  1.176230E+02 -6.348838E-14 -2.648998E-13
        90  13  1.492824E+03 -2.302935E+01  2.047201E+01  7.457122E+01 -9.851645E-15 -3.502807E-14
        90  14  1.481934E+03 -4.323471E+01  1.417579E+01  8.536635E+01 -3.842141E-13 -7.005614E-14
        90  15  1.480547E+03 -5.910104E+01  1.251021E+01  9.538870E+01 -1.116520E-13 -2.583320E-13
        90  16  1.508853E+03 -2.235185E+01  2.597389E+01  6.087952E+01 -2.977386E-13  1.576263E-13
        90  17  1.491919E+03 -4.315211E+01  1.851325E+01  6.844772E+01 -7.793746E-13 -2.627105E-14
        90  18  1.484562E+03 -5.953978E+01  1.589372E+01  7.527485E+01 -6.086127E-13 -5.998557E-13
        90  19  1.478091E+03 -2.108349E+01  1.635304E+01  9.036833E+01  5.949251E-01 -7.926147E+00
        90  20  1.473191E+03 -4.080457E+01  1.104656E+01  1.043981E+02  4.633746E+00 -9.479006E+00
        90  21  1.477721E+03 -5.625958E+01  1.016036E+01  1.176230E+02  9.278548E+00 -1.107323E+01
        90  22  1.492824E+03 -2.302935E+01  2.047201E+01  7.457122E+01  1.381573E+00 -1.146792E+01
        90  23  1.481934E+03 -4.323471E+01  1.417579E+01  8.536635E+01  4.871245E+00 -1.363156E+01
        90  24  1.480547E+03 -5.910104E+01  1.251021E+01  9.538870E+01  8.966006E+00 -1.583276E+01
        90  25  1.508853E+03 -2.235185E+01  2.597389E+01  6.087952E+01  2.177892E+00 -1.445120E+01
        90  26  1.491919E+03 -4.315211E+01  1.851325E+01  6.844772E+01  5.121654E+00 -1.722480E+01
        90  27  1.484562E+03 -5.953978E+01  1.589372E+01  7.527485E+01  8.669575E+00 -2.003218E+01
        91   1  1.514789E+03 -2.223417E+01  2.817495E+01  5.159586E+01 -2.728755E+00  1.599431E+01
        91   2  1.494471E+03 -4.314627E+01  2.009385E+01  5.734545E+01 -5.421125E+00  1.905129E+01
        91   3  1.483234E+03 -5.980048E+01  1.673715E+01  6.212037E+01 -8.461043E+00  2.212644E+01
        91   4  1.519663E+03 -2.278328E+01  3.033201E+01  3.612610E+01 -3.708149E+00  1.831215E+01
        91   5  1.494891E+03 -4.299651E+01  2.176939E+01  3.878111E+01 -5.864778E+00  2.172309E+01
        91   6  1.479227E+03 -5.892413E+01  1.804982E+01  4.049502E+01 -8.370918E+00  2.515026E+01
        91   7  1.525775E+03 -2.081858E+01  3.386449E+01  2.229227E+01 -4.696770E+00  2.009309E+01
        91   8  1.496484E+03 -4.045591E+01  2.463845E+01  2.186328E+01 -6.320698E+00  2.386003E+01
        91   9  1.476326E+03 -5.577900E+01  2.037442E+01  2.052622E+01 -8.296029E+00  2.764126E+01
        91  10  1.514789E+03 -2.223417E+01  2.817495E+01  5.159586E+01  2.802246E-13  6.129912E-13
        91  11  1.494471E+03 -4.314627E+01  2.009385E+01  5.734545E+01  5.079070E-13 -1.050842E-13
        91  12  1.483234E+03 -5.980048E+01  1.673715E+01  6.212037E+01  6.633441E-13 -2.594266E-13
        91  13  1.519663E+03 -2.278328E+01  3.033201E+01  3.612610E+01  1.094627E-13 -1.401123E-13
        91  14  1.494891E+03 -4.299651E+01  2.176939E+01  3.878111E+01  2.473857E-13 -1.576263E-13
        91  15  1.479227E+03 -5.892413E+01  1.804982E+01  4.049502E+01  2.276825E-13 -5.692061E-14
        91  16  1.525775E+03 -2.081858E+01  3.386449E+01  2.229227E+01  1.401123E-13 -1.050842E-13
        91  17  1.496484E+03 -4.045591E+01  2.463845E+01  2.186328E+01 -2.714675E-13 -1.751404E-14
        91  18  1.476326E+03 -5.577900E+01  2.037442E+01  2.052622E+01 -1.773296E-13  4.816360E-13
        91  19  1.514789E+03 -2.223417E+01  2.817495E+01  5.159586E+01  2.728755E+00 -1.599431E+01
        91  20  1.494471E+03 -4.314627E+01  2.009385E+01  5.734545E+01  5.421125E+00 -1.905129E+01
        91  21  1.483234E+03 -5.980048E+01  1.673715E+01  6.212037E+01  8.461043E+00 -2.212644E+01
        91  22  1.519663E+03 -2.278328E+01  3.033201E+01  3.612610E+01  3.708149E+00 -1.831215E+01
        91  23  1.494891E+03 -4.299651E+01  2.176939E+01  3.878111E+01  5.864778E+00 -2.172309E+01
        91  24  1.479227E+03 -5.892413E+01  1.804982E+01  4.049502E+01  8.370918E+00 -2.515026E+01
        91  25  1.525775E+03 -2.081858E+01  3.386449E+01  2.229227E+01  4.696770E+00 -2.009309E+01
        91  26  1.496484E+03 -4.045591E+01  2.463845E+01  2.186328E+01  6.320698E+00 -2.386003E+01
        91  27  1.476326E+03 -5.577900E+01  2.037442E+01  2.052622E+01  8.296029E+00 -2.764126E+01
        92   1  1.605894E+03  3.110878E+00  5.678819E+01  8.248204E+00  9.274722E-01  2.826502E+00
        92   2  1.558841E+03 -8.728191E+00  4.051440E+01  2.681202E+01  1.120050E-01  8.372040E+00
        92   3  1.529172E+03 -1.257000E+01  3.321858E+01  4.448208E+01 -1.423763E+00  1.395540E+01
        92   4  1.621231E+03  1.991452E+00  6.103450E+01  5.261695E+00 -7.596542E-01  3.244709E+00
        92   5  1.570242E+03 -9.593839E+00  4.384087E+01  1.875704E+01 -1.339074E+00  9.522027E+00
        92   6  1.536618E+03 -1.313984E+01  3.582605E+01  3.140423E+01 -2.632869E+00  1.583262E+01
        92   7  1.637649E+03  3.067623E+00  6.667089E+01  3.564940E+00 -2.447151E+00  3.428097E+00
        92   8  1.582701E+03 -8.334251E+00  4.847614E+01  1.202934E+01 -2.792022E+00  1.043143E+01
        92   9  1.545098E+03 -1.165347E+01  3.966182E+01  1.969018E+01 -3.845383E+00  1.746362E+01
        92  10  1.605894E+03  3.110878E+00  5.678819E+01  8.248204E+00  0.000000E+00 -3.327667E-13
        92  11  1.558841E+03 -8.728191E+00  4.051440E+01  2.681202E+01 -2.889816E-13 -2.627105E-14
        92  12  1.529172E+03 -1.257000E+01  3.321858E+01  4.448208E+01 -1.532478E-13 -4.061067E-13
        92  13  1.621231E+03  1.991452E+00  6.103450E+01  5.261695E+00 -9.646402E-14  2.802246E-13
        92  14  1.570242E+03 -9.593839E+00  4.384087E+01  1.875704E+01 -1.357338E-13 -3.502807E-14
        92  15  1.536618E+03 -1.313984E+01  3.582605E+01  3.140423E+01 -5.473136E-15 -2.189254E-14
        92  16  1.637649E+03  3.067623E+00  6.667089E+01  3.564940E+00  1.401123E-13  6.830474E-13
        92  17  1.582701E+03 -8.334251E+00  4.847614E+01  1.202934E+01 -3.502807E-14  3.502807E-14
        92  18  1.545098E+03 -1.165347E+01  3.966182E+01  1.969018E+01 -2.846031E-13 -6.359784E-13
        92  19  1.605894E+03  3.110878E+00  5.678819E+01  8.248204E+00 -9.274722E-01 -2.826502E+00
        92  20  1.558841E+03 -8.728191E+00  4.051440E+01  2.681202E+01 -1.120050E-01 -8.372040E+00
        92  21  1.529172E+03 -1.257000E+01  3.321858E+01  4.448208E+01  1.423763E+00 -1.395540E+01
        92  22  1.621231E+03  1.991452E+00  6.103450E+01  5.261695E+00  7.596542E-01 -3.244709E+00
        92  23  1.570242E+03 -9.593839E+00  4.384087E+01  1.875704E+01  1.339074E+00 -9.522027E+00
        92  24  1.536618E+03 -1.313984E+01  3.582605E+01  3.140423E+01  2.632869E+00 -1.583262E+01
        92  25  1.637649E+03  3.067623E+00  6.667089E+01  3.564940E+00  2.447151E+00 -3.428097E+00
        92  26  1.582701E+03 -8.334251E+00  4.847614E+01  1.202934E+01  2.792022E+00 -1.043143E+01
        92  27  1.545098E+03 -1.165347E+01  3.966182E+01  1.969018E+01  3.845383E+00 -1.746362E+01
        93   1  1.032781E+03 -1.203507E+02 -3.810611E+00 -2.558274E+02  8.072800E+00  5.348445E+01
        93   2  1.042341E+03 -1.432180E+02 -4.230246E+00 -2.586065E+02  6.506336E+00  5.707532E+01
        93   3  1.051208E+03 -1.688448E+02 -5.927297E+00 -2.626283E+02  4.895024E+00  6.097279E+01
        93   4  9.820841E+02 -1.139087E+02 -4.365288E+00 -2.674527E+02  1.179692E+01  5.392120E+01
        93   5  9.880859E+02 -1.367818E+02 -5.081261E+00 -2.720969E+02  1.052406E+01  5.776009E+01
        93   6  9.933869E+02 -1.625143E+02 -7.031004E+00 -2.780436E+02  9.205486E+00  6.192081E+01
        93   7  9.279403E+02 -1.088633E+02 -6.319270E+00 -2.787520E+02  1.584102E+01  5.437613E+01
        93   8  9.301900E+02 -1.318010E+02 -7.372279E+00 -2.853318E+02  1.487695E+01  5.847065E+01
        93   9  9.317259E+02 -1.577050E+02 -9.618732E+00 -2.932774E+02  1.386639E+01  6.290294E+01
        93  10  1.032781E+03 -1.203507E+02 -3.810611E+00 -2.558274E+02 -1.401123E-13  4.203368E-13
        93  11  1.042341E+03 -1.432180E+02 -4.230246E+00 -2.586065E+02 -2.451965E-13  3.557538E-13
        93  12  1.051208E+03 -1.688448E+02 -5.927297E+00 -2.626283E+02 -5.254211E-14 -9.140137E-14
        93  13  9.820841E+02 -1.139087E+02 -4.365288E+00 -2.674527E+02  1.050842E-13  4.159583E-14
        93  14  9.880859E+02 -1.367818E+02 -5.081261E+00 -2.720969E+02 -3.152526E-13  2.014114E-13
        93  15  9.933869E+02 -1.625143E+02 -7.031004E+00 -2.780436E+02 -5.692061E-13  1.368284E-14
        93  16  9.279403E+02 -1.088633E+02 -6.319270E+00 -2.787520E+02  1.532478E-13 -2.802246E-13
        93  17  9.301900E+02 -1.318010E+02 -7.372279E+00 -2.853318E+02 -1.926544E-13  2.036007E-13
        93  18  9.317259E+02 -1.577050E+02 -9.618732E+00 -2.932774E+02 -4.422294E-13  3.160736E-13
        93  19  1.032781E+03 -1.203507E+02 -3.810611E+00 -2.558274E+02 -8.072800E+00 -5.348445E+01
        93  20  1.042341E+03 -1.432180E+02 -4.230246E+00 -2.586065E+02 -6.506336E+00 -5.707532E+01
        93  21  1.051208E+03 -1.688448E+02 -5.927297E+00 -2.626283E+02 -4.895024E+00 -6.097279E+01
        93  22  9.820841E+02 -1.139087E+02 -4.365288E+00 -2.674527E+02 -1.179692E+01 -5.392120E+01
        93  23  9.880859E+02 -1.367818E+02 -5.081261E+00 -2.720969E+02 -1.052406E+01 -5.776009E+01
        93  24  9.933869E+02 -1.625143E+02 -7.031004E+00 -2.780436E+02 -9.205486E+00 -6.192081E+01
        93  25  9.279403E+02 -1.088633E+02 -6.319270E+00 -2.787520E+02 -1.584102E+01 -5.437613E+01
        93  26  9.301900E+02 -1.318010E+02 -7.372279E+00 -2.853318E+02 -1.487695E+01 -5.847065E+01
        93  27  9.317259E+02 -1.577050E+02 -9.618732E+00 -2.932774E+02 -1.386639E+01 -6.290294E+01
        94   1  1.057245E+03 -1.842379E+02 -6.914616E+00 -2.644249E+02  3.582287E+00  6.330220E+01
        94   2  1.071888E+03 -2.096768E+02 -7.494462E+00 -2.652869E+02  1.841380E-01  6.741592E+01
        94   3  1.086012E+03 -2.375001E+02 -9.595319E+00 -2.677617E+02 -3.272838E+00  7.193122E+01
        94   4  9.978490E+02 -1.778064E+02 -7.936493E+00 -2.810265E+02  7.994508E+00  6.444366E+01
        94   5  1.007777E+03 -2.039716E+02 -9.173143E+00 -2.840136E+02  4.992095E+00  6.899820E+01
        94   6  1.017204E+03 -2.325898E+02 -1.183209E+01 -2.886919E+02  1.929525E+00  7.397645E+01
        94   7  9.340039E+02 -1.731466E+02 -1.067024E+01 -2.975094E+02  1.290877E+01  6.564013E+01
        94   8  9.389784E+02 -2.001186E+02 -1.259112E+01 -3.027021E+02  1.032344E+01  7.064899E+01
        94   9  9.434675E+02 -2.296191E+02 -1.583890E+01 -3.096686E+02  7.676717E+00  7.610476E+01
        94  10  1.057245E+03 -1.842379E+02 -6.914616E+00 -2.644249E+02 -1.401123E-13 -1.423015E-13
        94  11  1.071888E+03 -2.096768E+02 -7.494462E+00 -2.652869E+02 -3.502807E-14  6.129912E-14
        94  12  1.086012E+03 -2.375001E+02 -9.595319E+00 -2.677617E+02  1.488693E-13  7.525562E-14
        94  13  9.978490E+02 -1.778064E+02 -7.936493E+00 -2.810265E+02  3.502807E-14  0.000000E+00
        94  14  1.007777E+03 -2.039716E+02 -9.173143E+00 -2.840136E+02  2.101684E-13  3.940658E-14
        94  15  1.017204E+03 -2.325898E+02 -1.183209E+01 -2.886919E+02  3.152526E-13  2.079792E-14
        94  16  9.340039E+02 -1.731466E+02 -1.067024E+01 -2.975094E+02  1.729511E-13  2.846031E-13
        94  17  9.389784E+02 -2.001186E+02 -1.259112E+01 -3.027021E+02  7.881316E-14  1.423015E-13
        94  18  9.434675E+02 -2.296191E+02 -1.583890E+01 -3.096686E+02  3.809303E-13 -2.539535E-13
        94  19  1.057245E+03 -1.842379E+02 -6.914616E+00 -2.644249E+02 -3.582287E+00 -6.330220E+01
        94  20  1.071888E+03 -2.096768E+02 -7.494462E+00 -2.652869E+02 -1.841380E-01 -6.741592E+01
        94  21  1.086012E+03 -2.375001E+02 -9.595319E+00 -2.677617E+02  3.272838E+00 -7.193122E+01
        94  22  9.978490E+02 -1.778064E+02 -7.936493E+00 -2.810265E+02 -7.994508E+00 -6.444366E+01
        94  23  1.007777E+03 -2.039716E+02 -9.173143E+00 -2.840136E+02 -4.992095E+00 -6.899820E+01
        94  24  1.017204E+03 -2.325898E+02 -1.183209E+01 -2.886919E+02 -1.929525E+00 -7.397645E+01
        94  25  9.340039E+02 -1.731466E+02 -1.067024E+01 -2.975094E+02 -1.290877E+01 -6.564013E+01
        94  26  9.389784E+02 -2.001186E+02 -1.259112E+01 -3.027021E+02 -1.032344E+01 -7.064899E+01
        94  27  9.434675E+02 -2.296191E+02 -1.583890E+01 -3.096686E+02 -7.676717E+00 -7.610476E+01
        95   1  8.952692E+02 -1.670118E+02 -1.165361E+01 -3.040143E+02  1.603859E+01  6.579977E+01
        95   2  8.975696E+02 -1.936777E+02 -1.365529E+01 -3.103373E+02  1.374916E+01  7.089470E+01
        95   3  8.993081E+02 -2.230439E+02 -1.698832E+01 -3.183987E+02  1.139009E+01  7.650661E+01
        95   4  8.264346E+02 -1.548694E+02 -1.378314E+01 -3.080241E+02  2.167072E+01  6.490304E+01
        95   5  8.233834E+02 -1.816446E+02 -1.635677E+01 -3.152565E+02  1.994450E+01  7.011458E+01
        95   6  8.197810E+02 -2.111993E+02 -2.015543E+01 -3.243002E+02  1.814788E+01  7.586767E+01
        95   7  7.581930E+02 -1.423770E+02 -1.598587E+01 -3.113353E+02  2.746747E+01  6.402419E+01
        95   8  7.495059E+02 -1.693667E+02 -1.926341E+01 -3.195341E+02  2.633078E+01  6.935933E+01
        95   9  7.402728E+02 -1.992236E+02 -2.366381E+01 -3.296209E+02  2.512314E+01  7.526177E+01
        95  10  8.952692E+02 -1.670118E+02 -1.165361E+01 -3.040143E+02 -4.203368E-13 -2.101684E-13
        95  11  8.975696E+02 -1.936777E+02 -1.365529E+01 -3.103373E+02  1.576263E-13 -1.466800E-13
        95  12  8.993081E+02 -2.230439E+02 -1.698832E+01 -3.183987E+02  1.663833E-13 -1.264294E-13
        95  13  8.264346E+02 -1.548694E+02 -1.378314E+01 -3.080241E+02 -3.502807E-14  5.254211E-14
        95  14  8.233834E+02 -1.816446E+02 -1.635677E+01 -3.152565E+02  1.401123E-13  1.707618E-13
        95  15  8.197810E+02 -2.111993E+02 -2.015543E+01 -3.243002E+02 -1.576263E-13  2.681837E-14
        95  16  7.581930E+02 -1.423770E+02 -1.598587E+01 -3.113353E+02  1.182197E-13  4.247154E-13
        95  17  7.495059E+02 -1.693667E+02 -1.926341E+01 -3.195341E+02 -4.378509E-14  4.137691E-13
        95  18  7.402728E+02 -1.992236E+02 -2.366381E+01 -3.296209E+02 -1.926544E-13  2.947284E-13
        95  19  8.952692E+02 -1.670118E+02 -1.165361E+01 -3.040143E+02 -1.603859E+01 -6.579977E+01
        95  20  8.975696E+02 -1.936777E+02 -1.365529E+01 -3.103373E+02 -1.374916E+01 -7.089470E+01
        95  21  8.993081E+02 -2.230439E+02 -1.698832E+01 -3.183987E+02 -1.139009E+01 -7.650661E+01
        95  22  8.264346E+02 -1.548694E+02 -1.378314E+01 -3.080241E+02 -2.167072E+01 -6.490304E+01
        95  23  8.233834E+02 -1.816446E+02 -1.635677E+01 -3.152565E+02 -1.994450E+01 -7.011458E+01
        95  24  8.197810E+02 -2.111993E+02 -2.015543E+01 -3.243002E+02 -1.814788E+01 -7.586767E+01
        95  25  7.581930E+02 -1.423770E+02 -1.598587E+01 -3.113353E+02 -2.746747E+01 -6.402419E+01
        95  26  7.495059E+02 -1.693667E+02 -1.926341E+01 -3.195341E+02 -2.633078E+01 -6.935933E+01
        95  27  7.402728E+02 -1.992236E+02 -2.366381E+01 -3.296209E+02 -2.512314E+01 -7.526177E+01
        96   1  8.955542E+02 -1.031969E+02 -6.885975E+00 -2.831227E+02  1.837944E+01  5.427693E+01
        96   2  8.953924E+02 -1.262019E+02 -8.199288E+00 -2.904430E+02  1.762677E+01  5.844412E+01
        96   3  8.947216E+02 -1.517227E+02 -1.046209E+01 -2.991688E+02  1.682151E+01  6.300133E+01
        96   4  8.382331E+02 -9.192538E+01 -8.108753E+00 -2.846261E+02  2.292578E+01  5.326202E+01
        96   5  8.339522E+02 -1.143886E+02 -9.678236E+00 -2.928680E+02  2.258665E+01  5.745820E+01
        96   6  8.291559E+02 -1.394508E+02 -1.213772E+01 -3.025748E+02  2.219467E+01  6.206126E+01
        96   7  7.808636E+02 -8.065313E+01 -9.650788E+00 -2.853823E+02  2.756223E+01  5.225218E+01
        96   8  7.722356E+02 -1.026453E+02 -1.158651E+01 -2.945944E+02  2.765513E+01  5.648055E+01
        96   9  7.630813E+02 -1.273264E+02 -1.435598E+01 -3.053338E+02  2.769508E+01  6.113345E+01
        96  10  8.955542E+02 -1.031969E+02 -6.885975E+00 -2.831227E+02  4.903930E-13 -2.189254E-15
        96  11  8.953924E+02 -1.262019E+02 -8.199288E+00 -2.904430E+02  1.225982E-13 -2.134523E-13
        96  12  8.947216E+02 -1.517227E+02 -1.046209E+01 -2.991688E+02 -8.319167E-14 -3.209994E-13
        96  13  8.382331E+02 -9.192538E+01 -8.108753E+00 -2.846261E+02 -3.502807E-14 -8.538092E-14
        96  14  8.339522E+02 -1.143886E+02 -9.678236E+00 -2.928680E+02  7.005614E-14 -2.583320E-13
        96  15  8.291559E+02 -1.394508E+02 -1.213772E+01 -3.025748E+02 -1.576263E-13 -1.028950E-13
        96  16  7.808636E+02 -8.065313E+01 -9.650788E+00 -2.853823E+02 -1.576263E-13  1.401123E-13
        96  17  7.722356E+02 -1.026453E+02 -1.158651E+01 -2.945944E+02 -7.005614E-14  2.046953E-13
        96  18  7.630813E+02 -1.273264E+02 -1.435598E+01 -3.053338E+02  1.401123E-13  1.997695E-14
        96  19  8.955542E+02 -1.031969E+02 -6.885975E+00 -2.831227E+02 -1.837944E+01 -5.427693E+01
        96  20  8.953924E+02 -1.262019E+02 -8.199288E+00 -2.904430E+02 -1.762677E+01 -5.844412E+01
        96  21  8.947216E+02 -1.517227E+02 -1.046209E+01 -2.991688E+02 -1.682151E+01 -6.300133E+01
        96  22  8.382331E+02 -9.192538E+01 -8.108753E+00 -2.846261E+02 -2.292578E+01 -5.326202E+01
        96  23  8.339522E+02 -1.143886E+02 -9.678236E+00 -2.928680E+02 -2.258665E+01 -5.745820E+01
        96  24  8.291559E+02 -1.394508E+02 -1.213772E+01 -3.025748E+02 -2.219467E+01 -6.206126E+01
        96  25  7.808636E+02 -8.065313E+01 -9.650788E+00 -2.853823E+02 -2.756223E+01 -5.225218E+01
        96  26  7.722356E+02 -1.026453E+02 -1.158651E+01 -2.945944E+02 -2.765513E+01 -5.648055E+01
        96  27  7.630813E+02 -1.273264E+02 -1.435598E+01 -3.053338E+02 -2.769508E+01 -6.113345E+01
        97   1  1.022374E+03 -3.628958E+02 -4.059398E+01 -3.076333E+02 -4.659801E+01  1.162414E+02
        97   2  8.370688E+02 -3.593761E+02 -6.117636E+01 -3.010718E+02 -4.560763E+01  1.299961E+02
        97   3  6.126393E+02 -3.765195E+02 -9.519497E+01 -2.852829E+02 -4.279167E+01  1.430920E+02
        97   4  9.218206E+02 -3.698140E+02 -4.811093E+01 -3.220953E+02 -3.231425E+01  1.175209E+02
        97   5  7.718908E+02 -3.659479E+02 -5.940057E+01 -3.159260E+02 -2.937641E+01  1.277751E+02
        97   6  5.605994E+02 -3.957420E+02 -9.594570E+01 -2.952942E+02 -2.397776E+01  1.372105E+02
        97   7  8.197951E+02 -3.692860E+02 -5.570492E+01 -3.344282E+02 -1.957541E+01  1.174169E+02
        97   8  7.130026E+02 -3.683666E+02 -5.745291E+01 -3.277208E+02 -1.468133E+01  1.236569E+02
        97   9  5.161521E+02 -4.170907E+02 -9.910919E+01 -3.000234E+02 -6.524321E+00  1.289240E+02
        97  10  1.022374E+03 -3.628958E+02 -4.059398E+01 -3.076333E+02  2.802246E-13  4.378509E-14
        97  11  8.370688E+02 -3.593761E+02 -6.117636E+01 -3.010718E+02  1.751404E-14  5.910987E-14
        97  12  6.126393E+02 -3.765195E+02 -9.519497E+01 -2.852829E+02 -1.050842E-13 -4.214315E-14
        97  13  9.218206E+02 -3.698140E+02 -4.811093E+01 -3.220953E+02 -1.751404E-14  0.000000E+00
        97  14  7.718908E+02 -3.659479E+02 -5.940057E+01 -3.159260E+02  7.005614E-14  8.757018E-15
        97  15  5.605994E+02 -3.957420E+02 -9.594570E+01 -2.952942E+02  1.138412E-13  3.502807E-14
        97  16  8.197951E+02 -3.692860E+02 -5.570492E+01 -3.344282E+02  7.005614E-14 -1.751404E-13
        97  17  7.130026E+02 -3.683666E+02 -5.745291E+01 -3.277208E+02  4.028228E-13 -6.348838E-14
        97  18  5.161521E+02 -4.170907E+02 -9.910919E+01 -3.000234E+02  4.903930E-13  1.319026E-13
        97  19  1.022374E+03 -3.628958E+02 -4.059398E+01 -3.076333E+02  4.659801E+01 -1.162414E+02
        97  20  8.370688E+02 -3.593761E+02 -6.117636E+01 -3.010718E+02  4.560763E+01 -1.299961E+02
        97  21  6.126393E+02 -3.765195E+02 -9.519497E+01 -2.852829E+02  4.279167E+01 -1.430920E+02
        97  22  9.218206E+02 -3.698140E+02 -4.811093E+01 -3.220953E+02  3.231425E+01 -1.175209E+02
        97  23  7.718908E+02 -3.659479E+02 -5.940057E+01 -3.159260E+02  2.937641E+01 -1.277751E+02
        97  24  5.605994E+02 -3.957420E+02 -9.594570E+01 -2.952942E+02  2.397776E+01 -1.372105E+02
        97  25  8.197951E+02 -3.692860E+02 -5.570492E+01 -3.344282E+02  1.957541E+01 -1.174169E+02
        97  26  7.130026E+02 -3.683666E+02 -5.745291E+01 -3.277208E+02  1.468133E+01 -1.236569E+02
        97  27  5.161521E+02 -4.170907E+02 -9.910919E+01 -3.000234E+02  6.524321E+00 -1.289240E+02
        98   1  4.533286E+02 -3.821409E+02 -1.201575E+02 -2.403113E+02 -4.060479E+01  1.488169E+02
        98   2  2.106474E+02 -5.109848E+02 -1.892270E+02 -5.517707E+01 -4.115872E+01  1.465561E+02
        98   3 -2.197705E+01 -6.435720E+02 -2.571872E+02  1.360060E+02 -4.113379E+01  1.440865E+02
        98   4  4.184822E+02 -4.477576E+02 -1.318629E+02 -2.581964E+02 -2.046528E+01  1.405841E+02
        98   5  2.255662E+02 -5.462986E+02 -1.809652E+02 -1.303026E+02 -1.798528E+01  1.370966E+02
        98   6  4.286853E+01 -6.538094E+02 -2.304636E+02  9.698085E+00 -1.509810E+01  1.334736E+02
        98   7  4.113834E+02 -4.284299E+02 -1.143788E+02 -2.700501E+02 -1.201883E+00  1.303841E+02
        98   8  2.642596E+02 -5.101661E+02 -1.496066E+02 -2.060987E+02  4.675636E+00  1.257222E+02
        98   9  1.278425E+02 -6.062434E+02 -1.866814E+02 -1.219976E+02  1.071790E+01  1.210110E+02
        98  10  4.533286E+02 -3.821409E+02 -1.201575E+02 -2.403113E+02  0.000000E+00  1.970329E-13
        98  11  2.106474E+02 -5.109848E+02 -1.892270E+02 -5.517707E+01  1.576263E-13 -6.786689E-14
        98  12 -2.197705E+01 -6.435720E+02 -2.571872E+02  1.360060E+02  1.313553E-13 -2.621632E-13
        98  13  4.184822E+02 -4.477576E+02 -1.318629E+02 -2.581964E+02  6.129912E-14 -1.225982E-13
        98  14  2.255662E+02 -5.462986E+02 -1.809652E+02 -1.303026E+02  1.707618E-13 -1.313553E-13
        98  15  4.286853E+01 -6.538094E+02 -2.304636E+02  9.698085E+00  6.129912E-14 -1.904651E-13
        98  16  4.113834E+02 -4.284299E+02 -1.143788E+02 -2.700501E+02  1.751404E-13 -2.846031E-13
        98  17  2.642596E+02 -5.101661E+02 -1.496066E+02 -2.060987E+02  1.225982E-13 -1.313553E-13
        98  18  1.278425E+02 -6.062434E+02 -1.866814E+02 -1.219976E+02  5.692061E-14  1.882759E-13
        98  19  4.533286E+02 -3.821409E+02 -1.201575E+02 -2.403113E+02  4.060479E+01 -1.488169E+02
        98  20  2.106474E+02 -5.109848E+02 -1.892270E+02 -5.517707E+01  4.115872E+01 -1.465561E+02
        98  21 -2.197705E+01 -6.435720E+02 -2.571872E+02  1.360060E+02  4.113379E+01 -1.440865E+02
        98  22  4.184822E+02 -4.477576E+02 -1.318629E+02 -2.581964E+02  2.046528E+01 -1.405841E+02
        98  23  2.255662E+02 -5.462986E+02 -1.809652E+02 -1.303026E+02  1.798528E+01 -1.370966E+02
        98  24  4.286853E+01 -6.538094E+02 -2.304636E+02  9.698085E+00  1.509810E+01 -1.334736E+02
        98  25  4.113834E+02 -4.284299E+02 -1.143788E+02 -2.700501E+02  1.201883E+00 -1.303841E+02
        98  26  2.642596E+02 -5.101661E+02 -1.496066E+02 -2.060987E+02 -4.675636E+00 -1.257222E+02
        98  27  1.278425E+02 -6.062434E+02 -1.866814E+02 -1.219976E+02 -1.071790E+01 -1.210110E+02
        99   1  4.183220E+02 -3.948136E+02 -9.619402E+01 -2.800922E+02  7.153160E+00  1.240306E+02
        99   2  2.790091E+02 -4.898065E+02 -1.362652E+02 -2.175213E+02  1.415105E+01  1.189728E+02
        99   3  1.454220E+02 -5.790967E+02 -1.736704E+02 -1.597586E+02  2.143892E+01  1.138352E+02
        99   4  3.918825E+02 -3.907859E+02 -9.534040E+01 -2.894907E+02  2.039898E+01  1.130600E+02
        99   5  2.798089E+02 -4.524755E+02 -1.227588E+02 -2.415307E+02  2.721086E+01  1.078003E+02
        99   6  1.762621E+02 -5.074066E+02 -1.463886E+02 -1.992956E+02  3.439360E+01  1.024576E+02
        99   7  3.710619E+02 -3.690451E+02 -9.100421E+01 -2.969640E+02  3.354076E+01  1.018558E+02
        99   8  2.873699E+02 -3.937535E+02 -1.042220E+02 -2.653746E+02  4.018015E+01  9.629011E+01
        99   9  2.158285E+02 -4.107206E+02 -1.123035E+02 -2.405246E+02  4.729695E+01  9.064938E+01
        99  10  4.183220E+02 -3.948136E+02 -9.619402E+01 -2.800922E+02 -4.203368E-13 -1.904651E-13
        99  11  2.790091E+02 -4.898065E+02 -1.362652E+02 -2.175213E+02 -2.101684E-13  6.677226E-14
        99  12  1.454220E+02 -5.790967E+02 -1.736704E+02 -1.597586E+02 -1.050842E-13  2.260405E-13
        99  13  3.918825E+02 -3.907859E+02 -9.534040E+01 -2.894907E+02 -1.313553E-13 -5.254211E-14
        99  14  2.798089E+02 -4.524755E+02 -1.227588E+02 -2.415307E+02 -1.751404E-13  8.757018E-15
        99  15  1.762621E+02 -5.074066E+02 -1.463886E+02 -1.992956E+02  4.816360E-14 -5.910987E-14
        99  16  3.710619E+02 -3.690451E+02 -9.100421E+01 -2.969640E+02  1.751404E-13  2.123577E-13
        99  17  2.873699E+02 -3.937535E+02 -1.042220E+02 -2.653746E+02  7.005614E-14  4.378509E-15
        99  18  2.158285E+02 -4.107206E+02 -1.123035E+02 -2.405246E+02  1.313553E-14 -1.245138E-13
        99  19  4.183220E+02 -3.948136E+02 -9.619402E+01 -2.800922E+02 -7.153160E+00 -1.240306E+02
        99  20  2.790091E+02 -4.898065E+02 -1.362652E+02 -2.175213E+02 -1.415105E+01 -1.189728E+02
        99  21  1.454220E+02 -5.790967E+02 -1.736704E+02 -1.597586E+02 -2.143892E+01 -1.138352E+02
        99  22  3.918825E+02 -3.907859E+02 -9.534040E+01 -2.894907E+02 -2.039898E+01 -1.130600E+02
        99  23  2.798089E+02 -4.524755E+02 -1.227588E+02 -2.415307E+02 -2.721086E+01 -1.078003E+02
        99  24  1.762621E+02 -5.074066E+02 -1.463886E+02 -1.992956E+02 -3.439360E+01 -1.024576E+02
        99  25  3.710619E+02 -3.690451E+02 -9.100421E+01 -2.969640E+02 -3.354076E+01 -1.018558E+02
        99  26  2.873699E+02 -3.937535E+02 -1.042220E+02 -2.653746E+02 -4.018015E+01 -9.629011E+01
        99  27  2.158285E+02 -4.107206E+02 -1.123035E+02 -2.405246E+02 -4.729695E+01 -9.064938E+01
       100   1  7.808339E+02 -3.603652E+02 -5.236726E+01 -3.383505E+02 -1.127898E+01  1.155083E+02
       100   2  6.374655E+02 -3.850586E+02 -7.476303E+01 -3.247476E+02 -4.912866E+00  1.196755E+02
       100   3  4.835752E+02 -4.133171E+02 -9.994860E+01 -3.108381E+02  2.450813E+00  1.235690E+02
       100   4  6.967108E+02 -3.529462E+02 -5.630648E+01 -3.408957E+02  1.960789E+00  1.109681E+02
       100   5  5.869087E+02 -3.648049E+02 -6.865321E+01 -3.291629E+02  8.266780E+00  1.130257E+02
       100   6  4.540390E+02 -3.867109E+02 -9.019381E+01 -3.153068E+02  1.620887E+01  1.147168E+02
       100   7  6.065234E+02 -3.397939E+02 -6.300864E+01 -3.422356E+02  1.439763E+01  1.057088E+02
       100   8  5.398580E+02 -3.379998E+02 -6.257524E+01 -3.311264E+02  2.034588E+01  1.050166E+02
       100   9  4.313395E+02 -3.553117E+02 -8.038468E+01 -3.155281E+02  2.886593E+01  1.039190E+02
       100  10  7.808339E+02 -3.603652E+02 -5.236726E+01 -3.383505E+02 -2.451965E-13 -1.225982E-13
       100  11  6.374655E+02 -3.850586E+02 -7.476303E+01 -3.247476E+02  0.000000E+00  9.194868E-14
       100  12  4.835752E+02 -4.133171E+02 -9.994860E+01 -3.108381E+02 -2.233039E-13  2.112630E-13
       100  13  6.967108E+02 -3.529462E+02 -5.630648E+01 -3.408957E+02 -1.401123E-13 -1.751404E-14
       100  14  5.869087E+02 -3.648049E+02 -6.865321E+01 -3.291629E+02  0.000000E+00  1.576263E-13
       100  15  4.540390E+02 -3.867109E+02 -9.019381E+01 -3.153068E+02 -1.313553E-13  7.334002E-14
       100  16  6.065234E+02 -3.397939E+02 -6.300864E+01 -3.422356E+02  2.802246E-13  1.751404E-13
       100  17  5.398580E+02 -3.379998E+02 -6.257524E+01 -3.311264E+02 -2.627105E-13  5.035285E-14
       100  18  4.313395E+02 -3.553117E+02 -8.038468E+01 -3.155281E+02 -2.189254E-14 -1.915598E-14
       100  19  7.808339E+02 -3.603652E+02 -5.236726E+01 -3.383505E+02  1.127898E+01 -1.155083E+02
       100  20  6.374655E+02 -3.850586E+02 -7.476303E+01 -3.247476E+02  4.912866E+00 -1.196755E+02
       100  21  4.835752E+02 -4.133171E+02 -9.994860E+01 -3.108381E+02 -2.450813E+00 -1.235690E+02
       100  22  6.967108E+02 -3.529462E+02 -5.630648E+01 -3.408957E+02 -1.960789E+00 -1.109681E+02
       100  23  5.869087E+02 -3.648049E+02 -6.865321E+01 -3.291629E+02 -8.266780E+00 -1.130257E+02
       100  24  4.540390E+02 -3.867109E+02 -9.019381E+01 -3.153068E+02 -1.620887E+01 -1.147168E+02
       100  25  6.065234E+02 -3.397939E+02 -6.300864E+01 -3.422356E+02 -1.439763E+01 -1.057088E+02
       100  26  5.398580E+02 -3.379998E+02 -6.257524E+01 -3.311264E+02 -2.034588E+01 -1.050166E+02
       100  27  4.313395E+02 -3.553117E+02 -8.038468E+01 -3.155281E+02 -2.886593E+01 -1.039190E+02
       101   1  1.162998E+03 -3.500730E+02 -2.207678E+01 -2.741345E+02 -4.849452E+01  1.049928E+02
       101   2  1.155597E+03 -3.437326E+02 -2.062733E+01 -2.661692E+02 -3.725398E+01  9.703872E+01
       101   3  1.157119E+03 -3.261334E+02 -1.530311E+01 -2.639454E+02 -2.610018E+01  8.932848E+01
       101   4  1.299020E+03 -3.262933E+02 -1.023772E+01 -2.075057E+02 -5.511251E+01  8.967015E+01
       101   5  1.274100E+03 -3.224288E+02 -1.001729E+01 -2.066246E+02 -4.355161E+01  8.454368E+01
       101   6  1.257284E+03 -3.076270E+02 -6.793097E+00 -2.118411E+02 -3.213611E+01  7.992456E+01
       101   7  1.413992E+03 -3.099633E+02 -2.310685E+00 -1.422471E+02 -5.932692E+01  7.485789E+01
       101   8  1.369014E+03 -3.099918E+02 -5.564479E+00 -1.483944E+02 -4.715085E+01  7.257326E+01
       101   9  1.331127E+03 -2.994943E+02 -6.770717E+00 -1.609741E+02 -3.514308E+01  7.104978E+01
       101  10  1.162998E+03 -3.500730E+02 -2.207678E+01 -2.741345E+02  2.451965E-13  0.000000E+00
       101  11  1.155597E+03 -3.437326E+02 -2.062733E+01 -2.661692E+02  1.751404E-14 -2.802246E-13
       101  12  1.157119E+03 -3.261334E+02 -1.530311E+01 -2.639454E+02  0.000000E+00 -1.773296E-13
       101  13  1.299020E+03 -3.262933E+02 -1.023772E+01 -2.075057E+02 -2.451965E-13 -3.502807E-14
       101  14  1.274100E+03 -3.224288E+02 -1.001729E+01 -2.066246E+02  0.000000E+00 -1.926544E-13
       101  15  1.257284E+03 -3.076270E+02 -6.793097E+00 -2.118411E+02 -4.115798E-13 -5.910987E-14
       101  16  1.413992E+03 -3.099633E+02 -2.310685E+00 -1.422471E+02 -4.072013E-13 -4.203368E-13
       101  17  1.369014E+03 -3.099918E+02 -5.564479E+00 -1.483944E+02 -5.254211E-14 -2.758461E-13
       101  18  1.331127E+03 -2.994943E+02 -6.770717E+00 -1.609741E+02  2.714675E-13  4.378509E-14
       101  19  1.162998E+03 -3.500730E+02 -2.207678E+01 -2.741345E+02  4.849452E+01 -1.049928E+02
       101  20  1.155597E+03 -3.437326E+02 -2.062733E+01 -2.661692E+02  3.725398E+01 -9.703872E+01
       101  21  1.157119E+03 -3.261334E+02 -1.530311E+01 -2.639454E+02  2.610018E+01 -8.932848E+01
       101  22  1.299020E+03 -3.262933E+02 -1.023772E+01 -2.075057E+02  5.511251E+01 -8.967015E+01
       101  23  1.274100E+03 -3.224288E+02 -1.001729E+01 -2.066246E+02  4.355161E+01 -8.454368E+01
       101  24  1.257284E+03 -3.076270E+02 -6.793097E+00 -2.118411E+02  3.213611E+01 -7.992456E+01
       101  25  1.413992E+03 -3.099633E+02 -2.310685E+00 -1.422471E+02  5.932692E+01 -7.485789E+01
       101  26  1.369014E+03 -3.099918E+02 -5.564479E+00 -1.483944E+02  4.715085E+01 -7.257326E+01
       101  27  1.331127E+03 -2.994943E+02 -6.770717E+00 -1.609741E+02  3.514308E+01 -7.104978E+01
       102   1  1.148664E+03 -3.130854E+02 -1.511067E+01 -2.613195E+02 -2.112918E+01  8.519105E+01
       102   2  1.139546E+03 -2.843768E+02 -1.216877E+01 -2.552329E+02 -1.478128E+01  7.878757E+01
       102   3  1.133513E+03 -2.541922E+02 -8.912069E+00 -2.519534E+02 -8.568602E+00  7.276238E+01
       102   4  1.238256E+03 -2.970712E+02 -8.344528E+00 -2.131215E+02 -2.628829E+01  7.726041E+01
       102   5  1.218138E+03 -2.713761E+02 -6.297511E+00 -2.133629E+02 -1.939539E+01  7.233589E+01
       102   6  1.200710E+03 -2.441355E+02 -4.451091E+00 -2.167563E+02 -1.265055E+01  6.792742E+01
       102   7  1.316514E+03 -2.854538E+02 -4.220069E+00 -1.659835E+02 -3.036364E+01  6.950543E+01
       102   8  1.284126E+03 -2.633915E+02 -4.101657E+00 -1.723915E+02 -2.279311E+01  6.605329E+01
       102   9  1.253906E+03 -2.397760E+02 -4.755450E+00 -1.822579E+02 -1.536529E+01  6.324704E+01
       102  10  1.148664E+03 -3.130854E+02 -1.511067E+01 -2.613195E+02 -1.401123E-13 -7.881316E-14
       102  11  1.139546E+03 -2.843768E+02 -1.216877E+01 -2.552329E+02  1.225982E-13 -3.590377E-13
       102  12  1.133513E+03 -2.541922E+02 -8.912069E+00 -2.519534E+02 -7.005614E-14 -4.367563E-13
       102  13  1.238256E+03 -2.970712E+02 -8.344528E+00 -2.131215E+02 -2.802246E-13 -7.005614E-14
       102  14  1.218138E+03 -2.713761E+02 -6.297511E+00 -2.133629E+02  7.005614E-14 -2.014114E-13
       102  15  1.200710E+03 -2.441355E+02 -4.451091E+00 -2.167563E+02  2.714675E-13 -5.692061E-14
       102  16  1.316514E+03 -2.854538E+02 -4.220069E+00 -1.659835E+02 -1.926544E-13  0.000000E+00
       102  17  1.284126E+03 -2.633915E+02 -4.101657E+00 -1.723915E+02  2.189254E-14  7.005614E-14
       102  18  1.253906E+03 -2.397760E+02 -4.755450E+00 -1.822579E+02  8.757018E-14  1.072735E-13
       102  19  1.148664E+03 -3.130854E+02 -1.511067E+01 -2.613195E+02  2.112918E+01 -8.519105E+01
       102  20  1.139546E+03 -2.843768E+02 -1.216877E+01 -2.552329E+02  1.478128E+01 -7.878757E+01
       102  21  1.133513E+03 -2.541922E+02 -8.912069E+00 -2.519534E+02  8.568602E+00 -7.276238E+01
       102  22  1.238256E+03 -2.970712E+02 -8.344528E+00 -2.131215E+02  2.628829E+01 -7.726041E+01
       102  23  1.218138E+03 -2.713761E+02 -6.297511E+00 -2.133629E+02  1.939539E+01 -7.233589E+01
       102  24  1.200710E+03 -2.441355E+02 -4.451091E+00 -2.167563E+02  1.265055E+01 -6.792742E+01
       102  25  1.316514E+03 -2.854538E+02 -4.220069E+00 -1.659835E+02  3.036364E+01 -6.950543E+01
       102  26  1.284126E+03 -2.633915E+02 -4.101657E+00 -1.723915E+02  2.279311E+01 -6.605329E+01
       102  27  1.253906E+03 -2.397760E+02 -4.755450E+00 -1.822579E+02  1.536529E+01 -6.324704E+01
       103   1  1.350639E+03 -2.756020E+02 -3.264770E+00 -1.339104E+02 -3.140860E+01  6.388418E+01
       103   2  1.317121E+03 -2.550627E+02 -2.613558E+00 -1.473966E+02 -2.410704E+01  6.250976E+01
       103   3  1.283435E+03 -2.319393E+02 -3.229347E+00 -1.599258E+02 -1.664224E+01  6.025275E+01
       103   4  1.398615E+03 -2.481276E+02  3.869267E-01 -8.485323E+01 -3.157020E+01  5.552906E+01
       103   5  1.364956E+03 -2.305349E+02  1.777143E+00 -1.042784E+02 -2.495993E+01  5.560487E+01
       103   6  1.331539E+03 -2.104592E+02  2.054142E+00 -1.233175E+02 -1.826545E+01  5.501023E+01
       103   7  1.434568E+03 -2.255881E+02  1.390812E+00 -3.766960E+01 -3.074688E+01  4.733364E+01
       103   8  1.398428E+03 -2.120842E+02  1.917109E+00 -6.312726E+01 -2.463581E+01  4.886357E+01
       103   9  1.362672E+03 -1.962929E+02  1.375675E+00 -8.875408E+01 -1.849210E+01  4.992551E+01
       103  10  1.350639E+03 -2.756020E+02 -3.264770E+00 -1.339104E+02 -2.451965E-13 -2.977386E-13
       103  11  1.317121E+03 -2.550627E+02 -2.613558E+00 -1.473966E+02  1.926544E-13  1.970329E-13
       103  12  1.283435E+03 -2.319393E+02 -3.229347E+00 -1.599258E+02  3.634162E-13  2.791299E-13
       103  13  1.398615E+03 -2.481276E+02  3.869267E-01 -8.485323E+01  1.751404E-13  6.129912E-14
       103  14  1.364956E+03 -2.305349E+02  1.777143E+00 -1.042784E+02  2.451965E-13  1.488693E-13
       103  15  1.331539E+03 -2.104592E+02  2.054142E+00 -1.233175E+02  6.830474E-13  8.319167E-14
       103  16  1.434568E+03 -2.255881E+02  1.390812E+00 -3.766960E+01 -8.757018E-15  1.401123E-13
       103  17  1.398428E+03 -2.120842E+02  1.917109E+00 -6.312726E+01  1.225982E-13  1.313553E-13
       103  18  1.362672E+03 -1.962929E+02  1.375675E+00 -8.875408E+01  2.561428E-13 -3.710786E-13
       103  19  1.350639E+03 -2.756020E+02 -3.264770E+00 -1.339104E+02  3.140860E+01 -6.388418E+01
       103  20  1.317121E+03 -2.550627E+02 -2.613558E+00 -1.473966E+02  2.410704E+01 -6.250976E+01
       103  21  1.283435E+03 -2.319393E+02 -3.229347E+00 -1.599258E+02  1.664224E+01 -6.025275E+01
       103  22  1.398615E+03 -2.481276E+02  3.869267E-01 -8.485323E+01  3.157020E+01 -5.552906E+01
       103  23  1.364956E+03 -2.305349E+02  1.777143E+00 -1.042784E+02  2.495993E+01 -5.560487E+01
       103  24  1.331539E+03 -2.104592E+02  2.054142E+00 -1.233175E+02  1.826545E+01 -5.501023E+01
       103  25  1.434568E+03 -2.255881E+02  1.390812E+00 -3.766960E+01  3.074688E+01 -4.733364E+01
       103  26  1.398428E+03 -2.120842E+02  1.917109E+00 -6.312726E+01  2.463581E+01 -4.886357E+01
       103  27  1.362672E+03 -1.962929E+02  1.375675E+00 -8.875408E+01  1.849210E+01 -4.992551E+01
       104   1  1.460427E+03 -2.920162E+02  9.394798E-01 -9.570342E+01 -5.958459E+01  6.531454E+01
       104   2  1.413568E+03 -2.955385E+02 -2.394296E+00 -1.113503E+02 -4.802747E+01  6.593223E+01
       104   3  1.369737E+03 -2.873039E+02 -4.591176E+00 -1.259937E+02 -3.616955E+01  6.492243E+01
       104   4  1.514680E+03 -2.506857E+02  6.222156E+00 -2.658078E+01 -5.700203E+01  5.031939E+01
       104   5  1.471065E+03 -2.565428E+02  4.673668E+00 -4.879884E+01 -4.716231E+01  5.333492E+01
       104   6  1.431048E+03 -2.511155E+02  4.609614E+00 -7.077412E+01 -3.715918E+01  5.504954E+01
       104   7  1.544239E+03 -2.194387E+02  6.251096E+00  3.890932E+01 -5.242070E+01  3.574873E+01
       104   8  1.499405E+03 -2.299993E+02  3.312937E+00  9.713587E+00 -4.394824E+01  4.119433E+01
       104   9  1.458316E+03 -2.299039E+02  2.033739E+00 -2.001206E+01 -3.540695E+01  4.565568E+01
       104  10  1.460427E+03 -2.920162E+02  9.394798E-01 -9.570342E+01 -2.276825E-13 -4.115798E-13
       104  11  1.413568E+03 -2.955385E+02 -2.394296E+00 -1.113503E+02  1.751404E-14 -4.378509E-14
       104  12  1.369737E+03 -2.873039E+02 -4.591176E+00 -1.259937E+02  3.546592E-13 -3.645109E-13
       104  13  1.514680E+03 -2.506857E+02  6.222156E+00 -2.658078E+01 -3.502807E-14  8.757018E-15
       104  14  1.471065E+03 -2.565428E+02  4.673668E+00 -4.879884E+01  0.000000E+00  2.451965E-13
       104  15  1.431048E+03 -2.511155E+02  4.609614E+00 -7.077412E+01  9.632719E-14  7.005614E-14
       104  16  1.544239E+03 -2.194387E+02  6.251096E+00  3.890932E+01  5.166640E-13  4.290939E-13
       104  17  1.499405E+03 -2.299993E+02  3.312937E+00  9.713587E+00 -2.627105E-14  6.348838E-13
       104  18  1.458316E+03 -2.299039E+02  2.033739E+00 -2.001206E+01 -6.721011E-13  2.725622E-13
       104  19  1.460427E+03 -2.920162E+02  9.394798E-01 -9.570342E+01  5.958459E+01 -6.531454E+01
       104  20  1.413568E+03 -2.955385E+02 -2.394296E+00 -1.113503E+02  4.802747E+01 -6.593223E+01
       104  21  1.369737E+03 -2.873039E+02 -4.591176E+00 -1.259937E+02  3.616955E+01 -6.492243E+01
       104  22  1.514680E+03 -2.506857E+02  6.222156E+00 -2.658078E+01  5.700203E+01 -5.031939E+01
       104  23  1.471065E+03 -2.565428E+02  4.673668E+00 -4.879884E+01  4.716231E+01 -5.333492E+01
       104  24  1.431048E+03 -2.511155E+02  4.609614E+00 -7.077412E+01  3.715918E+01 -5.504954E+01
       104  25  1.544239E+03 -2.194387E+02  6.251096E+00  3.890932E+01  5.242070E+01 -3.574873E+01
       104  26  1.499405E+03 -2.299993E+02  3.312937E+00  9.713587E+00  4.394824E+01 -4.119433E+01
       104  27  1.458316E+03 -2.299039E+02  2.033739E+00 -2.001206E+01  3.540695E+01 -4.565568E+01
       105   1  1.767646E+03  1.572615E+02  4.969150E+01  1.649707E+02 -5.955740E+01 -6.358420E+01
       105   2  1.835377E+03  1.836170E+02  6.089665E+01  1.409124E+02 -6.400658E+01 -6.622942E+01
       105   3  1.926001E+03  2.211944E+02  8.143616E+01  1.116867E+02 -6.845224E+01 -6.887663E+01
       105   4  1.840294E+03  1.374131E+02  6.427286E+01  1.459244E+02 -7.508409E+01 -5.055267E+01
       105   5  1.921043E+03  1.708312E+02  8.076057E+01  1.099008E+02 -8.089870E+01 -5.258365E+01
       105   6  2.024399E+03  2.154496E+02  1.063579E+02  6.822846E+01 -8.684521E+01 -5.451483E+01
       105   7  1.866926E+03  9.557158E+01  6.378196E+01  1.148182E+02 -8.844146E+01 -3.587113E+01
       105   8  1.957332E+03  1.348919E+02  8.430506E+01  6.699396E+01 -9.536226E+01 -3.725843E+01
       105   9  2.069771E+03  1.852712E+02  1.135901E+02  1.311479E+01 -1.025094E+02 -3.845418E+01
       105  10  1.767646E+03  1.572615E+02  4.969150E+01  1.649707E+02 -1.392366E-12  3.502807E-13
       105  11  1.835377E+03  1.836170E+02  6.089665E+01  1.409124E+02 -4.334724E-13  1.751404E-14
       105  12  1.926001E+03  2.211944E+02  8.143616E+01  1.116867E+02  3.480914E-13 -5.473136E-14
       105  13  1.840294E+03  1.374131E+02  6.427286E+01  1.459244E+02 -8.406737E-13 -4.903930E-13
       105  14  1.921043E+03  1.708312E+02  8.076057E+01  1.099008E+02 -7.005614E-13 -3.152526E-13
       105  15  2.024399E+03  2.154496E+02  1.063579E+02  6.822846E+01 -3.502807E-13 -3.721732E-13
       105  16  1.866926E+03  9.557158E+01  6.378196E+01  1.148182E+02  2.714675E-13 -3.152526E-13
       105  17  1.957332E+03  1.348919E+02  8.430506E+01  6.699396E+01 -1.795189E-13 -1.225982E-13
       105  18  2.069771E+03  1.852712E+02  1.135901E+02  1.311479E+01 -1.250064E-12  1.247875E-13
       105  19  1.767646E+03  1.572615E+02  4.969150E+01  1.649707E+02  5.955740E+01  6.358420E+01
       105  20  1.835377E+03  1.836170E+02  6.089665E+01  1.409124E+02  6.400658E+01  6.622942E+01
       105  21  1.926001E+03  2.211944E+02  8.143616E+01  1.116867E+02  6.845224E+01  6.887663E+01
       105  22  1.840294E+03  1.374131E+02  6.427286E+01  1.459244E+02  7.508409E+01  5.055267E+01
       105  23  1.921043E+03  1.708312E+02  8.076057E+01  1.099008E+02  8.089870E+01  5.258365E+01
       105  24  2.024399E+03  2.154496E+02  1.063579E+02  6.822846E+01  8.684521E+01  5.451483E+01
       105  25  1.866926E+03  9.557158E+01  6.378196E+01  1.148182E+02  8.844146E+01  3.587113E+01
       105  26  1.957332E+03  1.348919E+02  8.430506E+01  6.699396E+01  9.536226E+01  3.725843E+01
       105  27  2.069771E+03  1.852712E+02  1.135901E+02  1.311479E+01  1.025094E+02  3.845418E+01
       106   1  1.981226E+03  2.434277E+02  9.381408E+01  9.033043E+01 -7.086664E+01 -7.021006E+01
       106   2  2.098477E+03  2.687618E+02  1.176619E+02  4.432772E+01 -7.249050E+01 -7.019685E+01
       106   3  2.240581E+03  2.980903E+02  1.499927E+02 -3.575653E+00 -7.495681E+01 -6.962482E+01
       106   4  2.092039E+03  2.421830E+02  1.232573E+02  3.783647E+01 -8.970744E+01 -5.515070E+01
       106   5  2.240262E+03  2.719079E+02  1.568723E+02 -3.028393E+01 -9.170182E+01 -5.375741E+01
       106   6  2.415891E+03  3.078960E+02  2.005699E+02 -1.023866E+02 -9.451514E+01 -5.174669E+01
       106   7  2.124761E+03  2.048519E+02  1.240454E+02 -3.047742E+01 -1.058831E+02 -3.853916E+01
       106   8  2.296022E+03  2.370937E+02  1.645482E+02 -1.197799E+02 -1.080649E+02 -3.585615E+01
       106   9  2.496052E+03  2.773541E+02  2.162228E+02 -2.147509E+02 -1.110263E+02 -3.251491E+01
       106  10  1.981226E+03  2.434277E+02  9.381408E+01  9.033043E+01  0.000000E+00 -1.751404E-14
       106  11  2.098477E+03  2.687618E+02  1.176619E+02  4.432772E+01  9.851645E-13 -9.632719E-14
       106  12  2.240581E+03  2.980903E+02  1.499927E+02 -3.575653E+00  1.531383E-12  1.877286E-13
       106  13  2.092039E+03  2.421830E+02  1.232573E+02  3.783647E+01 -3.152526E-13 -7.005614E-14
       106  14  2.240262E+03  2.719079E+02  1.568723E+02 -3.028393E+01  2.539535E-13  3.502807E-14
       106  15  2.415891E+03  3.078960E+02  2.005699E+02 -1.023866E+02  1.598156E-13  3.853088E-13
       106  16  2.124761E+03  2.048519E+02  1.240454E+02 -3.047742E+01  8.757018E-15  1.225982E-13
       106  17  2.296022E+03  2.370937E+02  1.645482E+02 -1.197799E+02 -8.757018E-14 -7.881316E-14
       106  18  2.496052E+03  2.773541E+02  2.162228E+02 -2.147509E+02  1.751404E-14  7.662390E-14
       106  19  1.981226E+03  2.434277E+02  9.381408E+01  9.033043E+01  7.086664E+01  7.021006E+01
       106  20  2.098477E+03  2.687618E+02  1.176619E+02  4.432772E+01  7.249050E+01  7.019685E+01
       106  21  2.240581E+03  2.980903E+02  1.499927E+02 -3.575653E+00  7.495681E+01  6.962482E+01
       106  22  2.092039E+03  2.421830E+02  1.232573E+02  3.783647E+01  8.970744E+01  5.515070E+01
       106  23  2.240262E+03  2.719079E+02  1.568723E+02 -3.028393E+01  9.170182E+01  5.375741E+01
       106  24  2.415891E+03  3.078960E+02  2.005699E+02 -1.023866E+02  9.451514E+01  5.174669E+01
       106  25  2.124761E+03  2.048519E+02  1.240454E+02 -3.047742E+01  1.058831E+02  3.853916E+01
       106  26  2.296022E+03  2.370937E+02  1.645482E+02 -1.197799E+02  1.080649E+02  3.585615E+01
       106  27  2.496052E+03  2.773541E+02  2.162228E+02 -2.147509E+02  1.110263E+02  3.251491E+01
       107   1  2.167145E+03  1.992413E+02  1.389494E+02 -8.218183E+01 -1.154586E+02 -2.710287E+01
       107   2  2.305340E+03  2.121852E+02  1.633664E+02 -1.861381E+02 -1.181549E+02 -2.290333E+01
       107   3  2.559099E+03  2.684010E+02  2.357218E+02 -3.180508E+02 -1.223943E+02 -1.731955E+01
       107   4  2.215935E+03  2.196546E+02  1.721421E+02 -1.958751E+02 -1.332394E+02 -2.093729E+00
       107   5  2.358917E+03  2.564586E+02  2.048354E+02 -3.702445E+02 -1.361963E+02  4.885217E+00
       107   6  2.611478E+03  3.381436E+02  2.845222E+02 -5.749495E+02 -1.406209E+02  1.331329E+01
       107   7  2.126270E+03  2.018210E+02  1.599299E+02 -3.237855E+02 -1.477217E+02  2.483545E+01
       107   8  2.269262E+03  2.617245E+02  1.996080E+02 -5.640967E+02 -1.507702E+02  3.445381E+01
       107   9  2.516150E+03  3.678642E+02  2.853496E+02 -8.364418E+02 -1.552050E+02  4.556604E+01
       107  10  2.167145E+03  1.992413E+02  1.389494E+02 -8.218183E+01 -2.627105E-13  5.779632E-13
       107  11  2.305340E+03  2.121852E+02  1.633664E+02 -1.861381E+02  2.977386E-13  6.129912E-14
       107  12  2.559099E+03  2.684010E+02  2.357218E+02 -3.180508E+02 -9.807860E-13  1.208468E-12
       107  13  2.215935E+03  2.196546E+02  1.721421E+02 -1.958751E+02  1.050842E-13 -2.451965E-13
       107  14  2.358917E+03  2.564586E+02  2.048354E+02 -3.702445E+02  5.954772E-13  0.000000E+00
       107  15  2.611478E+03  3.381436E+02  2.845222E+02 -5.749495E+02  1.261011E-12  3.765518E-13
       107  16  2.126270E+03  2.018210E+02  1.599299E+02 -3.237855E+02 -8.406737E-13 -5.604491E-13
       107  17  2.269262E+03  2.617245E+02  1.996080E+02 -5.640967E+02  9.807860E-13 -1.838974E-13
       107  18  2.516150E+03  3.678642E+02  2.853496E+02 -8.364418E+02  1.878380E-12 -3.896873E-13
       107  19  2.167145E+03  1.992413E+02  1.389494E+02 -8.218183E+01  1.154586E+02  2.710287E+01
       107  20  2.305340E+03  2.121852E+02  1.633664E+02 -1.861381E+02  1.181549E+02  2.290333E+01
       107  21  2.559099E+03  2.684010E+02  2.357218E+02 -3.180508E+02  1.223943E+02  1.731955E+01
       107  22  2.215935E+03  2.196546E+02  1.721421E+02 -1.958751E+02  1.332394E+02  2.093729E+00
       107  23  2.358917E+03  2.564586E+02  2.048354E+02 -3.702445E+02  1.361963E+02 -4.885217E+00
       107  24  2.611478E+03  3.381436E+02  2.845222E+02 -5.749495E+02  1.406209E+02 -1.331329E+01
       107  25  2.126270E+03  2.018210E+02  1.599299E+02 -3.237855E+02  1.477217E+02 -2.483545E+01
       107  26  2.269262E+03  2.617245E+02  1.996080E+02 -5.640967E+02  1.507702E+02 -3.445381E+01
       107  27  2.516150E+03  3.678642E+02  2.853496E+02 -8.364418E+02  1.552050E+02 -4.556604E+01
       108   1  1.895733E+03  7.670982E+01  7.169465E+01  8.640189E+01 -9.686023E+01 -2.542212E+01
       108   2  1.970746E+03  1.099305E+02  8.542871E+01  3.426618E+01 -1.043855E+02 -2.647461E+01
       108   3  2.098889E+03  1.753548E+02  1.235043E+02 -3.419180E+01 -1.120190E+02 -2.742978E+01
       108   4  1.903499E+03  4.383437E+01  7.771345E+01  2.970475E+01 -1.095559E+02 -5.289925E+00
       108   5  1.972674E+03  8.836484E+01  9.279086E+01 -4.281972E+01 -1.192060E+02 -4.712761E+00
       108   6  2.090898E+03  1.631737E+02  1.302220E+02 -1.314256E+02 -1.291372E+02 -3.858000E+00
       108   7  1.865136E+03 -4.224653E+00  7.173138E+01 -3.695900E+01 -1.193928E+02  1.701695E+01
       108   8  1.927893E+03  5.096904E+01  8.826672E+01 -1.291429E+02 -1.308391E+02  1.925286E+01
       108   9  2.035981E+03  1.346392E+02  1.253134E+02 -2.371355E+02 -1.426948E+02  2.192938E+01
       108  10  1.895733E+03  7.670982E+01  7.169465E+01  8.640189E+01  2.802246E-13  0.000000E+00
       108  11  1.970746E+03  1.099305E+02  8.542871E+01  3.426618E+01 -8.757018E-15 -1.663833E-13
       108  12  2.098889E+03  1.753548E+02  1.235043E+02 -3.419180E+01 -5.385566E-13 -3.174419E-14
       108  13  1.903499E+03  4.383437E+01  7.771345E+01  2.970475E+01 -3.502807E-13 -1.401123E-13
       108  14  1.972674E+03  8.836484E+01  9.279086E+01 -4.281972E+01 -1.050842E-13  1.751404E-14
       108  15  2.090898E+03  1.631737E+02  1.302220E+02 -1.314256E+02  3.021171E-13  8.757018E-14
       108  16  1.865136E+03 -4.224653E+00  7.173138E+01 -3.695900E+01 -2.627105E-13 -1.576263E-13
       108  17  1.927893E+03  5.096904E+01  8.826672E+01 -1.291429E+02  3.502807E-14 -1.488693E-13
       108  18  2.035981E+03  1.346392E+02  1.253134E+02 -2.371355E+02 -1.510586E-13  1.160305E-13
       108  19  1.895733E+03  7.670982E+01  7.169465E+01  8.640189E+01  9.686023E+01  2.542212E+01
       108  20  1.970746E+03  1.099305E+02  8.542871E+01  3.426618E+01  1.043855E+02  2.647461E+01
       108  21  2.098889E+03  1.753548E+02  1.235043E+02 -3.419180E+01  1.120190E+02  2.742978E+01
       108  22  1.903499E+03  4.383437E+01  7.771345E+01  2.970475E+01  1.095559E+02  5.289925E+00
       108  23  1.972674E+03  8.836484E+01  9.279086E+01 -4.281972E+01  1.192060E+02  4.712761E+00
       108  24  2.090898E+03  1.631737E+02  1.302220E+02 -1.314256E+02  1.291372E+02  3.858000E+00
       108  25  1.865136E+03 -4.224653E+00  7.173138E+01 -3.695900E+01  1.193928E+02 -1.701695E+01
       108  26  1.927893E+03  5.096904E+01  8.826672E+01 -1.291429E+02  1.308391E+02 -1.925286E+01
       108  27  2.035981E+03  1.346392E+02  1.253134E+02 -2.371355E+02  1.426948E+02 -2.192938E+01
       109   1  6.234179E+02  7.224866E+01 -5.277030E+00 -1.427075E+02  3.947687E+01  1.978547E+01
       109   2  6.001812E+02  6.170087E+01 -6.822586E+00 -1.493350E+02  4.184563E+01  2.155712E+01
       109   3  5.767177E+02  5.007094E+01 -8.255819E+00 -1.565706E+02  4.420854E+01  2.347708E+01
       109   4  5.990675E+02  7.798391E+01 -6.587437E+00 -1.159069E+02  4.138296E+01  1.596523E+01
       109   5  5.743155E+02  6.794879E+01 -8.158704E+00 -1.212845E+02  4.389940E+01  1.738688E+01
       109   6  5.493262E+02  5.682890E+01 -9.600677E+00 -1.272579E+02  4.641131E+01  1.895405E+01
       109   7  5.818414E+02  8.647230E+01 -5.853421E+00 -8.862419E+01  4.286211E+01  1.214411E+01
       109   8  5.555944E+02  7.694163E+01 -7.527483E+00 -9.273836E+01  4.552302E+01  1.321269E+01
       109   9  5.291006E+02  6.632384E+01 -9.055006E+00 -9.743579E+01  4.818068E+01  1.442391E+01
       109  10  6.234179E+02  7.224866E+01 -5.277030E+00 -1.427075E+02 -6.305053E-13  2.104421E-13
       109  11  6.001812E+02  6.170087E+01 -6.822586E+00 -1.493350E+02  1.401123E-13  1.402491E-13
       109  12  5.767177E+02  5.007094E+01 -8.255819E+00 -1.565706E+02 -2.189254E-14 -1.753798E-13
       109  13  5.990675E+02  7.798391E+01 -6.587437E+00 -1.159069E+02 -2.451965E-13  4.720580E-14
       109  14  5.743155E+02  6.794879E+01 -8.158704E+00 -1.212845E+02 -7.005614E-14  1.765086E-13
       109  15  5.493262E+02  5.682890E+01 -9.600677E+00 -1.272579E+02 -1.751404E-13  5.575757E-14
       109  16  5.818414E+02  8.647230E+01 -5.853421E+00 -8.862419E+01  5.254211E-14  0.000000E+00
       109  17  5.555944E+02  7.694163E+01 -7.527483E+00 -9.273836E+01 -1.050842E-13  4.202000E-13
       109  18  5.291006E+02  6.632384E+01 -9.055006E+00 -9.743579E+01 -2.057899E-13  2.622316E-13
       109  19  6.234179E+02  7.224866E+01 -5.277030E+00 -1.427075E+02 -3.947687E+01 -1.978547E+01
       109  20  6.001812E+02  6.170087E+01 -6.822586E+00 -1.493350E+02 -4.184563E+01 -2.155712E+01
       109  21  5.767177E+02  5.007094E+01 -8.255819E+00 -1.565706E+02 -4.420854E+01 -2.347708E+01
       109  22  5.990675E+02  7.798391E+01 -6.587437E+00 -1.159069E+02 -4.138296E+01 -1.596523E+01
       109  23  5.743155E+02  6.794879E+01 -8.158704E+00 -1.212845E+02 -4.389940E+01 -1.738688E+01
       109  24  5.493262E+02  5.682890E+01 -9.600677E+00 -1.272579E+02 -4.641131E+01 -1.895405E+01
       109  25  5.818414E+02  8.647230E+01 -5.853421E+00 -8.862419E+01 -4.286211E+01 -1.214411E+01
       109  26  5.555944E+02  7.694163E+01 -7.527483E+00 -9.273836E+01 -4.552302E+01 -1.321269E+01
       109  27  5.291006E+02  6.632384E+01 -9.055006E+00 -9.743579E+01 -4.818068E+01 -1.442391E+01
       110   1  5.625807E+02  4.258052E+01 -9.216101E+00 -1.609633E+02  4.564395E+01  2.469441E+01
       110   2  5.363385E+02  2.765295E+01 -1.164251E+01 -1.685456E+02  4.816060E+01  2.698959E+01
       110   3  5.095933E+02  1.093020E+01 -1.421835E+01 -1.768747E+02  5.066907E+01  2.948952E+01
       110   4  5.334304E+02  4.931821E+01 -1.090914E+01 -1.308905E+02  4.800340E+01  1.993867E+01
       110   5  5.052939E+02  3.493639E+01 -1.339179E+01 -1.370428E+02  5.072649E+01  2.178313E+01
       110   6  4.766408E+02  1.875065E+01 -1.599940E+01 -1.439275E+02  5.344318E+01  2.382898E+01
       110   7  5.129736E+02  5.944066E+01 -1.011252E+01 -1.002089E+02  4.981864E+01  1.517159E+01
       110   8  4.829681E+02  4.559341E+01 -1.275033E+01 -1.049147E+02  5.274423E+01  1.656099E+01
       110   9  4.524336E+02  2.993397E+01 -1.548815E+01 -1.103377E+02  5.566517E+01  1.814825E+01
       110  10  5.625807E+02  4.258052E+01 -9.216101E+00 -1.609633E+02  1.751404E-14 -1.401123E-13
       110  11  5.363385E+02  2.765295E+01 -1.164251E+01 -1.685456E+02  8.757018E-14  4.104852E-16
       110  12  5.095933E+02  1.093020E+01 -1.421835E+01 -1.768747E+02 -3.940658E-14 -5.230266E-14
       110  13  5.334304E+02  4.931821E+01 -1.090914E+01 -1.308905E+02  0.000000E+00  6.294106E-14
       110  14  5.052939E+02  3.493639E+01 -1.339179E+01 -1.370428E+02  0.000000E+00  1.236929E-13
       110  15  4.766408E+02  1.875065E+01 -1.599940E+01 -1.439275E+02 -1.751404E-13  3.605428E-14
       110  16  5.129736E+02  5.944066E+01 -1.011252E+01 -1.002089E+02  3.677947E-13  1.401123E-13
       110  17  4.829681E+02  4.559341E+01 -1.275033E+01 -1.049147E+02  7.005614E-14  3.498702E-13
       110  18  4.524336E+02  2.993397E+01 -1.548815E+01 -1.103377E+02 -4.553649E-13  3.331429E-13
       110  19  5.625807E+02  4.258052E+01 -9.216101E+00 -1.609633E+02 -4.564395E+01 -2.469441E+01
       110  20  5.363385E+02  2.765295E+01 -1.164251E+01 -1.685456E+02 -4.816060E+01 -2.698959E+01
       110  21  5.095933E+02  1.093020E+01 -1.421835E+01 -1.768747E+02 -5.066907E+01 -2.948952E+01
       110  22  5.334304E+02  4.931821E+01 -1.090914E+01 -1.308905E+02 -4.800340E+01 -1.993867E+01
       110  23  5.052939E+02  3.493639E+01 -1.339179E+01 -1.370428E+02 -5.072649E+01 -2.178313E+01
       110  24  4.766408E+02  1.875065E+01 -1.599940E+01 -1.439275E+02 -5.344318E+01 -2.382898E+01
       110  25  5.129736E+02  5.944066E+01 -1.011252E+01 -1.002089E+02 -4.981864E+01 -1.517159E+01
       110  26  4.829681E+02  4.559341E+01 -1.275033E+01 -1.049147E+02 -5.274423E+01 -1.656099E+01
       110  27  4.524336E+02  2.993397E+01 -1.548815E+01 -1.103377E+02 -5.566517E+01 -1.814825E+01
       111   1  5.031654E+02  6.321175E+01 -1.018383E+01 -8.044036E+01  5.065425E+01  1.222122E+01
       111   2  4.724362E+02  4.950659E+01 -1.289852E+01 -8.434798E+01  5.365497E+01  1.337109E+01
       111   3  4.412425E+02  3.421159E+01 -1.561717E+01 -8.852791E+01  5.665431E+01  1.459590E+01
       111   4  4.899199E+02  6.451382E+01 -1.176826E+01 -4.563146E+01  5.166298E+01  6.888859E+00
       111   5  4.587256E+02  5.113885E+01 -1.443958E+01 -4.779673E+01  5.472040E+01  7.526693E+00
       111   6  4.270493E+02  3.614654E+01 -1.712513E+01 -5.020773E+01  5.777704E+01  8.232937E+00
       111   7  4.867392E+02  6.972732E+01 -1.042278E+01 -1.052109E+01  5.203117E+01  1.542910E+00
       111   8  4.551430E+02  5.667694E+01 -1.314650E+01 -1.092743E+01  5.513770E+01  1.663547E+00
       111   9  4.230486E+02  4.198203E+01 -1.589423E+01 -1.155219E+01  5.824397E+01  1.845860E+00
       111  10  5.031654E+02  6.321175E+01 -1.018383E+01 -8.044036E+01  3.677947E-13 -4.202684E-13
       111  11  4.724362E+02  4.950659E+01 -1.289852E+01 -8.434798E+01  7.005614E-14 -1.754140E-13
       111  12  4.412425E+02  3.421159E+01 -1.561717E+01 -8.852791E+01 -2.670890E-13 -2.629671E-14
       111  13  4.899199E+02  6.451382E+01 -1.176826E+01 -4.563146E+01  2.101684E-13 -6.841420E-14
       111  14  4.587256E+02  5.113885E+01 -1.443958E+01 -4.779673E+01  1.401123E-13 -1.183566E-13
       111  15  4.270493E+02  3.614654E+01 -1.712513E+01 -5.020773E+01  0.000000E+00 -8.640713E-14
       111  16  4.867392E+02  6.972732E+01 -1.042278E+01 -1.052109E+01  1.225982E-13  6.998773E-14
       111  17  4.551430E+02  5.667694E+01 -1.314650E+01 -1.092743E+01 -7.005614E-14 -3.502807E-14
       111  18  4.230486E+02  4.198203E+01 -1.589423E+01 -1.155219E+01  3.283882E-13 -3.152868E-13
       111  19  5.031654E+02  6.321175E+01 -1.018383E+01 -8.044036E+01 -5.065425E+01 -1.222122E+01
       111  20  4.724362E+02  4.950659E+01 -1.289852E+01 -8.434798E+01 -5.365497E+01 -1.337109E+01
       111  21  4.412425E+02  3.421159E+01 -1.561717E+01 -8.852791E+01 -5.665431E+01 -1.459590E+01
       111  22  4.899199E+02  6.451382E+01 -1.176826E+01 -4.563146E+01 -5.166298E+01 -6.888859E+00
       111  23  4.587256E+02  5.113885E+01 -1.443958E+01 -4.779673E+01 -5.472040E+01 -7.526693E+00
       111  24  4.270493E+02  3.614654E+01 -1.712513E+01 -5.020773E+01 -5.777704E+01 -8.232937E+00
       111  25  4.867392E+02  6.972732E+01 -1.042278E+01 -1.052109E+01 -5.203117E+01 -1.542910E+00
       111  26  4.551430E+02  5.667694E+01 -1.314650E+01 -1.092743E+01 -5.513770E+01 -1.663547E+00
       111  27  4.230486E+02  4.198203E+01 -1.589423E+01 -1.155219E+01 -5.824397E+01 -1.845860E+00
       112   1  5.735182E+02  8.966942E+01 -5.866352E+00 -7.113740E+01  4.355028E+01  9.784775E+00
       112   2  5.466813E+02  8.025222E+01 -7.605173E+00 -7.455924E+01  4.626408E+01  1.067248E+01
       112   3  5.196639E+02  6.996180E+01 -9.107076E+00 -7.820689E+01  4.897695E+01  1.161533E+01
       112   4  5.620791E+02  9.064610E+01 -7.189278E+00 -4.033986E+01  4.439705E+01  5.516385E+00
       112   5  5.348597E+02  8.148403E+01 -8.897419E+00 -4.223243E+01  4.714927E+01  6.006986E+00
       112   6  5.074479E+02  7.143214E+01 -1.037641E+01 -4.432881E+01  4.990097E+01  6.547670E+00
       112   7  5.589737E+02  9.485738E+01 -6.067682E+00 -9.350706E+00  4.473890E+01  1.246802E+00
       112   8  5.314246E+02  8.594740E+01 -7.819303E+00 -9.700319E+00  4.752357E+01  1.336601E+00
       112   9  5.036722E+02  7.613129E+01 -9.349120E+00 -1.023122E+01  5.030803E+01  1.471295E+00
       112  10  5.735182E+02  8.966942E+01 -5.866352E+00 -7.113740E+01  8.757018E-14  6.841420E-17
       112  11  5.466813E+02  8.025222E+01 -7.605173E+00 -7.455924E+01 -7.005614E-14 -2.102368E-13
       112  12  5.196639E+02  6.996180E+01 -9.107076E+00 -7.820689E+01 -2.408180E-13 -4.027800E-13
       112  13  5.620791E+02  9.064610E+01 -7.189278E+00 -4.033986E+01  2.451965E-13  1.710355E-15
       112  14  5.348597E+02  8.148403E+01 -8.897419E+00 -4.223243E+01 -2.451965E-13  2.941811E-14
       112  15  5.074479E+02  7.143214E+01 -1.037641E+01 -4.432881E+01 -5.429351E-13 -2.782748E-14
       112  16  5.589737E+02  9.485738E+01 -6.067682E+00 -9.350706E+00  1.751404E-14 -2.101684E-13
       112  17  5.314246E+02  8.594740E+01 -7.819303E+00 -9.700319E+00 -3.502807E-14 -7.005614E-14
       112  18  5.036722E+02  7.613129E+01 -9.349120E+00 -1.023122E+01  5.692061E-14  2.102026E-13
       112  19  5.735182E+02  8.966942E+01 -5.866352E+00 -7.113740E+01 -4.355028E+01 -9.784775E+00
       112  20  5.466813E+02  8.025222E+01 -7.605173E+00 -7.455924E+01 -4.626408E+01 -1.067248E+01
       112  21  5.196639E+02  6.996180E+01 -9.107076E+00 -7.820689E+01 -4.897695E+01 -1.161533E+01
       112  22  5.620791E+02  9.064610E+01 -7.189278E+00 -4.033986E+01 -4.439705E+01 -5.516385E+00
       112  23  5.348597E+02  8.148403E+01 -8.897419E+00 -4.223243E+01 -4.714927E+01 -6.006986E+00
       112  24  5.074479E+02  7.143214E+01 -1.037641E+01 -4.432881E+01 -4.990097E+01 -6.547670E+00
       112  25  5.589737E+02  9.485738E+01 -6.067682E+00 -9.350706E+00 -4.473890E+01 -1.246802E+00
       112  26  5.314246E+02  8.594740E+01 -7.819303E+00 -9.700319E+00 -4.752357E+01 -1.336601E+00
       112  27  5.036722E+02  7.613129E+01 -9.349120E+00 -1.023122E+01 -5.030803E+01 -1.471295E+00
       113   1  3.524286E+02 -1.193549E+02 -4.032165E+01 -2.178655E+02  6.175660E+01  4.697769E+01
       113   2  3.041693E+02 -1.122682E+02 -4.380959E+01 -1.776587E+02  6.641563E+01  3.815312E+01
       113   3  2.682556E+02 -1.005036E+02 -4.421205E+01 -1.368662E+02  7.018291E+01  2.928769E+01
       113   4  3.861232E+02 -8.591971E+01 -3.272130E+01 -2.100226E+02  5.993782E+01  4.284929E+01
       113   5  3.407486E+02 -7.850705E+01 -3.598636E+01 -1.711185E+02  6.419477E+01  3.473459E+01
       113   6  3.076347E+02 -6.640533E+01 -3.603812E+01 -1.316362E+02  6.757106E+01  2.658094E+01
       113   7  4.178870E+02 -5.756149E+01 -2.682541E+01 -2.030819E+02  5.810390E+01  3.908631E+01
       113   8  3.754005E+02 -4.980211E+01 -2.979243E+01 -1.654509E+02  6.196221E+01  3.167182E+01
       113   9  3.450923E+02 -3.734142E+01 -2.941724E+01 -1.272491E+02  6.495084E+01  2.422019E+01
       113  10  3.524286E+02 -1.193549E+02 -4.032165E+01 -2.178655E+02 -1.401123E-13 -2.714675E-13
       113  11  3.041693E+02 -1.122682E+02 -4.380959E+01 -1.776587E+02 -2.451965E-13 -4.186949E-14
       113  12  2.682556E+02 -1.005036E+02 -4.421205E+01 -1.368662E+02 -3.064956E-14  2.718096E-13
       113  13  3.861232E+02 -8.591971E+01 -3.272130E+01 -2.100226E+02 -6.567763E-14 -2.101684E-13
       113  14  3.407486E+02 -7.850705E+01 -3.598636E+01 -1.711185E+02 -2.342502E-13 -8.975943E-14
       113  15  3.076347E+02 -6.640533E+01 -3.603812E+01 -1.316362E+02 -8.757018E-14 -6.991931E-14
       113  16  4.178870E+02 -5.756149E+01 -2.682541E+01 -2.030819E+02  3.502807E-14  1.018003E-13
       113  17  3.754005E+02 -4.980211E+01 -2.979243E+01 -1.654509E+02  1.225982E-13 -3.502807E-14
       113  18  3.450923E+02 -3.734142E+01 -2.941724E+01 -1.272491E+02  8.757018E-14 -2.647630E-14
       113  19  3.524286E+02 -1.193549E+02 -4.032165E+01 -2.178655E+02 -6.175660E+01 -4.697769E+01
       113  20  3.041693E+02 -1.122682E+02 -4.380959E+01 -1.776587E+02 -6.641563E+01 -3.815312E+01
       113  21  2.682556E+02 -1.005036E+02 -4.421205E+01 -1.368662E+02 -7.018291E+01 -2.928769E+01
       113  22  3.861232E+02 -8.591971E+01 -3.272130E+01 -2.100226E+02 -5.993782E+01 -4.284929E+01
       113  23  3.407486E+02 -7.850705E+01 -3.598636E+01 -1.711185E+02 -6.419477E+01 -3.473459E+01
       113  24  3.076347E+02 -6.640533E+01 -3.603812E+01 -1.316362E+02 -6.757106E+01 -2.658094E+01
       113  25  4.178870E+02 -5.756149E+01 -2.682541E+01 -2.030819E+02 -5.810390E+01 -3.908631E+01
       113  26  3.754005E+02 -4.980211E+01 -2.979243E+01 -1.654509E+02 -6.196221E+01 -3.167182E+01
       113  27  3.450923E+02 -3.734142E+01 -2.941724E+01 -1.272491E+02 -6.495084E+01 -2.422019E+01
       114   1  2.514214E+02 -9.655351E+01 -4.505200E+01 -1.096060E+02  7.188670E+01  2.351829E+01
       114   2  2.309469E+02 -9.462413E+01 -4.724479E+01 -6.226558E+01  7.383692E+01  1.329998E+01
       114   3  2.248949E+02 -8.723855E+01 -4.577966E+01 -1.445039E+01  7.470006E+01  3.031518E+00
       114   4  2.921986E+02 -6.173600E+01 -3.650617E+01 -1.057055E+02  6.911167E+01  2.142591E+01
       114   5  2.726631E+02 -5.989009E+01 -3.873614E+01 -5.997532E+01  7.090590E+01  1.208339E+01
       114   6  2.674476E+02 -5.257290E+01 -3.715246E+01 -1.377814E+01  7.162766E+01  2.693166E+00
       114   7  3.307376E+02 -3.261685E+01 -2.978057E+01 -1.021405E+02  6.633390E+01  1.948064E+01
       114   8  3.121398E+02 -3.085531E+01 -3.202333E+01 -5.798348E+01  6.797341E+01  1.100114E+01
       114   9  3.077622E+02 -2.360622E+01 -3.029553E+01 -1.336688E+01  6.855487E+01  2.476298E+00
       114  10  2.514214E+02 -9.655351E+01 -4.505200E+01 -1.096060E+02  1.401123E-13 -1.485956E-13
       114  11  2.309469E+02 -9.462413E+01 -4.724479E+01 -6.226558E+01  8.757018E-14  8.757018E-15
       114  12  2.248949E+02 -8.723855E+01 -4.577966E+01 -1.445039E+01 -8.757018E-15  9.636140E-14
       114  13  2.921986E+02 -6.173600E+01 -3.650617E+01 -1.057055E+02  1.776033E-13 -1.401123E-13
       114  14  2.726631E+02 -5.989009E+01 -3.873614E+01 -5.997532E+01 -2.731095E-13  1.696672E-14
       114  15  2.674476E+02 -5.257290E+01 -3.715246E+01 -1.377814E+01 -3.530173E-14  1.049474E-13
       114  16  3.307376E+02 -3.261685E+01 -2.978057E+01 -1.021405E+02  7.005614E-14 -3.062220E-13
       114  17  3.121398E+02 -3.085531E+01 -3.202333E+01 -5.798348E+01 -3.502807E-14  0.000000E+00
       114  18  3.077622E+02 -2.360622E+01 -3.029553E+01 -1.336688E+01  1.007057E-13  3.591061E-13
       114  19  2.514214E+02 -9.655351E+01 -4.505200E+01 -1.096060E+02 -7.188670E+01 -2.351829E+01
       114  20  2.309469E+02 -9.462413E+01 -4.724479E+01 -6.226558E+01 -7.383692E+01 -1.329998E+01
       114  21  2.248949E+02 -8.723855E+01 -4.577966E+01 -1.445039E+01 -7.470006E+01 -3.031518E+00
       114  22  2.921986E+02 -6.173600E+01 -3.650617E+01 -1.057055E+02 -6.911167E+01 -2.142591E+01
       114  23  2.726631E+02 -5.989009E+01 -3.873614E+01 -5.997532E+01 -7.090590E+01 -1.208339E+01
       114  24  2.674476E+02 -5.257290E+01 -3.715246E+01 -1.377814E+01 -7.162766E+01 -2.693166E+00
       114  25  3.307376E+02 -3.261685E+01 -2.978057E+01 -1.021405E+02 -6.633390E+01 -1.948064E+01
       114  26  3.121398E+02 -3.085531E+01 -3.202333E+01 -5.798348E+01 -6.797341E+01 -1.100114E+01
       114  27  3.077622E+02 -2.360622E+01 -3.029553E+01 -1.336688E+01 -6.855487E+01 -2.476298E+00
       115   1  3.524210E+02 -1.786936E+01 -2.648557E+01 -9.955344E+01  6.457033E+01  1.845637E+01
       115   2  3.352557E+02 -1.580955E+01 -2.834913E+01 -5.649297E+01  6.603950E+01  1.041907E+01
       115   3  3.304349E+02 -9.036612E+00 -2.694286E+01 -1.300836E+01  6.665889E+01  2.346066E+00
       115   4  3.878965E+02  4.711207E+00 -2.169662E+01 -9.514157E+01  6.151151E+01  1.686639E+01
       115   5  3.715703E+02  6.580844E+00 -2.358295E+01 -5.394082E+01  6.286939E+01  9.500999E+00
       115   6  3.674980E+02  1.317076E+01 -2.208239E+01 -1.232293E+01  6.338869E+01  2.101473E+00
       115   7  4.223175E+02  2.431515E+01 -1.750143E+01 -9.104446E+01  5.845067E+01  1.538086E+01
       115   8  4.068295E+02  2.599939E+01 -1.939209E+01 -5.166916E+01  5.969818E+01  8.677749E+00
       115   9  4.035070E+02  3.241192E+01 -1.777788E+01 -1.188357E+01  6.011815E+01  1.942051E+00
       115  10  3.524210E+02 -1.786936E+01 -2.648557E+01 -9.955344E+01  1.050842E-13 -1.050842E-13
       115  11  3.352557E+02 -1.580955E+01 -2.834913E+01 -5.649297E+01 -2.276825E-13  5.254211E-14
       115  12  3.304349E+02 -9.036612E+00 -2.694286E+01 -1.300836E+01 -2.057899E-13  3.591403E-13
       115  13  3.878965E+02  4.711207E+00 -2.169662E+01 -9.514157E+01 -2.150942E-13  1.926544E-13
       115  14  3.715703E+02  6.580844E+00 -2.358295E+01 -5.394082E+01 -1.297133E-13  1.401123E-13
       115  15  3.674980E+02  1.317076E+01 -2.208239E+01 -1.232293E+01 -2.703045E-13  1.750719E-13
       115  16  4.223175E+02  2.431515E+01 -1.750143E+01 -9.104446E+01 -2.802246E-13  7.881316E-14
       115  17  4.068295E+02  2.599939E+01 -1.939209E+01 -5.166916E+01 -2.451965E-13  6.129912E-14
       115  18  4.035070E+02  3.241192E+01 -1.777788E+01 -1.188357E+01  1.576263E-13 -4.383640E-14
       115  19  3.524210E+02 -1.786936E+01 -2.648557E+01 -9.955344E+01 -6.457033E+01 -1.845637E+01
       115  20  3.352557E+02 -1.580955E+01 -2.834913E+01 -5.649297E+01 -6.603950E+01 -1.041907E+01
       115  21  3.304349E+02 -9.036612E+00 -2.694286E+01 -1.300836E+01 -6.665889E+01 -2.346066E+00
       115  22  3.878965E+02  4.711207E+00 -2.169662E+01 -9.514157E+01 -6.151151E+01 -1.686639E+01
       115  23  3.715703E+02  6.580844E+00 -2.358295E+01 -5.394082E+01 -6.286939E+01 -9.500999E+00
       115  24  3.674980E+02  1.317076E+01 -2.208239E+01 -1.232293E+01 -6.338869E+01 -2.101473E+00
       115  25  4.223175E+02  2.431515E+01 -1.750143E+01 -9.104446E+01 -5.845067E+01 -1.538086E+01
       115  26  4.068295E+02  2.599939E+01 -1.939209E+01 -5.166916E+01 -5.969818E+01 -8.677749E+00
       115  27  4.035070E+02  3.241192E+01 -1.777788E+01 -1.188357E+01 -6.011815E+01 -1.942051E+00
       116   1  4.357310E+02 -4.283551E+01 -2.392843E+01 -1.981240E+02  5.681372E+01  3.708559E+01
       116   2  3.956031E+02 -3.472695E+01 -2.644002E+01 -1.614377E+02  6.040094E+01  3.003329E+01
       116   3  3.661006E+02 -2.253925E+01 -2.618356E+01 -1.240494E+02  6.327819E+01  2.295127E+01
       116   4  4.652014E+02 -1.975339E+01 -1.958240E+01 -1.895030E+02  5.447371E+01  3.393041E+01
       116   5  4.276099E+02 -1.186958E+01 -2.196553E+01 -1.542741E+02  5.775742E+01  2.743353E+01
       116   6  4.005664E+02  9.704237E-02 -2.148350E+01 -1.183533E+02  6.034005E+01  2.090822E+01
       116   7  4.936891E+02  4.076883E-01 -1.591334E+01 -1.817322E+02  5.212234E+01  3.104662E+01
       116   8  4.586369E+02  8.093986E+00 -1.810817E+01 -1.479336E+02  5.510515E+01  2.509761E+01
       116   9  4.340577E+02  1.986781E+01 -1.733972E+01 -1.134530E+02  5.739562E+01  1.912144E+01
       116  10  4.357310E+02 -4.283551E+01 -2.392843E+01 -1.981240E+02 -1.401123E-13  3.393344E-14
       116  11  3.956031E+02 -3.472695E+01 -2.644002E+01 -1.614377E+02 -1.751404E-13 -5.226845E-14
       116  12  3.661006E+02 -2.253925E+01 -2.618356E+01 -1.240494E+02  2.189254E-13 -1.487325E-13
       116  13  4.652014E+02 -1.975339E+01 -1.958240E+01 -1.895030E+02  2.167362E-13 -1.401123E-13
       116  14  4.276099E+02 -1.186958E+01 -2.196553E+01 -1.542741E+02  1.959383E-13 -1.050842E-13
       116  15  4.005664E+02  9.704237E-02 -2.148350E+01 -1.183533E+02  2.353448E-14 -7.046663E-14
       116  16  4.936891E+02  4.076883E-01 -1.591334E+01 -1.817322E+02  2.101684E-13 -3.070429E-13
       116  17  4.586369E+02  8.093986E+00 -1.810817E+01 -1.479336E+02  1.050842E-13 -6.129912E-14
       116  18  4.340577E+02  1.986781E+01 -1.733972E+01 -1.134530E+02 -2.189254E-13  2.014798E-13
       116  19  4.357310E+02 -4.283551E+01 -2.392843E+01 -1.981240E+02 -5.681372E+01 -3.708559E+01
       116  20  3.956031E+02 -3.472695E+01 -2.644002E+01 -1.614377E+02 -6.040094E+01 -3.003329E+01
       116  21  3.661006E+02 -2.253925E+01 -2.618356E+01 -1.240494E+02 -6.327819E+01 -2.295127E+01
       116  22  4.652014E+02 -1.975339E+01 -1.958240E+01 -1.895030E+02 -5.447371E+01 -3.393041E+01
       116  23  4.276099E+02 -1.186958E+01 -2.196553E+01 -1.542741E+02 -5.775742E+01 -2.743353E+01
       116  24  4.005664E+02  9.704237E-02 -2.148350E+01 -1.183533E+02 -6.034005E+01 -2.090822E+01
       116  25  4.936891E+02  4.076883E-01 -1.591334E+01 -1.817322E+02 -5.212234E+01 -3.104662E+01
       116  26  4.586369E+02  8.093986E+00 -1.810817E+01 -1.479336E+02 -5.510515E+01 -2.509761E+01
       116  27  4.340577E+02  1.986781E+01 -1.733972E+01 -1.134530E+02 -5.739562E+01 -1.912144E+01
       117   1  2.230378E+03  3.230280E+02  1.544106E+02  1.112377E+01 -6.712699E+01 -7.565331E+01
       117   2  2.085770E+03  2.854692E+02  1.184784E+02  5.527134E+01 -6.575829E+01 -7.543621E+01
       117   3  1.972158E+03  2.650114E+02  9.680765E+01  9.221105E+01 -6.389746E+01 -7.551086E+01
       117   4  2.234452E+03  3.473345E+02  1.558058E+02  1.403849E+01 -5.410787E+01 -8.338163E+01
       117   5  2.087557E+03  3.156891E+02  1.205856E+02  5.035195E+01 -5.290901E+01 -8.390873E+01
       117   6  1.971741E+03  2.993538E+02  9.927911E+01  8.125126E+01 -5.122122E+01 -8.465632E+01
       117   7  2.235705E+03  3.656547E+02  1.569501E+02  1.482656E+01 -4.073529E+01 -8.945191E+01
       117   8  2.085175E+03  3.367464E+02  1.213991E+02  4.304057E+01 -3.967472E+01 -9.070990E+01
       117   9  1.966116E+03  3.220891E+02  9.972716E+01  6.764090E+01 -3.813473E+01 -9.212170E+01
       117  10  2.230378E+03  3.230280E+02  1.544106E+02  1.112377E+01  5.692061E-13  5.779632E-13
       117  11  2.085770E+03  2.854692E+02  1.184784E+02  5.527134E+01  1.335445E-13  4.641219E-13
       117  12  1.972158E+03  2.650114E+02  9.680765E+01  9.221105E+01 -2.856977E-13  7.465357E-13
       117  13  2.234452E+03  3.473345E+02  1.558058E+02  1.403849E+01  1.751404E-13  2.802246E-13
       117  14  2.087557E+03  3.156891E+02  1.205856E+02  5.035195E+01  5.910987E-13  5.954772E-13
       117  15  1.971741E+03  2.993538E+02  9.927911E+01  8.125126E+01  4.269046E-13  1.103384E-12
       117  16  2.235705E+03  3.656547E+02  1.569501E+02  1.482656E+01 -2.846031E-13  5.604491E-13
       117  17  2.085175E+03  3.367464E+02  1.213991E+02  4.304057E+01  7.027507E-13  1.225982E-13
       117  18  1.966116E+03  3.220891E+02  9.972716E+01  6.764090E+01  1.257179E-12  3.064956E-14
       117  19  2.230378E+03  3.230280E+02  1.544106E+02  1.112377E+01  6.712699E+01  7.565331E+01
       117  20  2.085770E+03  2.854692E+02  1.184784E+02  5.527134E+01  6.575829E+01  7.543621E+01
       117  21  1.972158E+03  2.650114E+02  9.680765E+01  9.221105E+01  6.389746E+01  7.551086E+01
       117  22  2.234452E+03  3.473345E+02  1.558058E+02  1.403849E+01  5.410787E+01  8.338163E+01
       117  23  2.087557E+03  3.156891E+02  1.205856E+02  5.035195E+01  5.290901E+01  8.390873E+01
       117  24  1.971741E+03  2.993538E+02  9.927911E+01  8.125126E+01  5.122122E+01  8.465632E+01
       117  25  2.235705E+03  3.656547E+02  1.569501E+02  1.482656E+01  4.073529E+01  8.945191E+01
       117  26  2.085175E+03  3.367464E+02  1.213991E+02  4.304057E+01  3.967472E+01  9.070990E+01
       117  27  1.966116E+03  3.220891E+02  9.972716E+01  6.764090E+01  3.813473E+01  9.212170E+01
       118   1  1.913660E+03  2.420463E+02  8.303198E+01  1.130516E+02 -6.199174E+01 -7.429470E+01
       118   2  1.824252E+03  2.043165E+02  6.257163E+01  1.391526E+02 -5.784312E+01 -7.179749E+01
       118   3  1.749270E+03  1.748315E+02  4.810485E+01  1.615634E+02 -5.350238E+01 -6.941394E+01
       118   4  1.910745E+03  2.800756E+02  8.584993E+01  9.759137E+01 -4.983760E+01 -8.435630E+01
       118   5  1.817128E+03  2.448912E+02  6.507887E+01  1.197774E+02 -4.665060E+01 -8.213274E+01
       118   6  1.738560E+03  2.173667E+02  5.049761E+01  1.389751E+02 -4.314529E+01 -8.005274E+01
       118   7  1.902361E+03  3.042578E+02  8.601666E+01  8.023231E+01 -3.699932E+01 -9.169063E+01
       118   8  1.803671E+03  2.699599E+02  6.428420E+01  9.811793E+01 -3.479503E+01 -8.992611E+01
       118   9  1.720793E+03  2.430283E+02  4.906683E+01  1.137650E+02 -3.214539E+01 -8.830456E+01
       118  10  1.913660E+03  2.420463E+02  8.303198E+01  1.130516E+02 -1.129655E-12  8.757018E-13
       118  11  1.824252E+03  2.043165E+02  6.257163E+01  1.391526E+02 -6.874259E-13 -6.129912E-14
       118  12  1.749270E+03  1.748315E+02  4.810485E+01  1.615634E+02 -5.637330E-14 -2.408180E-13
       118  13  1.910745E+03  2.800756E+02  8.584993E+01  9.759137E+01 -2.627105E-14 -7.005614E-13
       118  14  1.817128E+03  2.448912E+02  6.507887E+01  1.197774E+02 -2.627105E-13 -7.706175E-13
       118  15  1.738560E+03  2.173667E+02  5.049761E+01  1.389751E+02 -1.937490E-13 -4.203368E-13
       118  16  1.902361E+03  3.042578E+02  8.601666E+01  8.023231E+01  8.406737E-13 -3.502807E-14
       118  17  1.803671E+03  2.699599E+02  6.428420E+01  9.811793E+01  4.378509E-15 -3.765518E-13
       118  18  1.720793E+03  2.430283E+02  4.906683E+01  1.137650E+02 -3.885927E-14  1.116520E-13
       118  19  1.913660E+03  2.420463E+02  8.303198E+01  1.130516E+02  6.199174E+01  7.429470E+01
       118  20  1.824252E+03  2.043165E+02  6.257163E+01  1.391526E+02  5.784312E+01  7.179749E+01
       118  21  1.749270E+03  1.748315E+02  4.810485E+01  1.615634E+02  5.350238E+01  6.941394E+01
       118  22  1.910745E+03  2.800756E+02  8.584993E+01  9.759137E+01  4.983760E+01  8.435630E+01
       118  23  1.817128E+03  2.448912E+02  6.507887E+01  1.197774E+02  4.665060E+01  8.213274E+01
       118  24  1.738560E+03  2.173667E+02  5.049761E+01  1.389751E+02  4.314529E+01  8.005274E+01
       118  25  1.902361E+03  3.042578E+02  8.601666E+01  8.023231E+01  3.699932E+01  9.169063E+01
       118  26  1.803671E+03  2.699599E+02  6.428420E+01  9.811793E+01  3.479503E+01  8.992611E+01
       118  27  1.720793E+03  2.430283E+02  4.906683E+01  1.137650E+02  3.214539E+01  8.830456E+01
       119   1  1.891971E+03  3.150296E+02  8.492903E+01  6.564666E+01 -2.926902E+01 -9.514144E+01
       119   2  1.790524E+03  2.812049E+02  6.278306E+01  7.994221E+01 -2.693660E+01 -9.364380E+01
       119   3  1.705102E+03  2.543524E+02  4.715871E+01  9.276608E+01 -2.477618E+01 -9.210337E+01
       119   4  1.870723E+03  3.253230E+02  8.195279E+01  3.945659E+01 -1.657210E+01 -9.924383E+01
       119   5  1.768392E+03  2.917640E+02  6.020286E+01  4.736559E+01 -1.531604E+01 -9.754060E+01
       119   6  1.682076E+03  2.648717E+02  4.490336E+01  5.485214E+01 -1.406354E+01 -9.583699E+01
       119   7  1.843910E+03  3.252882E+02  7.714815E+01  9.541333E+00 -3.183418E+00 -1.005869E+02
       119   8  1.739651E+03  2.895144E+02  5.475394E+01  1.097792E+01 -3.036251E+00 -9.890943E+01
       119   9  1.651560E+03  2.604977E+02  3.890742E+01  1.303358E+01 -2.722499E+00 -9.723694E+01
       119  10  1.891971E+03  3.150296E+02  8.492903E+01  6.564666E+01 -8.384844E-13  6.655333E-13
       119  11  1.790524E+03  2.812049E+02  6.278306E+01  7.994221E+01  1.444908E-13 -4.115798E-13
       119  12  1.705102E+03  2.543524E+02  4.715871E+01  9.276608E+01  4.211578E-13 -4.991500E-13
       119  13  1.870723E+03  3.253230E+02  8.195279E+01  3.945659E+01 -1.401123E-13 -2.802246E-13
       119  14  1.768392E+03  2.917640E+02  6.020286E+01  4.736559E+01 -2.780353E-13 -6.655333E-13
       119  15  1.682076E+03  2.648717E+02  4.490336E+01  5.485214E+01 -2.840558E-13 -1.059599E-12
       119  16  1.843910E+03  3.252882E+02  7.714815E+01  9.541333E+00  8.406737E-13  5.254211E-13
       119  17  1.739651E+03  2.895144E+02  5.475394E+01  1.097792E+01 -5.604491E-13 -2.802246E-13
       119  18  1.651560E+03  2.604977E+02  3.890742E+01  1.303358E+01 -7.697966E-13 -3.152526E-13
       119  19  1.891971E+03  3.150296E+02  8.492903E+01  6.564666E+01  2.926902E+01  9.514144E+01
       119  20  1.790524E+03  2.812049E+02  6.278306E+01  7.994221E+01  2.693660E+01  9.364380E+01
       119  21  1.705102E+03  2.543524E+02  4.715871E+01  9.276608E+01  2.477618E+01  9.210337E+01
       119  22  1.870723E+03  3.253230E+02  8.195279E+01  3.945659E+01  1.657210E+01  9.924383E+01
       119  23  1.768392E+03  2.917640E+02  6.020286E+01  4.736559E+01  1.531604E+01  9.754060E+01
       119  24  1.682076E+03  2.648717E+02  4.490336E+01  5.485214E+01  1.406354E+01  9.583699E+01
       119  25  1.843910E+03  3.252882E+02  7.714815E+01  9.541333E+00  3.183418E+00  1.005869E+02
       119  26  1.739651E+03  2.895144E+02  5.475394E+01  1.097792E+01  3.036251E+00  9.890943E+01
       119  27  1.651560E+03  2.604977E+02  3.890742E+01  1.303358E+01  2.722499E+00  9.723694E+01
       120   1  2.236664E+03  3.758543E+02  1.586986E+02  1.240834E+01 -3.181546E+01 -9.257246E+01
       120   2  2.079555E+03  3.463330E+02  1.210947E+02  3.577744E+01 -3.101310E+01 -9.400048E+01
       120   3  1.957193E+03  3.325280E+02  9.885295E+01  5.565413E+01 -3.026218E+01 -9.541570E+01
       120   4  2.218869E+03  3.816939E+02  1.543119E+02  9.189399E+00 -1.821210E+01 -9.608248E+01
       120   5  2.060582E+03  3.549007E+02  1.175585E+02  2.211824E+01 -1.761634E+01 -9.756361E+01
       120   6  1.936932E+03  3.430322E+02  9.593882E+01  3.373355E+01 -1.703806E+01 -9.904239E+01
       120   7  2.198940E+03  3.850538E+02  1.508804E+02  2.769915E+00 -4.252030E+00 -9.791891E+01
       120   8  2.037862E+03  3.570627E+02  1.135758E+02  5.177502E+00 -3.843159E+00 -9.949137E+01
       120   9  1.911661E+03  3.440252E+02  9.152744E+01  8.411184E+00 -3.422503E+00 -1.010641E+02
       120  10  2.236664E+03  3.758543E+02  1.586986E+02  1.240834E+01 -1.121993E-12  1.050842E-13
       120  11  2.079555E+03  3.463330E+02  1.210947E+02  3.577744E+01 -1.119804E-12  1.685726E-13
       120  12  1.957193E+03  3.325280E+02  9.885295E+01  5.565413E+01 -9.785967E-13  9.304331E-13
       120  13  2.218869E+03  3.816939E+02  1.543119E+02  9.189399E+00 -3.502807E-14 -9.107298E-13
       120  14  2.060582E+03  3.549007E+02  1.175585E+02  2.211824E+01  7.005614E-14 -3.152526E-13
       120  15  1.936932E+03  3.430322E+02  9.593882E+01  3.373355E+01  2.112630E-13  5.604491E-13
       120  16  2.198940E+03  3.850538E+02  1.508804E+02  2.769915E+00  1.121993E-12 -4.203368E-13
       120  17  2.037862E+03  3.570627E+02  1.135758E+02  5.177502E+00  1.962667E-12 -1.663833E-13
       120  18  1.911661E+03  3.440252E+02  9.152744E+01  8.411184E+00  7.008351E-13  6.064235E-13
       120  19  2.236664E+03  3.758543E+02  1.586986E+02  1.240834E+01  3.181546E+01  9.257246E+01
       120  20  2.079555E+03  3.463330E+02  1.210947E+02  3.577744E+01  3.101310E+01  9.400048E+01
       120  21  1.957193E+03  3.325280E+02  9.885295E+01  5.565413E+01  3.026218E+01  9.541570E+01
       120  22  2.218869E+03  3.816939E+02  1.543119E+02  9.189399E+00  1.821210E+01  9.608248E+01
       120  23  2.060582E+03  3.549007E+02  1.175585E+02  2.211824E+01  1.761634E+01  9.756361E+01
       120  24  1.936932E+03  3.430322E+02  9.593882E+01  3.373355E+01  1.703806E+01  9.904239E+01
       120  25  2.198940E+03  3.850538E+02  1.508804E+02  2.769915E+00  4.252030E+00  9.791891E+01
       120  26  2.037862E+03  3.570627E+02  1.135758E+02  5.177502E+00  3.843159E+00  9.949137E+01
       120  27  1.911661E+03  3.440252E+02  9.152744E+01  8.411184E+00  3.422503E+00  1.010641E+02
       121   1 -1.377633E+02 -6.575457E+02 -3.116118E+02  2.019018E+02 -5.629478E+01  1.503719E+02
       121   2  2.269549E+02 -4.448764E+02 -1.795894E+02 -4.656922E+01 -5.610219E+01  1.520729E+02
       121   3  4.528579E+02 -3.457549E+02 -1.238336E+02 -2.315912E+02 -5.272515E+01  1.526204E+02
       121   4 -7.199125E+01 -4.317484E+02 -2.656757E+02  1.340092E+02 -7.785224E+01  1.591312E+02
       121   5  3.097486E+02 -2.895438E+02 -1.444428E+02 -9.162203E+01 -7.665393E+01  1.578439E+02
       121   6  5.254843E+02 -2.719266E+02 -1.101506E+02 -2.500194E+02 -7.117542E+01  1.550552E+02
       121   7 -1.012521E+01 -2.011598E+02 -2.236594E+02  4.125328E+01 -9.916762E+01  1.655581E+02
       121   8  3.854579E+02 -1.471329E+02 -1.189465E+02 -1.519139E+02 -9.831647E+01  1.608809E+02
       121   9  5.928133E+02 -2.286190E+02 -1.103246E+02 -2.748053E+02 -9.198465E+01  1.542403E+02
       121  10 -1.377633E+02 -6.575457E+02 -3.116118E+02  2.019018E+02 -6.305053E-13  2.627105E-14
       121  11  2.269549E+02 -4.448764E+02 -1.795894E+02 -4.656922E+01 -2.802246E-13  2.495750E-13
       121  12  4.528579E+02 -3.457549E+02 -1.238336E+02 -2.315912E+02 -9.632719E-14  2.014114E-13
       121  13 -7.199125E+01 -4.317484E+02 -2.656757E+02  1.340092E+02 -1.751404E-13  8.757018E-15
       121  14  3.097486E+02 -2.895438E+02 -1.444428E+02 -9.162203E+01  0.000000E+00  6.129912E-14
       121  15  5.254843E+02 -2.719266E+02 -1.101506E+02 -2.500194E+02 -2.627105E-14  3.721732E-14
       121  16 -1.012521E+01 -2.011598E+02 -2.236594E+02  4.125328E+01  0.000000E+00  1.576263E-13
       121  17  3.854579E+02 -1.471329E+02 -1.189465E+02 -1.519139E+02 -7.005614E-14 -2.189254E-14
       121  18  5.928133E+02 -2.286190E+02 -1.103246E+02 -2.748053E+02 -1.576263E-13 -1.937490E-13
       121  19 -1.377633E+02 -6.575457E+02 -3.116118E+02  2.019018E+02  5.629478E+01 -1.503719E+02
       121  20  2.269549E+02 -4.448764E+02 -1.795894E+02 -4.656922E+01  5.610219E+01 -1.520729E+02
       121  21  4.528579E+02 -3.457549E+02 -1.238336E+02 -2.315912E+02  5.272515E+01 -1.526204E+02
       121  22 -7.199125E+01 -4.317484E+02 -2.656757E+02  1.340092E+02  7.785224E+01 -1.591312E+02
       121  23  3.097486E+02 -2.895438E+02 -1.444428E+02 -9.162203E+01  7.665393E+01 -1.578439E+02
       121  24  5.254843E+02 -2.719266E+02 -1.101506E+02 -2.500194E+02  7.117542E+01 -1.550552E+02
       121  25 -1.012521E+01 -2.011598E+02 -2.236594E+02  4.125328E+01  9.916762E+01 -1.655581E+02
       121  26  3.854579E+02 -1.471329E+02 -1.189465E+02 -1.519139E+02  9.831647E+01 -1.608809E+02
       121  27  5.928133E+02 -2.286190E+02 -1.103246E+02 -2.748053E+02  9.198465E+01 -1.542403E+02
       122   1  6.255240E+02 -3.719572E+02 -1.038849E+02 -2.765305E+02 -5.418578E+01  1.454440E+02
       122   2  8.882199E+02 -3.388628E+02 -5.248409E+01 -2.993930E+02 -5.502750E+01  1.310687E+02
       122   3  1.068400E+03 -3.556113E+02 -3.615101E+01 -2.989544E+02 -5.395925E+01  1.159908E+02
       122   4  6.965939E+02 -3.186800E+02 -9.307767E+01 -2.811562E+02 -7.119732E+01  1.469292E+02
       122   5  9.482407E+02 -2.996647E+02 -4.335231E+01 -2.991238E+02 -7.042411E+01  1.326447E+02
       122   6  1.107194E+03 -3.370411E+02 -3.448024E+01 -2.910140E+02 -6.800912E+01  1.177577E+02
       122   7  7.664147E+02 -2.547578E+02 -8.238153E+01 -2.853325E+02 -8.930089E+01  1.468241E+02
       122   8  1.010276E+03 -2.513331E+02 -3.371845E+01 -2.983692E+02 -8.644418E+01  1.326899E+02
       122   9  1.148019E+03 -3.128750E+02 -3.327661E+01 -2.816288E+02 -8.230461E+01  1.180864E+02
       122  10  6.255240E+02 -3.719572E+02 -1.038849E+02 -2.765305E+02 -1.401123E-13 -1.751404E-13
       122  11  8.882199E+02 -3.388628E+02 -5.248409E+01 -2.993930E+02 -3.677947E-13  9.194868E-14
       122  12  1.068400E+03 -3.556113E+02 -3.615101E+01 -2.989544E+02 -2.189254E-13  2.769407E-13
       122  13  6.965939E+02 -3.186800E+02 -9.307767E+01 -2.811562E+02 -2.101684E-13 -2.276825E-13
       122  14  9.482407E+02 -2.996647E+02 -4.335231E+01 -2.991238E+02 -3.502807E-14  9.632719E-14
       122  15  1.107194E+03 -3.370411E+02 -3.448024E+01 -2.910140E+02 -1.751404E-14  8.100241E-14
       122  16  7.664147E+02 -2.547578E+02 -8.238153E+01 -2.853325E+02  7.005614E-14 -1.138412E-13
       122  17  1.010276E+03 -2.513331E+02 -3.371845E+01 -2.983692E+02 -5.254211E-14 -3.940658E-14
       122  18  1.148019E+03 -3.128750E+02 -3.327661E+01 -2.816288E+02  1.225982E-13 -1.554371E-13
       122  19  6.255240E+02 -3.719572E+02 -1.038849E+02 -2.765305E+02  5.418578E+01 -1.454440E+02
       122  20  8.882199E+02 -3.388628E+02 -5.248409E+01 -2.993930E+02  5.502750E+01 -1.310687E+02
       122  21  1.068400E+03 -3.556113E+02 -3.615101E+01 -2.989544E+02  5.395925E+01 -1.159908E+02
       122  22  6.965939E+02 -3.186800E+02 -9.307767E+01 -2.811562E+02  7.119732E+01 -1.469292E+02
       122  23  9.482407E+02 -2.996647E+02 -4.335231E+01 -2.991238E+02  7.042411E+01 -1.326447E+02
       122  24  1.107194E+03 -3.370411E+02 -3.448024E+01 -2.910140E+02  6.800912E+01 -1.177577E+02
       122  25  7.664147E+02 -2.547578E+02 -8.238153E+01 -2.853325E+02  8.930089E+01 -1.468241E+02
       122  26  1.010276E+03 -2.513331E+02 -3.371845E+01 -2.983692E+02  8.644418E+01 -1.326899E+02
       122  27  1.148019E+03 -3.128750E+02 -3.327661E+01 -2.816288E+02  8.230461E+01 -1.180864E+02
       123   1  8.334126E+02 -1.932965E+02 -6.237589E+01 -3.016436E+02 -1.009016E+02  1.458925E+02
       123   2  1.030627E+03 -2.258196E+02 -3.499354E+01 -2.960971E+02 -9.666083E+01  1.319339E+02
       123   3  1.174232E+03 -2.881008E+02 -2.995029E+01 -2.779116E+02 -9.158947E+01  1.176653E+02
       123   4  9.294152E+02 -1.029380E+02 -4.047016E+01 -3.329268E+02 -1.172842E+02  1.415546E+02
       123   5  1.109778E+03 -1.438854E+02 -1.474605E+01 -3.172445E+02 -1.120262E+02  1.286976E+02
       123   6  1.231497E+03 -2.176566E+02 -1.451316E+01 -2.879528E+02 -1.063696E+02  1.156789E+02
       123   7  1.018911E+03 -1.881546E+01 -2.492001E+01 -3.666257E+02 -1.347858E+02  1.351785E+02
       123   8  1.185246E+03 -6.732958E+01  1.116560E-01 -3.392493E+02 -1.279767E+02  1.237803E+02
       123   9  1.286100E+03 -1.528271E+02 -4.368365E+00 -2.967331E+02 -1.213476E+02  1.124639E+02
       123  10  8.334126E+02 -1.932965E+02 -6.237589E+01 -3.016436E+02 -7.005614E-14  1.401123E-13
       123  11  1.030627E+03 -2.258196E+02 -3.499354E+01 -2.960971E+02 -1.751404E-13 -5.254211E-14
       123  12  1.174232E+03 -2.881008E+02 -2.995029E+01 -2.779116E+02 -2.320610E-13  5.910987E-14
       123  13  9.294152E+02 -1.029380E+02 -4.047016E+01 -3.329268E+02 -1.050842E-13 -4.203368E-13
       123  14  1.109778E+03 -1.438854E+02 -1.474605E+01 -3.172445E+02  5.254211E-14 -8.757018E-14
       123  15  1.231497E+03 -2.176566E+02 -1.451316E+01 -2.879528E+02  6.129912E-14  3.502807E-14
       123  16  1.018911E+03 -1.881546E+01 -2.492001E+01 -3.666257E+02 -1.050842E-13  1.313553E-13
       123  17  1.185246E+03 -6.732958E+01  1.116560E-01 -3.392493E+02 -1.050842E-13  2.189254E-14
       123  18  1.286100E+03 -1.528271E+02 -4.368365E+00 -2.967331E+02  2.014114E-13 -3.809303E-13
       123  19  8.334126E+02 -1.932965E+02 -6.237589E+01 -3.016436E+02  1.009016E+02 -1.458925E+02
       123  20  1.030627E+03 -2.258196E+02 -3.499354E+01 -2.960971E+02  9.666083E+01 -1.319339E+02
       123  21  1.174232E+03 -2.881008E+02 -2.995029E+01 -2.779116E+02  9.158947E+01 -1.176653E+02
       123  22  9.294152E+02 -1.029380E+02 -4.047016E+01 -3.329268E+02  1.172842E+02 -1.415546E+02
       123  23  1.109778E+03 -1.438854E+02 -1.474605E+01 -3.172445E+02  1.120262E+02 -1.286976E+02
       123  24  1.231497E+03 -2.176566E+02 -1.451316E+01 -2.879528E+02  1.063696E+02 -1.156789E+02
       123  25  1.018911E+03 -1.881546E+01 -2.492001E+01 -3.666257E+02  1.347858E+02 -1.351785E+02
       123  26  1.185246E+03 -6.732958E+01  1.116560E-01 -3.392493E+02  1.279767E+02 -1.237803E+02
       123  27  1.286100E+03 -1.528271E+02 -4.368365E+00 -2.967331E+02  1.213476E+02 -1.124639E+02
       124   1  7.271418E+01 -5.839745E+01 -1.845974E+02 -4.151934E+01 -1.134492E+02  1.675499E+02
       124   2  4.284020E+02 -8.103133E+01 -1.110492E+02 -1.890988E+02 -1.092529E+02  1.603210E+02
       124   3  6.625083E+02 -1.794636E+02 -9.549683E+01 -3.021938E+02 -1.036725E+02  1.525847E+02
       124   4  2.372656E+02  1.411524E+02 -1.266520E+02 -1.972724E+02 -1.321716E+02  1.641509E+02
       124   5  5.684594E+02  7.402382E+01 -6.697023E+01 -2.890945E+02 -1.272597E+02  1.562458E+02
       124   6  7.712268E+02 -6.519640E+01 -6.637793E+01 -3.519209E+02 -1.209134E+02  1.477849E+02
       124   7  4.168111E+02  3.064944E+02 -7.657740E+01 -3.713012E+02 -1.502030E+02  1.581972E+02
       124   8  7.265694E+02  1.996376E+02 -2.858300E+01 -3.948079E+02 -1.454204E+02  1.498060E+02
       124   9  9.035106E+02  2.406777E+01 -4.013396E+01 -3.926388E+02 -1.392079E+02  1.407779E+02
       124  10  7.271418E+01 -5.839745E+01 -1.845974E+02 -4.151934E+01  1.401123E-13  2.889816E-13
       124  11  4.284020E+02 -8.103133E+01 -1.110492E+02 -1.890988E+02 -7.005614E-14 -1.357338E-13
       124  12  6.625083E+02 -1.794636E+02 -9.549683E+01 -3.021938E+02 -2.145469E-13 -4.509864E-13
       124  13  2.372656E+02  1.411524E+02 -1.266520E+02 -1.972724E+02  2.802246E-13  1.751404E-13
       124  14  5.684594E+02  7.402382E+01 -6.697023E+01 -2.890945E+02  1.401123E-13 -1.751404E-13
       124  15  7.712268E+02 -6.519640E+01 -6.637793E+01 -3.519209E+02 -1.401123E-13 -2.846031E-13
       124  16  4.168111E+02  3.064944E+02 -7.657740E+01 -3.713012E+02  0.000000E+00  1.751404E-13
       124  17  7.265694E+02  1.996376E+02 -2.858300E+01 -3.948079E+02  1.225982E-13 -1.313553E-14
       124  18  9.035106E+02  2.406777E+01 -4.013396E+01 -3.926388E+02  1.937490E-13 -1.171251E-13
       124  19  7.271418E+01 -5.839745E+01 -1.845974E+02 -4.151934E+01  1.134492E+02 -1.675499E+02
       124  20  4.284020E+02 -8.103133E+01 -1.110492E+02 -1.890988E+02  1.092529E+02 -1.603210E+02
       124  21  6.625083E+02 -1.794636E+02 -9.549683E+01 -3.021938E+02  1.036725E+02 -1.525847E+02
       124  22  2.372656E+02  1.411524E+02 -1.266520E+02 -1.972724E+02  1.321716E+02 -1.641509E+02
       124  23  5.684594E+02  7.402382E+01 -6.697023E+01 -2.890945E+02  1.272597E+02 -1.562458E+02
       124  24  7.712268E+02 -6.519640E+01 -6.637793E+01 -3.519209E+02  1.209134E+02 -1.477849E+02
       124  25  4.168111E+02  3.064944E+02 -7.657740E+01 -3.713012E+02  1.502030E+02 -1.581972E+02
       124  26  7.265694E+02  1.996376E+02 -2.858300E+01 -3.948079E+02  1.454204E+02 -1.498060E+02
       124  27  9.035106E+02  2.406777E+01 -4.013396E+01 -3.926388E+02  1.392079E+02 -1.407779E+02
       125   1  6.875971E+02 -2.055650E+02 -2.760017E+01 -3.319137E+02  2.841915E+01  7.717939E+01
       125   2  6.712184E+02 -2.292367E+02 -3.253887E+01 -3.358434E+02  2.716495E+01  8.193506E+01
       125   3  6.551871E+02 -2.536677E+02 -3.763322E+01 -3.407880E+02  2.583493E+01  8.703446E+01
       125   4  6.089753E+02 -1.941166E+02 -3.204477E+01 -3.211485E+02  3.560019E+01  7.382743E+01
       125   5  5.907234E+02 -2.206813E+02 -3.772869E+01 -3.251759E+02  3.440476E+01  7.888898E+01
       125   6  5.723643E+02 -2.486475E+02 -4.393088E+01 -3.302756E+02  3.315189E+01  8.431508E+01
       125   7  5.352934E+02 -1.807451E+02 -3.529785E+01 -3.098866E+02  4.261552E+01  7.046040E+01
       125   8  5.150003E+02 -2.102883E+02 -4.164803E+01 -3.142473E+02  4.150176E+01  7.583533E+01
       125   9  4.941651E+02 -2.418286E+02 -4.885926E+01 -3.197538E+02  4.034927E+01  8.159426E+01
       125  10  6.875971E+02 -2.055650E+02 -2.760017E+01 -3.319137E+02  1.401123E-13 -3.524700E-13
       125  11  6.712184E+02 -2.292367E+02 -3.253887E+01 -3.358434E+02  3.677947E-13 -1.652887E-13
       125  12  6.551871E+02 -2.536677E+02 -3.763322E+01 -3.407880E+02  1.795189E-13  5.021602E-14
       125  13  6.089753E+02 -1.941166E+02 -3.204477E+01 -3.211485E+02  2.802246E-13  8.757018E-15
       125  14  5.907234E+02 -2.206813E+02 -3.772869E+01 -3.251759E+02  1.751404E-13  7.005614E-14
       125  15  5.723643E+02 -2.486475E+02 -4.393088E+01 -3.302756E+02  3.765518E-13  1.860866E-14
       125  16  5.352934E+02 -1.807451E+02 -3.529785E+01 -3.098866E+02 -1.313553E-13  3.491861E-13
       125  17  5.150003E+02 -2.102883E+02 -4.164803E+01 -3.142473E+02  7.881316E-14  3.612270E-14
       125  18  4.941651E+02 -2.418286E+02 -4.885926E+01 -3.197538E+02  2.057899E-13 -1.054947E-13
       125  19  6.875971E+02 -2.055650E+02 -2.760017E+01 -3.319137E+02 -2.841915E+01 -7.717939E+01
       125  20  6.712184E+02 -2.292367E+02 -3.253887E+01 -3.358434E+02 -2.716495E+01 -8.193506E+01
       125  21  6.551871E+02 -2.536677E+02 -3.763322E+01 -3.407880E+02 -2.583493E+01 -8.703446E+01
       125  22  6.089753E+02 -1.941166E+02 -3.204477E+01 -3.211485E+02 -3.560019E+01 -7.382743E+01
       125  23  5.907234E+02 -2.206813E+02 -3.772869E+01 -3.251759E+02 -3.440476E+01 -7.888898E+01
       125  24  5.723643E+02 -2.486475E+02 -4.393088E+01 -3.302756E+02 -3.315189E+01 -8.431508E+01
       125  25  5.352934E+02 -1.807451E+02 -3.529785E+01 -3.098866E+02 -4.261552E+01 -7.046040E+01
       125  26  5.150003E+02 -2.102883E+02 -4.164803E+01 -3.142473E+02 -4.150176E+01 -7.583533E+01
       125  27  4.941651E+02 -2.418286E+02 -4.885926E+01 -3.197538E+02 -4.034927E+01 -8.159426E+01
       126   1  6.474454E+02 -2.672956E+02 -3.997520E+01 -3.429866E+02  2.446596E+01  9.025600E+01
       126   2  6.268728E+02 -2.927959E+02 -4.698553E+01 -3.429743E+02  2.171514E+01  9.609048E+01
       126   3  6.075569E+02 -3.167722E+02 -5.339031E+01 -3.441265E+02  1.892067E+01  1.021246E+02
       126   4  5.604347E+02 -2.659945E+02 -4.827142E+01 -3.316461E+02  3.201537E+01  8.770732E+01
       126   5  5.374297E+02 -2.969393E+02 -5.706297E+01 -3.296815E+02  2.898443E+01  9.382293E+01
       126   6  5.148053E+02 -3.278808E+02 -6.608022E+01 -3.288088E+02  2.591366E+01  1.001924E+02
       126   7  4.815829E+02 -2.613298E+02 -5.358323E+01 -3.208026E+02  3.933672E+01  8.516207E+01
       126   8  4.562645E+02 -2.974869E+02 -6.391324E+01 -3.173939E+02  3.608095E+01  9.156635E+01
       126   9  4.305483E+02 -3.349776E+02 -7.521579E+01 -3.150662E+02  3.279454E+01  9.827330E+01
       126  10  6.474454E+02 -2.672956E+02 -3.997520E+01 -3.429866E+02  0.000000E+00  2.079792E-13
       126  11  6.268728E+02 -2.927959E+02 -4.698553E+01 -3.429743E+02  0.000000E+00  3.874980E-13
       126  12  6.075569E+02 -3.167722E+02 -5.339031E+01 -3.441265E+02 -8.757018E-14  1.997695E-13
       126  13  5.604347E+02 -2.659945E+02 -4.827142E+01 -3.316461E+02  1.050842E-13 -3.283882E-14
       126  14  5.374297E+02 -2.969393E+02 -5.706297E+01 -3.296815E+02  2.101684E-13  1.028950E-13
       126  15  5.148053E+02 -3.278808E+02 -6.608022E+01 -3.288088E+02 -1.313553E-13  3.831195E-14
       126  16  4.815829E+02 -2.613298E+02 -5.358323E+01 -3.208026E+02  8.757018E-14 -1.401123E-13
       126  17  4.562645E+02 -2.974869E+02 -6.391324E+01 -3.173939E+02  2.627105E-14  2.846031E-14
       126  18  4.305483E+02 -3.349776E+02 -7.521579E+01 -3.150662E+02 -1.050842E-13 -2.005904E-13
       126  19  6.474454E+02 -2.672956E+02 -3.997520E+01 -3.429866E+02 -2.446596E+01 -9.025600E+01
       126  20  6.268728E+02 -2.927959E+02 -4.698553E+01 -3.429743E+02 -2.171514E+01 -9.609048E+01
       126  21  6.075569E+02 -3.167722E+02 -5.339031E+01 -3.441265E+02 -1.892067E+01 -1.021246E+02
       126  22  5.604347E+02 -2.659945E+02 -4.827142E+01 -3.316461E+02 -3.201537E+01 -8.770732E+01
       126  23  5.374297E+02 -2.969393E+02 -5.706297E+01 -3.296815E+02 -2.898443E+01 -9.382293E+01
       126  24  5.148053E+02 -3.278808E+02 -6.608022E+01 -3.288088E+02 -2.591366E+01 -1.001924E+02
       126  25  4.815829E+02 -2.613298E+02 -5.358323E+01 -3.208026E+02 -3.933672E+01 -8.516207E+01
       126  26  4.562645E+02 -2.974869E+02 -6.391324E+01 -3.173939E+02 -3.608095E+01 -9.156635E+01
       126  27  4.305483E+02 -3.349776E+02 -7.521579E+01 -3.150662E+02 -3.279454E+01 -9.827330E+01
       127   1  4.359980E+02 -2.604460E+02 -5.736983E+01 -3.093953E+02  4.360600E+01  8.277825E+01
       127   2  4.089846E+02 -3.014438E+02 -6.917060E+01 -3.052432E+02  4.025367E+01  8.947141E+01
       127   3  3.821603E+02 -3.419278E+02 -8.127542E+01 -3.017884E+02  3.687224E+01  9.657355E+01
       127   4  3.593030E+02 -2.619400E+02 -6.516920E+01 -2.832036E+02  5.085538E+01  7.649504E+01
       127   5  3.310567E+02 -3.084999E+02 -7.803148E+01 -2.776876E+02  4.742387E+01  8.340469E+01
       127   6  3.022478E+02 -3.560192E+02 -9.196528E+01 -2.729462E+02  4.398234E+01  9.074919E+01
       127   7  2.898083E+02 -2.607120E+02 -7.119275E+01 -2.577173E+02  5.770917E+01  7.021807E+01
       127   8  2.601769E+02 -3.126908E+02 -8.496231E+01 -2.512926E+02  5.422438E+01  7.736189E+01
       127   9  2.292786E+02 -3.669548E+02 -1.005124E+02 -2.457537E+02  5.074911E+01  8.496546E+01
       127  10  4.359980E+02 -2.604460E+02 -5.736983E+01 -3.093953E+02  3.152526E-13 -1.412069E-13
       127  11  4.089846E+02 -3.014438E+02 -6.917060E+01 -3.052432E+02  4.378509E-14  3.229150E-14
       127  12  3.821603E+02 -3.419278E+02 -8.127542E+01 -3.017884E+02 -3.108741E-13  2.776248E-13
       127  13  3.593030E+02 -2.619400E+02 -6.516920E+01 -2.832036E+02  5.079070E-13  3.557538E-15
       127  14  3.310567E+02 -3.084999E+02 -7.803148E+01 -2.776876E+02  7.005614E-14 -6.239375E-14
       127  15  3.022478E+02 -3.560192E+02 -9.196528E+01 -2.729462E+02  8.757018E-15 -6.020450E-15
       127  16  2.898083E+02 -2.607120E+02 -7.119275E+01 -2.577173E+02  2.539535E-13  1.423015E-13
       127  17  2.601769E+02 -3.126908E+02 -8.496231E+01 -2.512926E+02 -1.751404E-14 -1.067262E-13
       127  18  2.292786E+02 -3.669548E+02 -1.005124E+02 -2.457537E+02 -7.443465E-14 -2.033270E-13
       127  19  4.359980E+02 -2.604460E+02 -5.736983E+01 -3.093953E+02 -4.360600E+01 -8.277825E+01
       127  20  4.089846E+02 -3.014438E+02 -6.917060E+01 -3.052432E+02 -4.025367E+01 -8.947141E+01
       127  21  3.821603E+02 -3.419278E+02 -8.127542E+01 -3.017884E+02 -3.687224E+01 -9.657355E+01
       127  22  3.593030E+02 -2.619400E+02 -6.516920E+01 -2.832036E+02 -5.085538E+01 -7.649504E+01
       127  23  3.310567E+02 -3.084999E+02 -7.803148E+01 -2.776876E+02 -4.742387E+01 -8.340469E+01
       127  24  3.022478E+02 -3.560192E+02 -9.196528E+01 -2.729462E+02 -4.398234E+01 -9.074919E+01
       127  25  2.898083E+02 -2.607120E+02 -7.119275E+01 -2.577173E+02 -5.770917E+01 -7.021807E+01
       127  26  2.601769E+02 -3.126908E+02 -8.496231E+01 -2.512926E+02 -5.422438E+01 -7.736189E+01
       127  27  2.292786E+02 -3.669548E+02 -1.005124E+02 -2.457537E+02 -5.074911E+01 -8.496546E+01
       128   1  4.934972E+02 -1.728858E+02 -3.726961E+01 -2.982849E+02  4.662895E+01  6.759201E+01
       128   2  4.719783E+02 -2.035022E+02 -4.375501E+01 -3.026246E+02  4.565281E+01  7.301317E+01
       128   3  4.489013E+02 -2.383092E+02 -5.207110E+01 -3.082333E+02  4.463468E+01  7.902705E+01
       128   4  4.254797E+02 -1.617369E+02 -4.139868E+01 -2.709903E+02  5.316272E+01  6.103448E+01
       128   5  4.005062E+02 -1.969930E+02 -4.926152E+01 -2.756678E+02  5.252587E+01  6.656357E+01
       128   6  3.736020E+02 -2.368833E+02 -5.918961E+01 -2.816406E+02  5.187583E+01  7.266478E+01
       128   7  3.658346E+02 -1.475610E+02 -4.365649E+01 -2.436406E+02  5.921538E+01  5.443334E+01
       128   8  3.375880E+02 -1.873286E+02 -5.267197E+01 -2.488579E+02  5.889694E+01  6.008779E+01
       128   9  3.070808E+02 -2.321295E+02 -6.396122E+01 -2.554109E+02  5.858980E+01  6.629703E+01
       128  10  4.934972E+02 -1.728858E+02 -3.726961E+01 -2.982849E+02  5.254211E-14 -7.115077E-14
       128  11  4.719783E+02 -2.035022E+02 -4.375501E+01 -3.026246E+02  1.751404E-14  3.174419E-14
       128  12  4.489013E+02 -2.383092E+02 -5.207110E+01 -3.082333E+02  5.254211E-14 -3.625953E-14
       128  13  4.254797E+02 -1.617369E+02 -4.139868E+01 -2.709903E+02  1.401123E-13  5.254211E-14
       128  14  4.005062E+02 -1.969930E+02 -4.926152E+01 -2.756678E+02 -1.050842E-13  1.401123E-13
       128  15  3.736020E+02 -2.368833E+02 -5.918961E+01 -2.816406E+02  0.000000E+00  4.624800E-14
       128  16  3.658346E+02 -1.475610E+02 -4.365649E+01 -2.436406E+02  2.451965E-13  1.423015E-13
       128  17  3.375880E+02 -1.873286E+02 -5.267197E+01 -2.488579E+02  3.502807E-14  2.101684E-13
       128  18  3.070808E+02 -2.321295E+02 -6.396122E+01 -2.554109E+02 -2.233039E-13  2.706466E-13
       128  19  4.934972E+02 -1.728858E+02 -3.726961E+01 -2.982849E+02 -4.662895E+01 -6.759201E+01
       128  20  4.719783E+02 -2.035022E+02 -4.375501E+01 -3.026246E+02 -4.565281E+01 -7.301317E+01
       128  21  4.489013E+02 -2.383092E+02 -5.207110E+01 -3.082333E+02 -4.463468E+01 -7.902705E+01
       128  22  4.254797E+02 -1.617369E+02 -4.139868E+01 -2.709903E+02 -5.316272E+01 -6.103448E+01
       128  23  4.005062E+02 -1.969930E+02 -4.926152E+01 -2.756678E+02 -5.252587E+01 -6.656357E+01
       128  24  3.736020E+02 -2.368833E+02 -5.918961E+01 -2.816406E+02 -5.187583E+01 -7.266478E+01
       128  25  3.658346E+02 -1.475610E+02 -4.365649E+01 -2.436406E+02 -5.921538E+01 -5.443334E+01
       128  26  3.375880E+02 -1.873286E+02 -5.267197E+01 -2.488579E+02 -5.889694E+01 -6.008779E+01
       128  27  3.070808E+02 -2.321295E+02 -6.396122E+01 -2.554109E+02 -5.858980E+01 -6.629703E+01
       129   1  1.738760E+03  1.368001E+02  4.441810E+01  1.768521E+02 -5.886800E+01 -6.050323E+01
       129   2  1.794462E+03  1.123885E+02  5.359444E+01  1.595392E+02 -7.272413E+01 -4.733224E+01
       129   3  1.831048E+03  7.053957E+01  5.690885E+01  1.337223E+02 -8.529560E+01 -3.312814E+01
       129   4  1.697418E+03  8.349099E+01  3.176295E+01  1.903898E+02 -5.791927E+01 -5.109003E+01
       129   5  1.743747E+03  5.888849E+01  4.062429E+01  1.739849E+02 -6.932276E+01 -3.842964E+01
       129   6  1.768125E+03  1.485596E+01  4.150360E+01  1.483655E+02 -7.950105E+01 -2.467468E+01
       129   7  1.664694E+03  4.852908E+01  2.631098E+01  2.009942E+02 -5.651556E+01 -4.289646E+01
       129   8  1.699503E+03  2.152975E+01  3.294500E+01  1.862444E+02 -6.541716E+01 -3.066494E+01
       129   9  1.709510E+03 -2.681541E+01  2.949507E+01  1.613998E+02 -7.316540E+01 -1.728168E+01
       129  10  1.738760E+03  1.368001E+02  4.441810E+01  1.768521E+02  0.000000E+00  1.120898E-12
       129  11  1.794462E+03  1.123885E+02  5.359444E+01  1.595392E+02 -1.269768E-13 -8.757018E-15
       129  12  1.831048E+03  7.053957E+01  5.690885E+01  1.337223E+02  1.620048E-13 -1.048653E-12
       129  13  1.697418E+03  8.349099E+01  3.176295E+01  1.903898E+02 -3.853088E-13  8.406737E-13
       129  14  1.743747E+03  5.888849E+01  4.062429E+01  1.739849E+02 -5.254211E-14  1.751404E-13
       129  15  1.768125E+03  1.485596E+01  4.150360E+01  1.483655E+02  4.400401E-13 -5.516921E-13
       129  16  1.664694E+03  4.852908E+01  2.631098E+01  2.009942E+02 -2.802246E-13  8.581877E-13
       129  17  1.699503E+03  2.152975E+01  3.294500E+01  1.862444E+02  2.802246E-13  6.129912E-14
       129  18  1.709510E+03 -2.681541E+01  2.949507E+01  1.613998E+02  3.075902E-13 -7.290217E-13
       129  19  1.738760E+03  1.368001E+02  4.441810E+01  1.768521E+02  5.886800E+01  6.050323E+01
       129  20  1.794462E+03  1.123885E+02  5.359444E+01  1.595392E+02  7.272413E+01  4.733224E+01
       129  21  1.831048E+03  7.053957E+01  5.690885E+01  1.337223E+02  8.529560E+01  3.312814E+01
       129  22  1.697418E+03  8.349099E+01  3.176295E+01  1.903898E+02  5.791927E+01  5.109003E+01
       129  23  1.743747E+03  5.888849E+01  4.062429E+01  1.739849E+02  6.932276E+01  3.842964E+01
       129  24  1.768125E+03  1.485596E+01  4.150360E+01  1.483655E+02  7.950105E+01  2.467468E+01
       129  25  1.664694E+03  4.852908E+01  2.631098E+01  2.009942E+02  5.651556E+01  4.289646E+01
       129  26  1.699503E+03  2.152975E+01  3.294500E+01  1.862444E+02  6.541716E+01  3.066494E+01
       129  27  1.709510E+03 -2.681541E+01  2.949507E+01  1.613998E+02  7.316540E+01  1.728168E+01
       130   1  1.848500E+03  4.757511E+01  6.053585E+01  1.061894E+02 -9.258292E+01 -2.291980E+01
       130   2  1.839661E+03  7.594159E+00  5.966331E+01  5.381684E+01 -1.033271E+02 -3.413129E+00
       130   3  1.813887E+03 -4.747657E+01  5.509198E+01 -6.305480E+00 -1.121277E+02  1.765677E+01
       130   4  1.771605E+03 -1.563350E+01  3.942250E+01  1.298669E+02 -8.523211E+01 -1.560744E+01
       130   5  1.769459E+03 -5.173153E+01  4.205728E+01  8.447803E+01 -9.338680E+01  1.474989E+00
       130   6  1.745062E+03 -1.057785E+02  3.735880E+01  3.014451E+01 -9.951630E+01  2.036654E+01
       130   7  1.717644E+03 -5.300618E+01  3.055123E+01  1.422466E+02 -7.770531E+01 -8.616412E+00
       130   8  1.718563E+03 -8.822355E+01  3.431619E+01  1.058516E+02 -8.314251E+01  5.865851E+00
       130   9  1.691892E+03 -1.441287E+02  2.714287E+01  5.898902E+01 -8.648012E+01  2.244420E+01
       130  10  1.848500E+03  4.757511E+01  6.053585E+01  1.061894E+02 -4.203368E-13 -2.802246E-13
       130  11  1.839661E+03  7.594159E+00  5.966331E+01  5.381684E+01 -1.050842E-13 -1.838974E-13
       130  12  1.813887E+03 -4.747657E+01  5.509198E+01 -6.305480E+00  3.612270E-14  3.896873E-13
       130  13  1.771605E+03 -1.563350E+01  3.942250E+01  1.298669E+02  1.401123E-13 -1.050842E-13
       130  14  1.769459E+03 -5.173153E+01  4.205728E+01  8.447803E+01 -1.751404E-14 -2.101684E-13
       130  15  1.745062E+03 -1.057785E+02  3.735880E+01  3.014451E+01 -1.751404E-14  0.000000E+00
       130  16  1.717644E+03 -5.300618E+01  3.055123E+01  1.422466E+02  2.539535E-13  1.225982E-13
       130  17  1.718563E+03 -8.822355E+01  3.431619E+01  1.058516E+02  5.954772E-13 -1.663833E-13
       130  18  1.691892E+03 -1.441287E+02  2.714287E+01  5.898902E+01 -8.757018E-15  4.312831E-13
       130  19  1.848500E+03  4.757511E+01  6.053585E+01  1.061894E+02  9.258292E+01  2.291980E+01
       130  20  1.839661E+03  7.594159E+00  5.966331E+01  5.381684E+01  1.033271E+02  3.413129E+00
       130  21  1.813887E+03 -4.747657E+01  5.509198E+01 -6.305480E+00  1.121277E+02 -1.765677E+01
       130  22  1.771605E+03 -1.563350E+01  3.942250E+01  1.298669E+02  8.523211E+01  1.560744E+01
       130  23  1.769459E+03 -5.173153E+01  4.205728E+01  8.447803E+01  9.338680E+01 -1.474989E+00
       130  24  1.745062E+03 -1.057785E+02  3.735880E+01  3.014451E+01  9.951630E+01 -2.036654E+01
       130  25  1.717644E+03 -5.300618E+01  3.055123E+01  1.422466E+02  7.770531E+01  8.616412E+00
       130  26  1.718563E+03 -8.822355E+01  3.431619E+01  1.058516E+02  8.314251E+01 -5.865851E+00
       130  27  1.691892E+03 -1.441287E+02  2.714287E+01  5.898902E+01  8.648012E+01 -2.244420E+01
       131   1  1.693673E+03 -7.298170E+01  2.703049E+01  1.456982E+02 -7.273791E+01 -4.961177E+00
       131   2  1.680045E+03 -1.126003E+02  2.483708E+01  1.082400E+02 -7.629355E+01  8.959885E+00
       131   3  1.658719E+03 -1.639753E+02  1.979859E+01  6.632736E+01 -7.902324E+01  2.376337E+01
       131   4  1.644874E+03 -1.058877E+02  1.717889E+01  1.490818E+02 -6.415860E+01  3.489930E-01
       131   5  1.635152E+03 -1.384216E+02  1.755211E+01  1.140153E+02 -6.646465E+01  1.239798E+01
       131   6  1.614830E+03 -1.849874E+02  1.280331E+01  7.372887E+01 -6.786584E+01  2.554181E+01
       131   7  1.608197E+03 -1.244503E+02  1.285094E+01  1.462333E+02 -5.580813E+01  6.076295E+00
       131   8  1.600424E+03 -1.511193E+02  1.469138E+01  1.146496E+02 -5.676126E+01  1.604175E+01
       131   9  1.579140E+03 -1.941347E+02  9.118889E+00  7.686891E+01 -5.673582E+01  2.736167E+01
       131  10  1.693673E+03 -7.298170E+01  2.703049E+01  1.456982E+02 -2.977386E-13 -8.581877E-13
       131  11  1.680045E+03 -1.126003E+02  2.483708E+01  1.082400E+02 -1.225982E-13 -4.290939E-13
       131  12  1.658719E+03 -1.639753E+02  1.979859E+01  6.632736E+01  1.548726E-13  4.641219E-13
       131  13  1.644874E+03 -1.058877E+02  1.717889E+01  1.490818E+02  2.802246E-13 -4.553649E-13
       131  14  1.635152E+03 -1.384216E+02  1.755211E+01  1.140153E+02  1.401123E-13 -7.005614E-14
       131  15  1.614830E+03 -1.849874E+02  1.280331E+01  7.372887E+01 -5.254211E-14  3.240096E-13
       131  16  1.608197E+03 -1.244503E+02  1.285094E+01  1.462333E+02  5.779632E-13 -2.802246E-13
       131  17  1.600424E+03 -1.511193E+02  1.469138E+01  1.146496E+02  3.853088E-13  1.838974E-13
       131  18  1.579140E+03 -1.941347E+02  9.118889E+00  7.686891E+01 -3.656055E-13  3.962550E-13
       131  19  1.693673E+03 -7.298170E+01  2.703049E+01  1.456982E+02  7.273791E+01  4.961177E+00
       131  20  1.680045E+03 -1.126003E+02  2.483708E+01  1.082400E+02  7.629355E+01 -8.959885E+00
       131  21  1.658719E+03 -1.639753E+02  1.979859E+01  6.632736E+01  7.902324E+01 -2.376337E+01
       131  22  1.644874E+03 -1.058877E+02  1.717889E+01  1.490818E+02  6.415860E+01 -3.489930E-01
       131  23  1.635152E+03 -1.384216E+02  1.755211E+01  1.140153E+02  6.646465E+01 -1.239798E+01
       131  24  1.614830E+03 -1.849874E+02  1.280331E+01  7.372887E+01  6.786584E+01 -2.554181E+01
       131  25  1.608197E+03 -1.244503E+02  1.285094E+01  1.462333E+02  5.580813E+01 -6.076295E+00
       131  26  1.600424E+03 -1.511193E+02  1.469138E+01  1.146496E+02  5.676126E+01 -1.604175E+01
       131  27  1.579140E+03 -1.941347E+02  9.118889E+00  7.686891E+01  5.673582E+01 -2.736167E+01
       132   1  1.646735E+03  2.836147E+01  2.306464E+01  2.043530E+02 -5.468284E+01 -3.787665E+01
       132   2  1.673216E+03 -2.105385E+00  2.703398E+01  1.885326E+02 -6.249420E+01 -2.617171E+01
       132   3  1.687693E+03 -4.881515E+01  2.591440E+01  1.664095E+02 -6.931957E+01 -1.341282E+01
       132   4  1.615730E+03 -1.172295E+01  1.474580E+01  2.055571E+02 -5.109801E+01 -2.951359E+01
       132   5  1.637921E+03 -3.884775E+01  1.958570E+01  1.889923E+02 -5.704771E+01 -1.861905E+01
       132   6  1.645932E+03 -8.431513E+01  1.743365E+01  1.655542E+02 -6.202807E+01 -6.552031E+00
       132   7  1.592616E+03 -3.508595E+01  1.247832E+01  2.038701E+02 -4.723301E+01 -2.190150E+01
       132   8  1.608852E+03 -6.060289E+01  1.671389E+01  1.871408E+02 -5.127008E+01 -1.181360E+01
       132   9  1.608726E+03 -1.065455E+02  1.205861E+01  1.628139E+02 -5.436403E+01 -4.213782E-01
       132  10  1.646735E+03  2.836147E+01  2.306464E+01  2.043530E+02 -5.429351E-13  2.627105E-13
       132  11  1.673216E+03 -2.105385E+00  2.703398E+01  1.885326E+02  4.816360E-14 -3.064956E-13
       132  12  1.687693E+03 -4.881515E+01  2.591440E+01  1.664095E+02  1.904651E-13 -1.880570E-12
       132  13  1.615730E+03 -1.172295E+01  1.474580E+01  2.055571E+02 -2.101684E-13  5.604491E-13
       132  14  1.637921E+03 -3.884775E+01  1.958570E+01  1.889923E+02  2.451965E-13  4.553649E-13
       132  15  1.645932E+03 -8.431513E+01  1.743365E+01  1.655542E+02  4.816360E-13 -5.210425E-13
       132  16  1.592616E+03 -3.508595E+01  1.247832E+01  2.038701E+02  5.604491E-13  9.807860E-13
       132  17  1.608852E+03 -6.060289E+01  1.671389E+01  1.871408E+02  4.115798E-13  1.252254E-12
       132  18  1.608726E+03 -1.065455E+02  1.205861E+01  1.628139E+02  7.826584E-13  5.210425E-13
       132  19  1.646735E+03  2.836147E+01  2.306464E+01  2.043530E+02  5.468284E+01  3.787665E+01
       132  20  1.673216E+03 -2.105385E+00  2.703398E+01  1.885326E+02  6.249420E+01  2.617171E+01
       132  21  1.687693E+03 -4.881515E+01  2.591440E+01  1.664095E+02  6.931957E+01  1.341282E+01
       132  22  1.615730E+03 -1.172295E+01  1.474580E+01  2.055571E+02  5.109801E+01  2.951359E+01
       132  23  1.637921E+03 -3.884775E+01  1.958570E+01  1.889923E+02  5.704771E+01  1.861905E+01
       132  24  1.645932E+03 -8.431513E+01  1.743365E+01  1.655542E+02  6.202807E+01  6.552031E+00
       132  25  1.592616E+03 -3.508595E+01  1.247832E+01  2.038701E+02  4.723301E+01  2.190150E+01
       132  26  1.608852E+03 -6.060289E+01  1.671389E+01  1.871408E+02  5.127008E+01  1.181360E+01
       132  27  1.608726E+03 -1.065455E+02  1.205861E+01  1.628139E+02  5.436403E+01  4.213782E-01
       133   1  9.988861E+02  7.281708E+01  4.348130E-01 -1.329296E+02  3.404694E+00  5.999556E+00
       133   2  9.994424E+02  7.486397E+01  4.124253E-01 -1.259907E+02  3.269106E+00  4.633008E+00
       133   3  1.000007E+03  7.690605E+01  4.238604E-01 -1.194818E+02  3.133513E+00  3.320314E+00
       133   4  1.010347E+03  6.614077E+01  4.218080E-01 -1.323994E+02  2.004446E+00  6.033926E+00
       133   5  1.009755E+03  6.811880E+01  3.646577E-01 -1.254521E+02  1.922690E+00  4.653809E+00
       133   6  1.009163E+03  7.008452E+01  3.238554E-01 -1.189349E+02  1.840931E+00  3.327548E+00
       133   7  1.021856E+03  5.948174E+01  4.199837E-01 -1.317590E+02  5.906535E-01  6.068296E+00
       133   8  1.020116E+03  6.139280E+01  3.324665E-01 -1.248035E+02  5.627283E-01  4.674611E+00
       133   9  1.018370E+03  6.328405E+01  2.438224E-01 -1.182779E+02  5.348022E-01  3.334782E+00
       133  10  9.988861E+02  7.281708E+01  4.348130E-01 -1.329296E+02 -1.751404E-13 -4.181476E-13
       133  11  9.994424E+02  7.486397E+01  4.124253E-01 -1.259907E+02  1.751404E-13 -2.112630E-13
       133  12  1.000007E+03  7.690605E+01  4.238604E-01 -1.194818E+02  1.488693E-13  3.133370E-13
       133  13  1.010347E+03  6.614077E+01  4.218080E-01 -1.323994E+02  4.903930E-13  3.940658E-14
       133  14  1.009755E+03  6.811880E+01  3.646577E-01 -1.254521E+02  4.903930E-13  6.567763E-14
       133  15  1.009163E+03  7.008452E+01  3.238554E-01 -1.189349E+02  2.276825E-13  1.063947E-14
       133  16  1.021856E+03  5.948174E+01  4.199837E-01 -1.317590E+02  4.028228E-13  2.780353E-13
       133  17  1.020116E+03  6.139280E+01  3.324665E-01 -1.248035E+02  1.576263E-13  1.455854E-13
       133  18  1.018370E+03  6.328405E+01  2.438224E-01 -1.182779E+02 -3.940658E-13 -4.920349E-13
       133  19  9.988861E+02  7.281708E+01  4.348130E-01 -1.329296E+02 -3.404694E+00 -5.999556E+00
       133  20  9.994424E+02  7.486397E+01  4.124253E-01 -1.259907E+02 -3.269106E+00 -4.633008E+00
       133  21  1.000007E+03  7.690605E+01  4.238604E-01 -1.194818E+02 -3.133513E+00 -3.320314E+00
       133  22  1.010347E+03  6.614077E+01  4.218080E-01 -1.323994E+02 -2.004446E+00 -6.033926E+00
       133  23  1.009755E+03  6.811880E+01  3.646577E-01 -1.254521E+02 -1.922690E+00 -4.653809E+00
       133  24  1.009163E+03  7.008452E+01  3.238554E-01 -1.189349E+02 -1.840931E+00 -3.327548E+00
       133  25  1.021856E+03  5.948174E+01  4.199837E-01 -1.317590E+02 -5.906535E-01 -6.068296E+00
       133  26  1.020116E+03  6.139280E+01  3.324665E-01 -1.248035E+02 -5.627283E-01 -4.674611E+00
       133  27  1.018370E+03  6.328405E+01  2.438224E-01 -1.182779E+02 -5.348022E-01 -3.334782E+00
       134   1  1.000304E+03  7.811253E+01  4.403038E-01 -1.155248E+02  3.073367E+00  2.578635E+00
       134   2  1.000631E+03  8.022639E+01  4.438512E-01 -1.084127E+02  2.980355E+00  1.339171E+00
       134   3  1.001014E+03  8.245502E+01  5.211815E-01 -1.016769E+02  2.887345E+00  1.483172E-01
       134   4  1.008822E+03  7.123445E+01  3.113992E-01 -1.149385E+02  1.807371E+00  2.580644E+00
       134   5  1.008123E+03  7.323353E+01  2.716996E-01 -1.077779E+02  1.762990E+00  1.336789E+00
       134   6  1.007474E+03  7.534064E+01  2.900488E-01 -1.009937E+02  1.718611E+00  1.415451E-01
       134   7  1.017408E+03  6.438469E+01  2.106936E-01 -1.142730E+02  5.370044E-01  2.582652E+00
       134   8  1.015684E+03  6.626960E+01  1.291665E-01 -1.070639E+02  5.412561E-01  1.334407E+00
       134   9  1.014003E+03  6.825581E+01  8.995429E-02 -1.002312E+02  5.455077E-01  1.347728E-01
       134  10  1.000304E+03  7.811253E+01  4.403038E-01 -1.155248E+02  2.451965E-13  2.802246E-13
       134  11  1.000631E+03  8.022639E+01  4.438512E-01 -1.084127E+02  3.502807E-14  2.046953E-13
       134  12  1.001014E+03  8.245502E+01  5.211815E-01 -1.016769E+02 -4.290939E-13 -3.803829E-14
       134  13  1.008822E+03  7.123445E+01  3.113992E-01 -1.149385E+02 -5.604491E-13 -8.757018E-14
       134  14  1.008123E+03  7.323353E+01  2.716996E-01 -1.077779E+02 -4.203368E-13 -1.444908E-13
       134  15  1.007474E+03  7.534064E+01  2.900488E-01 -1.009937E+02 -4.553649E-13 -7.669713E-14
       134  16  1.017408E+03  6.438469E+01  2.106936E-01 -1.142730E+02 -3.677947E-13 -7.005614E-13
       134  17  1.015684E+03  6.626960E+01  1.291665E-01 -1.070639E+02 -1.751404E-13 -2.123577E-13
       134  18  1.014003E+03  6.825581E+01  8.995429E-02 -1.002312E+02  2.714675E-13  7.334002E-14
       134  19  1.000304E+03  7.811253E+01  4.403038E-01 -1.155248E+02 -3.073367E+00 -2.578635E+00
       134  20  1.000631E+03  8.022639E+01  4.438512E-01 -1.084127E+02 -2.980355E+00 -1.339171E+00
       134  21  1.001014E+03  8.245502E+01  5.211815E-01 -1.016769E+02 -2.887345E+00 -1.483172E-01
       134  22  1.008822E+03  7.123445E+01  3.113992E-01 -1.149385E+02 -1.807371E+00 -2.580644E+00
       134  23  1.008123E+03  7.323353E+01  2.716996E-01 -1.077779E+02 -1.762990E+00 -1.336789E+00
       134  24  1.007474E+03  7.534064E+01  2.900488E-01 -1.009937E+02 -1.718611E+00 -1.415451E-01
       134  25  1.017408E+03  6.438469E+01  2.106936E-01 -1.142730E+02 -5.370044E-01 -2.582652E+00
       134  26  1.015684E+03  6.626960E+01  1.291665E-01 -1.070639E+02 -5.412561E-01 -1.334407E+00
       134  27  1.014003E+03  6.825581E+01  8.995429E-02 -1.002312E+02 -5.455077E-01 -1.347728E-01
       135   1  1.022369E+03  6.029235E+01  1.098255E-01 -1.131023E+02 -2.065232E-01  2.562696E+00
       135   2  1.020076E+03  6.215387E+01  2.584943E-02 -1.059025E+02 -1.706620E-01  1.313778E+00
       135   3  1.017772E+03  6.399461E+01 -7.649096E-02 -9.906793E+01 -1.348020E-01  1.248340E-01
       135   4  1.030857E+03  5.353848E+01  2.458798E-02 -1.097462E+02 -1.474996E+00  2.467727E+00
       135   5  1.027561E+03  5.526531E+01 -1.024949E-01 -1.026272E+02 -1.379142E+00  1.239693E+00
       135   6  1.024246E+03  5.696304E+01 -2.673592E-01 -9.587346E+01 -1.283290E+00  7.162992E-02
       135   7  1.039092E+03  4.668396E+01 -1.439628E-01 -1.063214E+02 -2.722607E+00  2.372762E+00
       135   8  1.034790E+03  4.827319E+01 -3.209148E-01 -9.928316E+01 -2.566760E+00  1.165609E+00
       135   9  1.030461E+03  4.982501E+01 -5.550653E-01 -9.261016E+01 -2.410917E+00  1.842764E-02
       135  10  1.022369E+03  6.029235E+01  1.098255E-01 -1.131023E+02 -2.627105E-13 -2.189254E-15
       135  11  1.020076E+03  6.215387E+01  2.584943E-02 -1.059025E+02  1.751404E-14  3.557538E-13
       135  12  1.017772E+03  6.399461E+01 -7.649096E-02 -9.906793E+01 -2.627105E-14 -3.538382E-13
       135  13  1.030857E+03  5.353848E+01  2.458798E-02 -1.097462E+02  3.502807E-13  5.254211E-14
       135  14  1.027561E+03  5.526531E+01 -1.024949E-01 -1.026272E+02 -1.401123E-13  6.567763E-14
       135  15  1.024246E+03  5.696304E+01 -2.673592E-01 -9.587346E+01  3.152526E-13  1.736415E-14
       135  16  1.039092E+03  4.668396E+01 -1.439628E-01 -1.063214E+02 -1.050842E-13  1.423015E-13
       135  17  1.034790E+03  4.827319E+01 -3.209148E-01 -9.928316E+01  8.757018E-14  2.791299E-13
       135  18  1.030461E+03  4.982501E+01 -5.550653E-01 -9.261016E+01 -4.728789E-13  1.951173E-13
       135  19  1.022369E+03  6.029235E+01  1.098255E-01 -1.131023E+02  2.065232E-01 -2.562696E+00
       135  20  1.020076E+03  6.215387E+01  2.584943E-02 -1.059025E+02  1.706620E-01 -1.313778E+00
       135  21  1.017772E+03  6.399461E+01 -7.649096E-02 -9.906793E+01  1.348020E-01 -1.248340E-01
       135  22  1.030857E+03  5.353848E+01  2.458798E-02 -1.097462E+02  1.474996E+00 -2.467727E+00
       135  23  1.027561E+03  5.526531E+01 -1.024949E-01 -1.026272E+02  1.379142E+00 -1.239693E+00
       135  24  1.024246E+03  5.696304E+01 -2.673592E-01 -9.587346E+01  1.283290E+00 -7.162992E-02
       135  25  1.039092E+03  4.668396E+01 -1.439628E-01 -1.063214E+02  2.722607E+00 -2.372762E+00
       135  26  1.034790E+03  4.827319E+01 -3.209148E-01 -9.928316E+01  2.566760E+00 -1.165609E+00
       135  27  1.030461E+03  4.982501E+01 -5.550653E-01 -9.261016E+01  2.410917E+00 -1.842764E-02
       136   1  1.028531E+03  5.555321E+01  3.932155E-01 -1.305245E+02 -2.396789E-01  6.049689E+00
       136   2  1.026137E+03  5.743314E+01  2.960192E-01 -1.236028E+02 -2.339374E-01  4.651247E+00
       136   3  1.023704E+03  5.922323E+01  1.587685E-01 -1.170993E+02 -2.281957E-01  3.314693E+00
       136   4  1.039952E+03  4.913698E+01  4.534488E-01 -1.268945E+02 -1.663702E+00  5.924117E+00
       136   5  1.036422E+03  5.089683E+01  3.148679E-01 -1.200902E+02 -1.596083E+00  4.536375E+00
       136   6  1.032845E+03  5.255815E+01  1.161403E-01 -1.137041E+02 -1.528464E+00  3.210531E+00
       136   7  1.051069E+03  4.260098E+01  4.168433E-01 -1.231747E+02 -3.077057E+00  5.798506E+00
       136   8  1.046402E+03  4.423913E+01  2.332988E-01 -1.164879E+02 -2.947543E+00  4.421484E+00
       136   9  1.041679E+03  4.577006E+01 -3.046850E-02 -1.102194E+02 -2.818029E+00  3.106367E+00
       136  10  1.028531E+03  5.555321E+01  3.932155E-01 -1.305245E+02  3.327667E-13 -8.406737E-13
       136  11  1.026137E+03  5.743314E+01  2.960192E-01 -1.236028E+02  7.005614E-14 -7.629552E-13
       136  12  1.023704E+03  5.922323E+01  1.587685E-01 -1.170993E+02 -4.378509E-14 -3.888663E-13
       136  13  1.039952E+03  4.913698E+01  4.534488E-01 -1.268945E+02  7.005614E-14 -1.015358E-13
       136  14  1.036422E+03  5.089683E+01  3.148679E-01 -1.200902E+02 -7.005614E-14 -2.233039E-13
       136  15  1.032845E+03  5.255815E+01  1.161403E-01 -1.137041E+02  1.751404E-14 -7.712966E-14
       136  16  1.051069E+03  4.260098E+01  4.168433E-01 -1.231747E+02 -3.152526E-13  4.203368E-13
       136  17  1.046402E+03  4.423913E+01  2.332988E-01 -1.164879E+02  1.050842E-13  2.145469E-13
       136  18  1.041679E+03  4.577006E+01 -3.046850E-02 -1.102194E+02  2.977386E-13  3.330403E-13
       136  19  1.028531E+03  5.555321E+01  3.932155E-01 -1.305245E+02  2.396789E-01 -6.049689E+00
       136  20  1.026137E+03  5.743314E+01  2.960192E-01 -1.236028E+02  2.339374E-01 -4.651247E+00
       136  21  1.023704E+03  5.922323E+01  1.587685E-01 -1.170993E+02  2.281957E-01 -3.314693E+00
       136  22  1.039952E+03  4.913698E+01  4.534488E-01 -1.268945E+02  1.663702E+00 -5.924117E+00
       136  23  1.036422E+03  5.089683E+01  3.148679E-01 -1.200902E+02  1.596083E+00 -4.536375E+00
       136  24  1.032845E+03  5.255815E+01  1.161403E-01 -1.137041E+02  1.528464E+00 -3.210531E+00
       136  25  1.051069E+03  4.260098E+01  4.168433E-01 -1.231747E+02  3.077057E+00 -5.798506E+00
       136  26  1.046402E+03  4.423913E+01  2.332988E-01 -1.164879E+02  2.947543E+00 -4.421484E+00
       136  27  1.041679E+03  4.577006E+01 -3.046850E-02 -1.102194E+02  2.818029E+00 -3.106367E+00
       137   1  1.053904E+03  4.165196E+01  5.459039E-01 -1.268550E+02 -3.146971E+00  6.630511E+00
       137   2  1.059159E+03  4.001695E+01  8.658707E-01 -1.326928E+02 -3.217716E+00  8.113762E+00
       137   3  1.064292E+03  3.810738E+01  1.049521E+00 -1.389932E+02 -3.288463E+00  9.660619E+00
       137   4  1.042097E+03  4.811447E+01  5.545227E-01 -1.306597E+02 -1.692995E+00  6.760714E+00
       137   5  1.046086E+03  4.633365E+01  8.085348E-01 -1.366774E+02 -1.700122E+00  8.249030E+00
       137   6  1.049961E+03  4.428706E+01  9.467858E-01 -1.431576E+02 -1.707249E+00  9.800942E+00
       137   7  1.029944E+03  5.443929E+01  4.492119E-01 -1.343666E+02 -2.339518E-01  6.890879E+00
       137   8  1.032667E+03  5.251345E+01  6.390044E-01 -1.405643E+02 -1.774784E-01  8.384277E+00
       137   9  1.035285E+03  5.033062E+01  7.336049E-01 -1.472244E+02 -1.210048E-01  9.941263E+00
       137  10  1.053904E+03  4.165196E+01  5.459039E-01 -1.268550E+02 -1.576263E-13  5.582599E-13
       137  11  1.059159E+03  4.001695E+01  8.658707E-01 -1.326928E+02  1.751404E-14  7.552928E-14
       137  12  1.064292E+03  3.810738E+01  1.049521E+00 -1.389932E+02  1.401123E-13 -3.502807E-14
       137  13  1.042097E+03  4.811447E+01  5.545227E-01 -1.306597E+02 -2.802246E-13 -1.228249E-15
       137  14  1.046086E+03  4.633365E+01  8.085348E-01 -1.366774E+02 -1.401123E-13 -8.757018E-15
       137  15  1.049961E+03  4.428706E+01  9.467858E-01 -1.431576E+02 -2.627105E-13 -1.713696E-15
       137  16  1.029944E+03  5.443929E+01  4.492119E-01 -1.343666E+02 -5.254211E-14 -7.027507E-13
       137  17  1.032667E+03  5.251345E+01  6.390044E-01 -1.405643E+02 -2.101684E-13 -2.101684E-13
       137  18  1.035285E+03  5.033062E+01  7.336049E-01 -1.472244E+02 -1.401123E-13  1.381967E-13
       137  19  1.053904E+03  4.165196E+01  5.459039E-01 -1.268550E+02  3.146971E+00 -6.630511E+00
       137  20  1.059159E+03  4.001695E+01  8.658707E-01 -1.326928E+02  3.217716E+00 -8.113762E+00
       137  21  1.064292E+03  3.810738E+01  1.049521E+00 -1.389932E+02  3.288463E+00 -9.660619E+00
       137  22  1.042097E+03  4.811447E+01  5.545227E-01 -1.306597E+02  1.692995E+00 -6.760714E+00
       137  23  1.046086E+03  4.633365E+01  8.085348E-01 -1.366774E+02  1.700122E+00 -8.249030E+00
       137  24  1.049961E+03  4.428706E+01  9.467858E-01 -1.431576E+02  1.707249E+00 -9.800942E+00
       137  25  1.029944E+03  5.443929E+01  4.492119E-01 -1.343666E+02  2.339518E-01 -6.890879E+00
       137  26  1.032667E+03  5.251345E+01  6.390044E-01 -1.405643E+02  1.774784E-01 -8.384277E+00
       137  27  1.035285E+03  5.033062E+01  7.336049E-01 -1.472244E+02  1.210048E-01 -9.941263E+00
       138   1  1.067457E+03  3.697221E+01  1.195116E+00 -1.424152E+02 -3.317241E+00  1.059051E+01
       138   2  1.073425E+03  3.494788E+01  1.580527E+00 -1.477165E+02 -3.308980E+00  1.223937E+01
       138   3  1.079173E+03  3.240973E+01  1.747830E+00 -1.535109E+02 -3.300718E+00  1.395206E+01
       138   4  1.052366E+03  4.305562E+01  1.059473E+00 -1.467008E+02 -1.697721E+00  1.073378E+01
       138   5  1.056972E+03  4.083556E+01  1.375343E+00 -1.522678E+02 -1.625663E+00  1.238770E+01
       138   6  1.061368E+03  3.811056E+01  1.493809E+00 -1.583279E+02 -1.553606E+00  1.410545E+01
       138   7  1.036879E+03  4.898160E+01  7.926359E-01 -1.508966E+02 -7.316669E-02  1.087705E+01
       138   8  1.040125E+03  4.656653E+01  1.040603E+00 -1.567293E+02  6.268891E-02  1.253603E+01
       138   9  1.043169E+03  4.365539E+01  1.111871E+00 -1.630551E+02  1.985400E-01  1.425884E+01
       138  10  1.067457E+03  3.697221E+01  1.195116E+00 -1.424152E+02 -2.451965E-13 -1.444908E-13
       138  11  1.073425E+03  3.494788E+01  1.580527E+00 -1.477165E+02  7.005614E-14  1.379230E-13
       138  12  1.079173E+03  3.240973E+01  1.747830E+00 -1.535109E+02  1.488693E-13 -2.772143E-13
       138  13  1.052366E+03  4.305562E+01  1.059473E+00 -1.467008E+02 -2.101684E-13 -3.502807E-14
       138  14  1.056972E+03  4.083556E+01  1.375343E+00 -1.522678E+02  1.401123E-13 -7.443465E-14
       138  15  1.061368E+03  3.811056E+01  1.493809E+00 -1.583279E+02  2.101684E-13 -6.567763E-15
       138  16  1.036879E+03  4.898160E+01  7.926359E-01 -1.508966E+02 -3.502807E-13  2.802246E-13
       138  17  1.040125E+03  4.656653E+01  1.040603E+00 -1.567293E+02  1.751404E-14  1.379230E-13
       138  18  1.043169E+03  4.365539E+01  1.111871E+00 -1.630551E+02  3.459022E-13  3.300301E-13
       138  19  1.067457E+03  3.697221E+01  1.195116E+00 -1.424152E+02  3.317241E+00 -1.059051E+01
       138  20  1.073425E+03  3.494788E+01  1.580527E+00 -1.477165E+02  3.308980E+00 -1.223937E+01
       138  21  1.079173E+03  3.240973E+01  1.747830E+00 -1.535109E+02  3.300718E+00 -1.395206E+01
       138  22  1.052366E+03  4.305562E+01  1.059473E+00 -1.467008E+02  1.697721E+00 -1.073378E+01
       138  23  1.056972E+03  4.083556E+01  1.375343E+00 -1.522678E+02  1.625663E+00 -1.238770E+01
       138  24  1.061368E+03  3.811056E+01  1.493809E+00 -1.583279E+02  1.553606E+00 -1.410545E+01
       138  25  1.036879E+03  4.898160E+01  7.926359E-01 -1.508966E+02  7.316669E-02 -1.087705E+01
       138  26  1.040125E+03  4.656653E+01  1.040603E+00 -1.567293E+02 -6.268891E-02 -1.253603E+01
       138  27  1.043169E+03  4.365539E+01  1.111871E+00 -1.630551E+02 -1.985400E-01 -1.425884E+01
       139   1  1.027863E+03  5.270317E+01  7.308113E-01 -1.523559E+02  8.726650E-01  1.087980E+01
       139   2  1.030306E+03  5.020217E+01  9.444919E-01 -1.583064E+02  1.046586E+00  1.253308E+01
       139   3  1.032538E+03  4.717575E+01  9.789705E-01 -1.647773E+02  1.220502E+00  1.425341E+01
       139   4  1.012384E+03  5.918534E+01  6.397111E-01 -1.532090E+02  2.482871E+00  1.078669E+01
       139   5  1.013435E+03  5.659994E+01  8.061518E-01 -1.593298E+02  2.723807E+00  1.242083E+01
       139   6  1.014284E+03  5.349846E+01  8.151475E-01 -1.659710E+02  2.964736E+00  1.412202E+01
       139   7  9.968445E+02  6.563388E+01  4.980698E-01 -1.539285E+02  4.073971E+00  1.069357E+01
       139   8  9.965008E+02  6.296142E+01  6.110729E-01 -1.602197E+02  4.381923E+00  1.230859E+01
       139   9  9.959645E+02  5.978223E+01  5.883877E-01 -1.670312E+02  4.689866E+00  1.399064E+01
       139  10  1.027863E+03  5.270317E+01  7.308113E-01 -1.523559E+02 -1.576263E-13 -2.824138E-13
       139  11  1.030306E+03  5.020217E+01  9.444919E-01 -1.583064E+02  1.225982E-13 -6.786689E-14
       139  12  1.032538E+03  4.717575E+01  9.789705E-01 -1.647773E+02  6.042342E-13  1.921071E-13
       139  13  1.012384E+03  5.918534E+01  6.397111E-01 -1.532090E+02  7.005614E-14  3.064956E-14
       139  14  1.013435E+03  5.659994E+01  8.061518E-01 -1.593298E+02  0.000000E+00  6.786689E-14
       139  15  1.014284E+03  5.349846E+01  8.151475E-01 -1.659710E+02  7.005614E-13  4.269046E-14
       139  16  9.968445E+02  6.563388E+01  4.980698E-01 -1.539285E+02  2.627105E-13  4.181476E-13
       139  17  9.965008E+02  6.296142E+01  6.110729E-01 -1.602197E+02  2.451965E-13  3.502807E-13
       139  18  9.959645E+02  5.978223E+01  5.883877E-01 -1.670312E+02  3.415237E-13  1.231456E-13
       139  19  1.027863E+03  5.270317E+01  7.308113E-01 -1.523559E+02 -8.726650E-01 -1.087980E+01
       139  20  1.030306E+03  5.020217E+01  9.444919E-01 -1.583064E+02 -1.046586E+00 -1.253308E+01
       139  21  1.032538E+03  4.717575E+01  9.789705E-01 -1.647773E+02 -1.220502E+00 -1.425341E+01
       139  22  1.012384E+03  5.918534E+01  6.397111E-01 -1.532090E+02 -2.482871E+00 -1.078669E+01
       139  23  1.013435E+03  5.659994E+01  8.061518E-01 -1.593298E+02 -2.723807E+00 -1.242083E+01
       139  24  1.014284E+03  5.349846E+01  8.151475E-01 -1.659710E+02 -2.964736E+00 -1.412202E+01
       139  25  9.968445E+02  6.563388E+01  4.980698E-01 -1.539285E+02 -4.073971E+00 -1.069357E+01
       139  26  9.965008E+02  6.296142E+01  6.110729E-01 -1.602197E+02 -4.381923E+00 -1.230859E+01
       139  27  9.959645E+02  5.978223E+01  5.883877E-01 -1.670312E+02 -4.689866E+00 -1.399064E+01
       140   1  1.022858E+03  5.833994E+01  4.620659E-01 -1.356284E+02  6.174193E-01  6.906447E+00
       140   2  1.024833E+03  5.632927E+01  6.109193E-01 -1.418888E+02  7.099760E-01  8.397292E+00
       140   3  1.026714E+03  5.408557E+01  6.843841E-01 -1.486273E+02  8.025327E-01  9.948548E+00
       140   4  1.010664E+03  6.496890E+01  4.497084E-01 -1.362877E+02  2.068528E+00  6.862579E+00
       140   5  1.011362E+03  6.289413E+01  5.532367E-01 -1.426123E+02  2.221496E+00  8.334357E+00
       140   6  1.011977E+03  6.059471E+01  6.009558E-01 -1.494149E+02  2.374464E+00  9.866546E+00
       140   7  9.984836E+02  7.160033E+01  4.319704E-01 -1.368192E+02  3.500596E+00  6.818713E+00
       140   8  9.979038E+02  6.945878E+01  4.839963E-01 -1.432080E+02  3.713975E+00  8.271425E+00
       140   9  9.972483E+02  6.710098E+01  4.997923E-01 -1.500748E+02  3.927354E+00  9.784547E+00
       140  10  1.022858E+03  5.833994E+01  4.620659E-01 -1.356284E+02 -2.276825E-13  6.983721E-13
       140  11  1.024833E+03  5.632927E+01  6.109193E-01 -1.418888E+02 -1.050842E-13  1.280714E-13
       140  12  1.026714E+03  5.408557E+01  6.843841E-01 -1.486273E+02 -2.276825E-13 -2.118104E-13
       140  13  1.010664E+03  6.496890E+01  4.497084E-01 -1.362877E+02 -2.802246E-13 -8.757018E-15
       140  14  1.011362E+03  6.289413E+01  5.532367E-01 -1.426123E+02 -3.502807E-13 -2.189254E-15
       140  15  1.011977E+03  6.059471E+01  6.009558E-01 -1.494149E+02 -7.531035E-13  2.408180E-14
       140  16  9.984836E+02  7.160033E+01  4.319704E-01 -1.368192E+02  2.276825E-13 -5.626384E-13
       140  17  9.979038E+02  6.945878E+01  4.839963E-01 -1.432080E+02 -3.152526E-13 -1.521532E-13
       140  18  9.972483E+02  6.710098E+01  4.997923E-01 -1.500748E+02 -2.627105E-14  4.359353E-13
       140  19  1.022858E+03  5.833994E+01  4.620659E-01 -1.356284E+02 -6.174193E-01 -6.906447E+00
       140  20  1.024833E+03  5.632927E+01  6.109193E-01 -1.418888E+02 -7.099760E-01 -8.397292E+00
       140  21  1.026714E+03  5.408557E+01  6.843841E-01 -1.486273E+02 -8.025327E-01 -9.948548E+00
       140  22  1.010664E+03  6.496890E+01  4.497084E-01 -1.362877E+02 -2.068528E+00 -6.862579E+00
       140  23  1.011362E+03  6.289413E+01  5.532367E-01 -1.426123E+02 -2.221496E+00 -8.334357E+00
       140  24  1.011977E+03  6.059471E+01  6.009558E-01 -1.494149E+02 -2.374464E+00 -9.866546E+00
       140  25  9.984836E+02  7.160033E+01  4.319704E-01 -1.368192E+02 -3.500596E+00 -6.818713E+00
       140  26  9.979038E+02  6.945878E+01  4.839963E-01 -1.432080E+02 -3.713975E+00 -8.271425E+00
       140  27  9.972483E+02  6.710098E+01  4.997923E-01 -1.500748E+02 -3.927354E+00 -9.784547E+00
       141   1  1.050718E+03  1.712247E+01 -2.932022E+00 -5.603288E+01 -7.105661E+00 -1.092152E+00
       141   2  1.047981E+03  2.333939E+01 -2.137330E+00 -6.358581E+01 -6.321384E+00 -9.776862E-01
       141   3  1.043971E+03  2.901984E+01 -1.857742E+00 -7.111725E+01 -5.456116E+00 -8.632241E-01
       141   4  1.043087E+03  1.796395E+01 -3.325098E+00 -5.027447E+01 -6.551383E+00 -1.792988E+00
       141   5  1.040995E+03  2.433773E+01 -2.468224E+00 -5.737839E+01 -5.853006E+00 -1.759500E+00
       141   6  1.037619E+03  3.016380E+01 -2.152698E+00 -6.446083E+01 -5.073639E+00 -1.726013E+00
       141   7  1.035257E+03  1.844494E+01 -4.019302E+00 -4.473899E+01 -5.997104E+00 -2.407923E+00
       141   8  1.033822E+03  2.498752E+01 -3.072406E+00 -5.139389E+01 -5.384628E+00 -2.455414E+00
       141   9  1.031092E+03  3.097114E+01 -2.693104E+00 -5.802733E+01 -4.691162E+00 -2.502903E+00
       141  10  1.050718E+03  1.712247E+01 -2.932022E+00 -5.603288E+01  3.502807E-13 -1.970329E-13
       141  11  1.047981E+03  2.333939E+01 -2.137330E+00 -6.358581E+01  2.802246E-13 -1.751404E-14
       141  12  1.043971E+03  2.901984E+01 -1.857742E+00 -7.111725E+01  1.751404E-13 -6.294106E-14
       141  13  1.043087E+03  1.796395E+01 -3.325098E+00 -5.027447E+01 -7.005614E-14 -5.692061E-13
       141  14  1.040995E+03  2.433773E+01 -2.468224E+00 -5.737839E+01  2.101684E-13  0.000000E+00
       141  15  1.037619E+03  3.016380E+01 -2.152698E+00 -6.446083E+01  1.926544E-13  1.379230E-13
       141  16  1.035257E+03  1.844494E+01 -4.019302E+00 -4.473899E+01  0.000000E+00 -6.392623E-13
       141  17  1.033822E+03  2.498752E+01 -3.072406E+00 -5.139389E+01  3.502807E-13 -3.940658E-14
       141  18  1.031092E+03  3.097114E+01 -2.693104E+00 -5.802733E+01 -2.627105E-14  4.340197E-13
       141  19  1.050718E+03  1.712247E+01 -2.932022E+00 -5.603288E+01  7.105661E+00  1.092152E+00
       141  20  1.047981E+03  2.333939E+01 -2.137330E+00 -6.358581E+01  6.321384E+00  9.776862E-01
       141  21  1.043971E+03  2.901984E+01 -1.857742E+00 -7.111725E+01  5.456116E+00  8.632241E-01
       141  22  1.043087E+03  1.796395E+01 -3.325098E+00 -5.027447E+01  6.551383E+00  1.792988E+00
       141  23  1.040995E+03  2.433773E+01 -2.468224E+00 -5.737839E+01  5.853006E+00  1.759500E+00
       141  24  1.037619E+03  3.016380E+01 -2.152698E+00 -6.446083E+01  5.073639E+00  1.726013E+00
       141  25  1.035257E+03  1.844494E+01 -4.019302E+00 -4.473899E+01  5.997104E+00  2.407923E+00
       141  26  1.033822E+03  2.498752E+01 -3.072406E+00 -5.139389E+01  5.384628E+00  2.455414E+00
       141  27  1.031092E+03  3.097114E+01 -2.693104E+00 -5.802733E+01  4.691162E+00  2.502903E+00
       142   1  1.041417E+03  3.293449E+01 -1.566632E+00 -7.495547E+01 -4.919323E+00 -8.126906E-01
       142   2  1.036643E+03  3.985860E+01 -1.107017E+00 -8.046026E+01 -3.953897E+00 -7.275622E-01
       142   3  1.031271E+03  4.653333E+01 -8.810092E-01 -8.593171E+01 -2.929155E+00 -6.424339E-01
       142   4  1.035457E+03  3.412265E+01 -1.854314E+00 -6.809604E+01 -4.583465E+00 -1.711307E+00
       142   5  1.031466E+03  4.121349E+01 -1.333155E+00 -7.336387E+01 -3.692344E+00 -1.685494E+00
       142   6  1.026870E+03  4.804672E+01 -1.064825E+00 -7.859836E+01 -2.741906E+00 -1.659682E+00
       142   7  1.029356E+03  3.504426E+01 -2.345079E+00 -6.151153E+01 -4.247607E+00 -2.535618E+00
       142   8  1.026159E+03  4.231216E+01 -1.738296E+00 -6.654242E+01 -3.430790E+00 -2.569121E+00
       142   9  1.022348E+03  4.931422E+01 -1.403564E+00 -7.153994E+01 -2.554658E+00 -2.602624E+00
       142  10  1.041417E+03  3.293449E+01 -1.566632E+00 -7.495547E+01  7.005614E-14 -1.225982E-13
       142  11  1.036643E+03  3.985860E+01 -1.107017E+00 -8.046026E+01  5.254211E-13 -3.283882E-14
       142  12  1.031271E+03  4.653333E+01 -8.810092E-01 -8.593171E+01  5.341781E-13 -2.380814E-13
       142  13  1.035457E+03  3.412265E+01 -1.854314E+00 -6.809604E+01  5.254211E-14 -4.115798E-13
       142  14  1.031466E+03  4.121349E+01 -1.333155E+00 -7.336387E+01  6.305053E-13  4.816360E-14
       142  15  1.026870E+03  4.804672E+01 -1.064825E+00 -7.859836E+01 -7.005614E-14  3.502807E-13
       142  16  1.029356E+03  3.504426E+01 -2.345079E+00 -6.151153E+01  1.401123E-13 -4.028228E-13
       142  17  1.026159E+03  4.231216E+01 -1.738296E+00 -6.654242E+01  7.005614E-14 -6.567763E-15
       142  18  1.022348E+03  4.931422E+01 -1.403564E+00 -7.153994E+01 -1.663833E-13  6.031396E-13
       142  19  1.041417E+03  3.293449E+01 -1.566632E+00 -7.495547E+01  4.919323E+00  8.126906E-01
       142  20  1.036643E+03  3.985860E+01 -1.107017E+00 -8.046026E+01  3.953897E+00  7.275622E-01
       142  21  1.031271E+03  4.653333E+01 -8.810092E-01 -8.593171E+01  2.929155E+00  6.424339E-01
       142  22  1.035457E+03  3.412265E+01 -1.854314E+00 -6.809604E+01  4.583465E+00  1.711307E+00
       142  23  1.031466E+03  4.121349E+01 -1.333155E+00 -7.336387E+01  3.692344E+00  1.685494E+00
       142  24  1.026870E+03  4.804672E+01 -1.064825E+00 -7.859836E+01  2.741906E+00  1.659682E+00
       142  25  1.029356E+03  3.504426E+01 -2.345079E+00 -6.151153E+01  4.247607E+00  2.535618E+00
       142  26  1.026159E+03  4.231216E+01 -1.738296E+00 -6.654242E+01  3.430790E+00  2.569121E+00
       142  27  1.022348E+03  4.931422E+01 -1.403564E+00 -7.153994E+01  2.554658E+00  2.602624E+00
       143   1  1.026066E+03  3.558094E+01 -2.590328E+00 -5.745616E+01 -4.045222E+00 -2.976916E+00
       143   2  1.023183E+03  4.291432E+01 -1.980605E+00 -6.233869E+01 -3.280289E+00 -3.048727E+00
       143   3  1.019832E+03  5.004186E+01 -1.590030E+00 -6.721551E+01 -2.443029E+00 -3.120539E+00
       143   4  1.021036E+03  3.635773E+01 -2.931651E+00 -5.024937E+01 -3.718210E+00 -3.666594E+00
       143   5  1.018778E+03  4.388511E+01 -2.250936E+00 -5.481801E+01 -3.031485E+00 -3.810735E+00
       143   6  1.016043E+03  5.119659E+01 -1.812814E+00 -5.938094E+01 -2.272430E+00 -3.954877E+00
       143   7  1.015686E+03  3.644735E+01 -3.654059E+00 -4.325230E+01 -3.391188E+00 -4.278051E+00
       143   8  1.014064E+03  4.417961E+01 -2.876993E+00 -4.750703E+01 -2.782672E+00 -4.494523E+00
       143   9  1.011955E+03  5.168592E+01 -2.365962E+00 -5.175606E+01 -2.101826E+00 -4.710995E+00
       143  10  1.026066E+03  3.558094E+01 -2.590328E+00 -5.745616E+01  1.401123E-13 -4.553649E-13
       143  11  1.023183E+03  4.291432E+01 -1.980605E+00 -6.233869E+01  1.050842E-13  4.378509E-15
       143  12  1.019832E+03  5.004186E+01 -1.590030E+00 -6.721551E+01  3.152526E-13  4.717843E-13
       143  13  1.021036E+03  3.635773E+01 -2.931651E+00 -5.024937E+01 -2.451965E-13 -2.889816E-13
       143  14  1.018778E+03  4.388511E+01 -2.250936E+00 -5.481801E+01 -3.502807E-13 -8.757018E-15
       143  15  1.016043E+03  5.119659E+01 -1.812814E+00 -5.938094E+01  1.050842E-13  5.473136E-15
       143  16  1.015686E+03  3.644735E+01 -3.654059E+00 -4.325230E+01 -2.802246E-13  4.247154E-13
       143  17  1.014064E+03  4.417961E+01 -2.876993E+00 -4.750703E+01 -2.451965E-13 -3.502807E-14
       143  18  1.011955E+03  5.168592E+01 -2.365962E+00 -5.175606E+01 -1.488693E-13 -1.444908E-13
       143  19  1.026066E+03  3.558094E+01 -2.590328E+00 -5.745616E+01  4.045222E+00  2.976916E+00
       143  20  1.023183E+03  4.291432E+01 -1.980605E+00 -6.233869E+01  3.280289E+00  3.048727E+00
       143  21  1.019832E+03  5.004186E+01 -1.590030E+00 -6.721551E+01  2.443029E+00  3.120539E+00
       143  22  1.021036E+03  3.635773E+01 -2.931651E+00 -5.024937E+01  3.718210E+00  3.666594E+00
       143  23  1.018778E+03  4.388511E+01 -2.250936E+00 -5.481801E+01  3.031485E+00  3.810735E+00
       143  24  1.016043E+03  5.119659E+01 -1.812814E+00 -5.938094E+01  2.272430E+00  3.954877E+00
       143  25  1.015686E+03  3.644735E+01 -3.654059E+00 -4.325230E+01  3.391188E+00  4.278051E+00
       143  26  1.014064E+03  4.417961E+01 -2.876993E+00 -4.750703E+01  2.782672E+00  4.494523E+00
       143  27  1.011955E+03  5.168592E+01 -2.365962E+00 -5.175606E+01  2.101826E+00  4.710995E+00
       144   1  1.031213E+03  1.882034E+01 -4.303194E+00 -4.128626E+01 -5.659864E+00 -2.723185E+00
       144   2  1.029911E+03  2.536165E+01 -3.398829E+00 -4.769170E+01 -5.104096E+00 -2.820285E+00
       144   3  1.027576E+03  3.145253E+01 -2.962714E+00 -5.408095E+01 -4.458814E+00 -2.917383E+00
       144   4  1.025071E+03  1.938960E+01 -4.679002E+00 -3.529071E+01 -5.107357E+00 -3.189961E+00
       144   5  1.024191E+03  2.602573E+01 -3.742508E+00 -4.121162E+01 -4.640083E+00 -3.376569E+00
       144   6  1.022267E+03  3.219898E+01 -3.303280E+00 -4.711635E+01 -4.083294E+00 -3.563170E+00
       144   7  1.018562E+03  1.920485E+01 -5.524220E+00 -2.944297E+01 -4.554832E+00 -3.568232E+00
       144   8  1.018117E+03  2.594810E+01 -4.526903E+00 -3.487935E+01 -4.176055E+00 -3.844348E+00
       144   9  1.016615E+03  3.221604E+01 -4.055868E+00 -4.029955E+01 -3.707762E+00 -4.120455E+00
       144  10  1.031213E+03  1.882034E+01 -4.303194E+00 -4.128626E+01 -1.401123E-13 -5.954772E-13
       144  11  1.029911E+03  2.536165E+01 -3.398829E+00 -4.769170E+01 -2.101684E-13 -9.632719E-14
       144  12  1.027576E+03  3.145253E+01 -2.962714E+00 -5.408095E+01  2.627105E-14  4.383982E-13
       144  13  1.025071E+03  1.938960E+01 -4.679002E+00 -3.529071E+01  1.401123E-13 -9.194868E-13
       144  14  1.024191E+03  2.602573E+01 -3.742508E+00 -4.121162E+01  7.005614E-14 -1.926544E-13
       144  15  1.022267E+03  3.219898E+01 -3.303280E+00 -4.711635E+01 -1.751404E-14  4.892984E-13
       144  16  1.018562E+03  1.920485E+01 -5.524220E+00 -2.944297E+01  6.305053E-13 -4.641219E-13
       144  17  1.018117E+03  2.594810E+01 -4.526903E+00 -3.487935E+01  3.502807E-13 -1.138412E-13
       144  18  1.016615E+03  3.221604E+01 -4.055868E+00 -4.029955E+01 -2.627105E-13  4.011809E-13
       144  19  1.031213E+03  1.882034E+01 -4.303194E+00 -4.128626E+01  5.659864E+00  2.723185E+00
       144  20  1.029911E+03  2.536165E+01 -3.398829E+00 -4.769170E+01  5.104096E+00  2.820285E+00
       144  21  1.027576E+03  3.145253E+01 -2.962714E+00 -5.408095E+01  4.458814E+00  2.917383E+00
       144  22  1.025071E+03  1.938960E+01 -4.679002E+00 -3.529071E+01  5.107357E+00  3.189961E+00
       144  23  1.024191E+03  2.602573E+01 -3.742508E+00 -4.121162E+01  4.640083E+00  3.376569E+00
       144  24  1.022267E+03  3.219898E+01 -3.303280E+00 -4.711635E+01  4.083294E+00  3.563170E+00
       144  25  1.018562E+03  1.920485E+01 -5.524220E+00 -2.944297E+01  4.554832E+00  3.568232E+00
       144  26  1.018117E+03  2.594810E+01 -4.526903E+00 -3.487935E+01  4.176055E+00  3.844348E+00
       144  27  1.016615E+03  3.221604E+01 -4.055868E+00 -4.029955E+01  3.707762E+00  4.120455E+00
       145   1  1.082774E+03  3.086558E+01  1.903037E+00 -1.565813E+02 -3.281733E+00  1.497637E+01
       145   2  1.089681E+03  2.805821E+01  2.353399E+00 -1.611413E+02 -3.193089E+00  1.678185E+01
       145   3  1.096247E+03  2.443987E+01  2.479651E+00 -1.662035E+02 -3.104444E+00  1.864828E+01
       145   4  1.064171E+03  3.643164E+01  1.616376E+00 -1.615679E+02 -1.500604E+00  1.513477E+01
       145   5  1.069663E+03  3.333759E+01  1.992675E+00 -1.665080E+02 -1.351017E+00  1.695241E+01
       145   6  1.074824E+03  2.944101E+01  2.064607E+00 -1.719503E+02 -1.201431E+00  1.883100E+01
       145   7  1.045083E+03  4.180307E+01  1.164080E+00 -1.664932E+02  2.926528E-01  1.529317E+01
       145   8  1.049163E+03  3.842403E+01  1.470249E+00 -1.718134E+02  5.031814E-01  1.712298E+01
       145   9  1.052920E+03  3.425091E+01  1.491794E+00 -1.776358E+02  7.137100E-01  1.901372E+01
       145  10  1.082774E+03  3.086558E+01  1.903037E+00 -1.565813E+02  1.225982E-13  0.000000E+00
       145  11  1.089681E+03  2.805821E+01  2.353399E+00 -1.611413E+02 -3.502807E-14  7.005614E-14
       145  12  1.096247E+03  2.443987E+01  2.479651E+00 -1.662035E+02  8.319167E-14  4.720580E-13
       145  13  1.064171E+03  3.643164E+01  1.616376E+00 -1.615679E+02  2.802246E-13  3.502807E-14
       145  14  1.069663E+03  3.333759E+01  1.992675E+00 -1.665080E+02  0.000000E+00  4.378509E-15
       145  15  1.074824E+03  2.944101E+01  2.064607E+00 -1.719503E+02  0.000000E+00  3.940658E-14
       145  16  1.045083E+03  4.180307E+01  1.164080E+00 -1.664932E+02  4.553649E-13 -2.189254E-15
       145  17  1.049163E+03  3.842403E+01  1.470249E+00 -1.718134E+02 -3.502807E-14 -7.224539E-14
       145  18  1.052920E+03  3.425091E+01  1.491794E+00 -1.776358E+02  1.751404E-13 -2.930864E-13
       145  19  1.082774E+03  3.086558E+01  1.903037E+00 -1.565813E+02  3.281733E+00 -1.497637E+01
       145  20  1.089681E+03  2.805821E+01  2.353399E+00 -1.611413E+02  3.193089E+00 -1.678185E+01
       145  21  1.096247E+03  2.443987E+01  2.479651E+00 -1.662035E+02  3.104444E+00 -1.864828E+01
       145  22  1.064171E+03  3.643164E+01  1.616376E+00 -1.615679E+02  1.500604E+00 -1.513477E+01
       145  23  1.069663E+03  3.333759E+01  1.992675E+00 -1.665080E+02  1.351017E+00 -1.695241E+01
       145  24  1.074824E+03  2.944101E+01  2.064607E+00 -1.719503E+02  1.201431E+00 -1.883100E+01
       145  25  1.045083E+03  4.180307E+01  1.164080E+00 -1.664932E+02 -2.926528E-01 -1.529317E+01
       145  26  1.049163E+03  3.842403E+01  1.470249E+00 -1.718134E+02 -5.031814E-01 -1.712298E+01
       145  27  1.052920E+03  3.425091E+01  1.491794E+00 -1.776358E+02 -7.137100E-01 -1.901372E+01
       146   1  1.100418E+03  2.221398E+01  2.631907E+00 -1.687612E+02 -3.043702E+00  1.975786E+01
       146   2  1.108554E+03  1.815835E+01  3.140793E+00 -1.722522E+02 -2.899339E+00  2.169928E+01
       146   3  1.116207E+03  1.294723E+01  3.192779E+00 -1.762245E+02 -2.754972E+00  2.369357E+01
       146   4  1.078210E+03  2.702367E+01  2.192519E+00 -1.747428E+02 -1.114378E+00  1.995247E+01
       146   5  1.084942E+03  2.253953E+01  2.622316E+00 -1.787662E+02 -9.171070E-01  2.192261E+01
       146   6  1.091198E+03  1.690721E+01  2.612317E+00 -1.832709E+02 -7.198289E-01  2.394562E+01
       146   7  1.055342E+03  3.156642E+01  1.521870E+00 -1.807181E+02  8.436334E-01  2.014709E+01
       146   8  1.060674E+03  2.665776E+01  1.881872E+00 -1.852739E+02  1.093814E+00  2.214595E+01
       146   9  1.065536E+03  2.060822E+01  1.819180E+00 -1.903111E+02  1.344003E+00  2.419769E+01
       146  10  1.100418E+03  2.221398E+01  2.631907E+00 -1.687612E+02  3.853088E-13 -4.378509E-15
       146  11  1.108554E+03  1.815835E+01  3.140793E+00 -1.722522E+02 -1.751404E-14 -2.791299E-13
       146  12  1.116207E+03  1.294723E+01  3.192779E+00 -1.762245E+02 -3.152526E-13  1.094627E-14
       146  13  1.078210E+03  2.702367E+01  2.192519E+00 -1.747428E+02  7.005614E-14 -2.627105E-14
       146  14  1.084942E+03  2.253953E+01  2.622316E+00 -1.787662E+02 -2.802246E-13 -1.269768E-13
       146  15  1.091198E+03  1.690721E+01  2.612317E+00 -1.832709E+02  1.050842E-13 -4.159583E-14
       146  16  1.055342E+03  3.156642E+01  1.521870E+00 -1.807181E+02 -8.757018E-14 -2.780353E-13
       146  17  1.060674E+03  2.665776E+01  1.881872E+00 -1.852739E+02 -1.050842E-13 -1.390177E-13
       146  18  1.065536E+03  2.060822E+01  1.819180E+00 -1.903111E+02 -1.094627E-13 -1.724038E-13
       146  19  1.100418E+03  2.221398E+01  2.631907E+00 -1.687612E+02  3.043702E+00 -1.975786E+01
       146  20  1.108554E+03  1.815835E+01  3.140793E+00 -1.722522E+02  2.899339E+00 -2.169928E+01
       146  21  1.116207E+03  1.294723E+01  3.192779E+00 -1.762245E+02  2.754972E+00 -2.369357E+01
       146  22  1.078210E+03  2.702367E+01  2.192519E+00 -1.747428E+02  1.114378E+00 -1.995247E+01
       146  23  1.084942E+03  2.253953E+01  2.622316E+00 -1.787662E+02  9.171070E-01 -2.192261E+01
       146  24  1.091198E+03  1.690721E+01  2.612317E+00 -1.832709E+02  7.198289E-01 -2.394562E+01
       146  25  1.055342E+03  3.156642E+01  1.521870E+00 -1.807181E+02 -8.436334E-01 -2.014709E+01
       146  26  1.060674E+03  2.665776E+01  1.881872E+00 -1.852739E+02 -1.093814E+00 -2.214595E+01
       146  27  1.065536E+03  2.060822E+01  1.819180E+00 -1.903111E+02 -1.344003E+00 -2.419769E+01
       147   1  1.042040E+03  3.465357E+01  1.282921E+00 -1.831179E+02  1.988756E+00  2.013821E+01
       147   2  1.046526E+03  2.960756E+01  1.628503E+00 -1.879541E+02  2.276808E+00  2.213659E+01
       147   3  1.050468E+03  2.323688E+01  1.482631E+00 -1.933648E+02  2.564869E+00  2.421217E+01
       147   4  1.019253E+03  4.062769E+01  1.067380E+00 -1.853086E+02  3.952028E+00  1.997358E+01
       147   5  1.022158E+03  3.535386E+01  1.352241E+00 -1.906665E+02  4.317315E+00  2.197905E+01
       147   6  1.024530E+03  2.876608E+01  1.170649E+00 -1.965988E+02  4.682614E+00  2.406172E+01
       147   7  9.959816E+02  4.638068E+01  6.006134E-01 -1.873976E+02  5.922423E+00  1.980895E+01
       147   8  9.973069E+02  4.088001E+01  8.270534E-01 -1.932771E+02  6.364945E+00  2.182151E+01
       147   9  9.981089E+02  3.407610E+01  6.120401E-01 -1.997311E+02  6.807482E+00  2.391126E+01
       147  10  1.042040E+03  3.465357E+01  1.282921E+00 -1.831179E+02 -1.401123E-13  4.203368E-13
       147  11  1.046526E+03  2.960756E+01  1.628503E+00 -1.879541E+02 -1.751404E-14  1.094627E-14
       147  12  1.050468E+03  2.323688E+01  1.482631E+00 -1.933648E+02  9.194868E-14 -2.969176E-13
       147  13  1.019253E+03  4.062769E+01  1.067380E+00 -1.853086E+02 -7.005614E-14 -4.378509E-15
       147  14  1.022158E+03  3.535386E+01  1.352241E+00 -1.906665E+02  0.000000E+00 -4.378509E-15
       147  15  1.024530E+03  2.876608E+01  1.170649E+00 -1.965988E+02 -7.005614E-14 -1.587209E-14
       147  16  9.959816E+02  4.638068E+01  6.006134E-01 -1.873976E+02 -2.451965E-13 -1.444908E-13
       147  17  9.973069E+02  4.088001E+01  8.270534E-01 -1.932771E+02 -7.005614E-14  8.100241E-14
       147  18  9.981089E+02  3.407610E+01  6.120401E-01 -1.997311E+02 -5.254211E-14  2.761197E-13
       147  19  1.042040E+03  3.465357E+01  1.282921E+00 -1.831179E+02 -1.988756E+00 -2.013821E+01
       147  20  1.046526E+03  2.960756E+01  1.628503E+00 -1.879541E+02 -2.276808E+00 -2.213659E+01
       147  21  1.050468E+03  2.323688E+01  1.482631E+00 -1.933648E+02 -2.564869E+00 -2.421217E+01
       147  22  1.019253E+03  4.062769E+01  1.067380E+00 -1.853086E+02 -3.952028E+00 -1.997358E+01
       147  23  1.022158E+03  3.535386E+01  1.352241E+00 -1.906665E+02 -4.317315E+00 -2.197905E+01
       147  24  1.024530E+03  2.876608E+01  1.170649E+00 -1.965988E+02 -4.682614E+00 -2.406172E+01
       147  25  9.959816E+02  4.638068E+01  6.006134E-01 -1.873976E+02 -5.922423E+00 -1.980895E+01
       147  26  9.973069E+02  4.088001E+01  8.270534E-01 -1.932771E+02 -6.364945E+00 -2.182151E+01
       147  27  9.981089E+02  3.407610E+01  6.120401E-01 -1.997311E+02 -6.807482E+00 -2.391126E+01
       148   1  1.033980E+03  4.527362E+01  1.019507E+00 -1.683121E+02  1.337510E+00  1.528379E+01
       148   2  1.037222E+03  4.179054E+01  1.299214E+00 -1.738211E+02  1.586989E+00  1.710814E+01
       148   3  1.040102E+03  3.741648E+01  1.263072E+00 -1.798841E+02  1.836469E+00  1.900541E+01
       148   4  1.014951E+03  5.156174E+01  8.597327E-01 -1.696389E+02  3.119650E+00  1.514348E+01
       148   5  1.016697E+03  4.794268E+01  1.087408E+00 -1.754664E+02  3.442044E+00  1.695632E+01
       148   6  1.018090E+03  4.344277E+01  1.022870E+00 -1.818480E+02  3.764438E+00  1.884206E+01
       148   7  9.957128E+02  5.774857E+01  5.730501E-01 -1.708393E+02  4.890302E+00  1.500318E+01
       148   8  9.959596E+02  5.399191E+01  7.449639E-01 -1.769854E+02  5.285609E+00  1.680450E+01
       148   9  9.958647E+02  4.936456E+01  6.483003E-01 -1.836854E+02  5.680917E+00  1.867872E+01
       148  10  1.033980E+03  4.527362E+01  1.019507E+00 -1.683121E+02 -1.926544E-13  2.824138E-13
       148  11  1.037222E+03  4.179054E+01  1.299214E+00 -1.738211E+02 -3.502807E-14  4.159583E-13
       148  12  1.040102E+03  3.741648E+01  1.263072E+00 -1.798841E+02  7.443465E-14  2.640788E-13
       148  13  1.014951E+03  5.156174E+01  8.597327E-01 -1.696389E+02  0.000000E+00  4.378509E-15
       148  14  1.016697E+03  4.794268E+01  1.087408E+00 -1.754664E+02  7.005614E-14  8.100241E-14
       148  15  1.018090E+03  4.344277E+01  1.022870E+00 -1.818480E+02  7.005614E-14 -7.115077E-15
       148  16  9.957128E+02  5.774857E+01  5.730501E-01 -1.708393E+02  8.757018E-14 -1.357338E-13
       148  17  9.959596E+02  5.399191E+01  7.449639E-01 -1.769854E+02  1.225982E-13 -1.477747E-13
       148  18  9.958647E+02  4.936456E+01  6.483003E-01 -1.836854E+02 -3.677947E-13 -2.441019E-13
       148  19  1.033980E+03  4.527362E+01  1.019507E+00 -1.683121E+02 -1.337510E+00 -1.528379E+01
       148  20  1.037222E+03  4.179054E+01  1.299214E+00 -1.738211E+02 -1.586989E+00 -1.710814E+01
       148  21  1.040102E+03  3.741648E+01  1.263072E+00 -1.798841E+02 -1.836469E+00 -1.900541E+01
       148  22  1.014951E+03  5.156174E+01  8.597327E-01 -1.696389E+02 -3.119650E+00 -1.514348E+01
       148  23  1.016697E+03  4.794268E+01  1.087408E+00 -1.754664E+02 -3.442044E+00 -1.695632E+01
       148  24  1.018090E+03  4.344277E+01  1.022870E+00 -1.818480E+02 -3.764438E+00 -1.884206E+01
       148  25  9.957128E+02  5.774857E+01  5.730501E-01 -1.708393E+02 -4.890302E+00 -1.500318E+01
       148  26  9.959596E+02  5.399191E+01  7.449639E-01 -1.769854E+02 -5.285609E+00 -1.680450E+01
       148  27  9.958647E+02  4.936456E+01  6.483003E-01 -1.836854E+02 -5.680917E+00 -1.867872E+01
       149   1  9.840618E+02  1.726720E+02  7.934660E+00 -2.907210E+01  1.040812E+01 -2.485548E+00
       149   2  9.774039E+02  1.642432E+02  5.989956E+00 -3.273748E+01  1.103680E+01 -2.041689E+00
       149   3  9.716625E+02  1.578361E+02  5.078124E+00 -3.647211E+01  1.166545E+01 -1.579801E+00
       149   4  9.830359E+02  1.756836E+02  7.990169E+00 -2.332321E+01  1.079816E+01 -2.002431E+00
       149   5  9.761281E+02  1.670599E+02  6.008089E+00 -2.625736E+01  1.144486E+01 -1.648191E+00
       149   6  9.701393E+02  1.604604E+02  5.064727E+00 -2.926078E+01  1.209153E+01 -1.275921E+00
       149   7  9.827020E+02  1.790301E+02  8.470023E+00 -1.761612E+01  1.109858E+01 -1.519314E+00
       149   8  9.755318E+02  1.701990E+02  6.421518E+00 -1.981904E+01  1.176330E+01 -1.254693E+00
       149   9  9.692831E+02  1.633948E+02  5.417579E+00 -2.209126E+01  1.242800E+01 -9.720414E-01
       149  10  9.840618E+02  1.726720E+02  7.934660E+00 -2.907210E+01  1.050842E-13  2.796772E-13
       149  11  9.774039E+02  1.642432E+02  5.989956E+00 -3.273748E+01  1.751404E-14  7.115077E-14
       149  12  9.716625E+02  1.578361E+02  5.078124E+00 -3.647211E+01 -3.590377E-13 -1.928596E-13
       149  13  9.830359E+02  1.756836E+02  7.990169E+00 -2.332321E+01  2.101684E-13 -1.094627E-15
       149  14  9.761281E+02  1.670599E+02  6.008089E+00 -2.625736E+01 -2.802246E-13  0.000000E+00
       149  15  9.701393E+02  1.604604E+02  5.064727E+00 -2.926078E+01 -6.655333E-13  1.376219E-14
       149  16  9.827020E+02  1.790301E+02  8.470023E+00 -1.761612E+01  3.502807E-13 -4.200632E-13
       149  17  9.755318E+02  1.701990E+02  6.421518E+00 -1.981904E+01 -1.225982E-13 -7.115077E-14
       149  18  9.692831E+02  1.633948E+02  5.417579E+00 -2.209126E+01 -3.064956E-13  4.904956E-13
       149  19  9.840618E+02  1.726720E+02  7.934660E+00 -2.907210E+01 -1.040812E+01  2.485548E+00
       149  20  9.774039E+02  1.642432E+02  5.989956E+00 -3.273748E+01 -1.103680E+01  2.041689E+00
       149  21  9.716625E+02  1.578361E+02  5.078124E+00 -3.647211E+01 -1.166545E+01  1.579801E+00
       149  22  9.830359E+02  1.756836E+02  7.990169E+00 -2.332321E+01 -1.079816E+01  2.002431E+00
       149  23  9.761281E+02  1.670599E+02  6.008089E+00 -2.625736E+01 -1.144486E+01  1.648191E+00
       149  24  9.701393E+02  1.604604E+02  5.064727E+00 -2.926078E+01 -1.209153E+01  1.275921E+00
       149  25  9.827020E+02  1.790301E+02  8.470023E+00 -1.761612E+01 -1.109858E+01  1.519314E+00
       149  26  9.755318E+02  1.701990E+02  6.421518E+00 -1.981904E+01 -1.176330E+01  1.254693E+00
       149  27  9.692831E+02  1.633948E+02  5.417579E+00 -2.209126E+01 -1.242800E+01  9.720414E-01
       150   1  9.674988E+02  1.544361E+02  4.465206E+00 -3.843431E+01  1.194312E+01 -1.300564E+00
       150   2  9.592845E+02  1.490222E+02  3.300801E+00 -4.161383E+01  1.234911E+01 -8.075401E-01
       150   3  9.517306E+02  1.450738E+02  2.871870E+00 -4.490459E+01  1.275511E+01 -3.037372E-01
       150   4  9.657049E+02  1.569348E+02  4.393523E+00 -3.085931E+01  1.238139E+01 -1.051490E+00
       150   5  9.571721E+02  1.514370E+02  3.215218E+00 -3.339916E+01  1.279817E+01 -6.571873E-01
       150   6  9.493011E+02  1.474063E+02  2.775881E+00 -3.605025E+01  1.321494E+01 -2.521054E-01
       150   7  9.647754E+02  1.598236E+02  4.758152E+00 -2.327819E+01  1.272095E+01 -8.024167E-01
       150   8  9.559103E+02  1.542283E+02  3.533956E+00 -2.517838E+01  1.314850E+01 -5.068345E-01
       150   9  9.477086E+02  1.501015E+02  3.052220E+00 -2.718980E+01  1.357605E+01 -2.004736E-01
       150  10  9.674988E+02  1.544361E+02  4.465206E+00 -3.843431E+01 -3.152526E-13  5.473136E-16
       150  11  9.592845E+02  1.490222E+02  3.300801E+00 -4.161383E+01  7.005614E-14 -5.609964E-13
       150  12  9.517306E+02  1.450738E+02  2.871870E+00 -4.490459E+01  1.138412E-13 -5.947931E-13
       150  13  9.657049E+02  1.569348E+02  4.393523E+00 -3.085931E+01 -2.101684E-13 -5.144748E-14
       150  14  9.571721E+02  1.514370E+02  3.215218E+00 -3.339916E+01 -1.401123E-13 -1.379230E-13
       150  15  9.493011E+02  1.474063E+02  2.775881E+00 -3.605025E+01  4.203368E-13 -5.391039E-14
       150  16  9.647754E+02  1.598236E+02  4.758152E+00 -2.327819E+01 -7.005614E-13  1.398386E-13
       150  17  9.559103E+02  1.542283E+02  3.533956E+00 -2.517838E+01 -2.101684E-13  5.599018E-13
       150  18  9.477086E+02  1.501015E+02  3.052220E+00 -2.718980E+01  2.714675E-13  6.305737E-13
       150  19  9.674988E+02  1.544361E+02  4.465206E+00 -3.843431E+01 -1.194312E+01  1.300564E+00
       150  20  9.592845E+02  1.490222E+02  3.300801E+00 -4.161383E+01 -1.234911E+01  8.075401E-01
       150  21  9.517306E+02  1.450738E+02  2.871870E+00 -4.490459E+01 -1.275511E+01  3.037372E-01
       150  22  9.657049E+02  1.569348E+02  4.393523E+00 -3.085931E+01 -1.238139E+01  1.051490E+00
       150  23  9.571721E+02  1.514370E+02  3.215218E+00 -3.339916E+01 -1.279817E+01  6.571873E-01
       150  24  9.493011E+02  1.474063E+02  2.775881E+00 -3.605025E+01 -1.321494E+01  2.521054E-01
       150  25  9.647754E+02  1.598236E+02  4.758152E+00 -2.327819E+01 -1.272095E+01  8.024167E-01
       150  26  9.559103E+02  1.542283E+02  3.533956E+00 -2.517838E+01 -1.314850E+01  5.068345E-01
       150  27  9.477086E+02  1.501015E+02  3.052220E+00 -2.718980E+01 -1.357605E+01  2.004736E-01
       151   1  9.642530E+02  1.609274E+02  4.832114E+00 -1.861041E+01  1.287478E+01 -6.289794E-01
       151   2  9.552380E+02  1.552427E+02  3.573628E+00 -2.015782E+01  1.330653E+01 -3.896430E-01
       151   3  9.469296E+02  1.511267E+02  3.101652E+00 -2.174318E+01  1.373828E+01 -1.466737E-01
       151   4  9.633320E+02  1.616371E+02  4.649731E+00 -1.051207E+01  1.305973E+01 -3.595321E-01
       151   5  9.542134E+02  1.559290E+02  3.398082E+00 -1.137685E+01  1.349511E+01 -2.253474E-01
       151   6  9.458018E+02  1.517900E+02  2.934130E+00 -1.227957E+01  1.393049E+01 -8.752971E-02
       151   7  9.633290E+02  1.627617E+02  4.932059E+00 -2.411247E+00  1.313952E+01 -9.007583E-02
       151   8  9.540921E+02  1.570155E+02  3.653167E+00 -2.593378E+00  1.357853E+01 -6.104634E-02
       151   9  9.455628E+02  1.528390E+02  3.163162E+00 -2.813455E+00  1.401755E+01 -2.838376E-02
       151  10  9.642530E+02  1.609274E+02  4.832114E+00 -1.861041E+01 -5.779632E-13  9.809228E-13
       151  11  9.552380E+02  1.552427E+02  3.573628E+00 -2.015782E+01 -5.254211E-14  4.201316E-13
       151  12  9.469296E+02  1.511267E+02  3.101652E+00 -2.174318E+01  1.751404E-13 -2.276311E-13
       151  13  9.633320E+02  1.616371E+02  4.649731E+00 -1.051207E+01 -4.903930E-13  1.223246E-13
       151  14  9.542134E+02  1.559290E+02  3.398082E+00 -1.137685E+01 -7.706175E-13  3.502807E-13
       151  15  9.458018E+02  1.517900E+02  2.934130E+00 -1.227957E+01 -8.932158E-13  1.225298E-13
       151  16  9.633290E+02  1.627617E+02  4.932059E+00 -2.411247E+00  1.751404E-13 -5.604491E-13
       151  17  9.540921E+02  1.570155E+02  3.653167E+00 -2.593378E+00 -2.627105E-13  1.400439E-13
       151  18  9.455628E+02  1.528390E+02  3.163162E+00 -2.813455E+00 -6.742904E-13  4.205079E-13
       151  19  9.642530E+02  1.609274E+02  4.832114E+00 -1.861041E+01 -1.287478E+01  6.289794E-01
       151  20  9.552380E+02  1.552427E+02  3.573628E+00 -2.015782E+01 -1.330653E+01  3.896430E-01
       151  21  9.469296E+02  1.511267E+02  3.101652E+00 -2.174318E+01 -1.373828E+01  1.466737E-01
       151  22  9.633320E+02  1.616371E+02  4.649731E+00 -1.051207E+01 -1.305973E+01  3.595321E-01
       151  23  9.542134E+02  1.559290E+02  3.398082E+00 -1.137685E+01 -1.349511E+01  2.253474E-01
       151  24  9.458018E+02  1.517900E+02  2.934130E+00 -1.227957E+01 -1.393049E+01  8.752971E-02
       151  25  9.633290E+02  1.627617E+02  4.932059E+00 -2.411247E+00 -1.313952E+01  9.007583E-02
       151  26  9.540921E+02  1.570155E+02  3.653167E+00 -2.593378E+00 -1.357853E+01  6.104634E-02
       151  27  9.455628E+02  1.528390E+02  3.163162E+00 -2.813455E+00 -1.401755E+01  2.838376E-02
       152   1  9.824571E+02  1.803430E+02  8.599381E+00 -1.407800E+01  1.123526E+01 -1.202437E+00
       152   2  9.751529E+02  1.713535E+02  6.496919E+00 -1.585777E+01  1.190700E+01 -9.861765E-01
       152   3  9.688291E+02  1.645269E+02  5.499170E+00 -1.766102E+01  1.257873E+01 -7.638012E-01
       152   4  9.818595E+02  1.812477E+02  8.464524E+00 -7.945966E+00  1.140064E+01 -6.832762E-01
       152   5  9.744748E+02  1.721962E+02  6.359860E+00 -8.945148E+00  1.207850E+01 -5.626579E-01
       152   6  9.680714E+02  1.653083E+02  5.361907E+00 -9.967828E+00  1.275634E+01 -4.359242E-01
       152   7  9.819965E+02  1.825086E+02  8.781879E+00 -1.827936E+00  1.147038E+01 -1.640985E-01
       152   8  9.745181E+02  1.733817E+02  6.644012E+00 -2.046522E+00  1.215436E+01 -1.391251E-01
       152   9  9.680219E+02  1.664193E+02  5.614854E+00 -2.288626E+00  1.283830E+01 -1.080362E-01
       152  10  9.824571E+02  1.803430E+02  8.599381E+00 -1.407800E+01  3.327667E-13  2.800877E-13
       152  11  9.751529E+02  1.713535E+02  6.496919E+00 -1.585777E+01  1.751404E-13  3.501439E-13
       152  12  9.688291E+02  1.645269E+02  5.499170E+00 -1.766102E+01 -2.101684E-13  5.255921E-13
       152  13  9.818595E+02  1.812477E+02  8.464524E+00 -7.945966E+00  7.005614E-13 -5.226845E-14
       152  14  9.744748E+02  1.721962E+02  6.359860E+00 -8.945148E+00 -2.101684E-13 -1.399755E-13
       152  15  9.680714E+02  1.653083E+02  5.361907E+00 -9.967828E+00 -1.225982E-13 -3.915746E-14
       152  16  9.819965E+02  1.825086E+02  8.781879E+00 -1.827936E+00  0.000000E+00 -2.803614E-13
       152  17  9.745181E+02  1.733817E+02  6.644012E+00 -2.046522E+00  1.751404E-13 -5.605860E-13
       152  18  9.680219E+02  1.664193E+02  5.614854E+00 -2.288626E+00  4.115798E-13 -8.756847E-13
       152  19  9.824571E+02  1.803430E+02  8.599381E+00 -1.407800E+01 -1.123526E+01  1.202437E+00
       152  20  9.751529E+02  1.713535E+02  6.496919E+00 -1.585777E+01 -1.190700E+01  9.861765E-01
       152  21  9.688291E+02  1.645269E+02  5.499170E+00 -1.766102E+01 -1.257873E+01  7.638012E-01
       152  22  9.818595E+02  1.812477E+02  8.464524E+00 -7.945966E+00 -1.140064E+01  6.832762E-01
       152  23  9.744748E+02  1.721962E+02  6.359860E+00 -8.945148E+00 -1.207850E+01  5.626579E-01
       152  24  9.680714E+02  1.653083E+02  5.361907E+00 -9.967828E+00 -1.275634E+01  4.359242E-01
       152  25  9.819965E+02  1.825086E+02  8.781879E+00 -1.827936E+00 -1.147038E+01  1.640985E-01
       152  26  9.745181E+02  1.733817E+02  6.644012E+00 -2.046522E+00 -1.215436E+01  1.391251E-01
       152  27  9.680219E+02  1.664193E+02  5.614854E+00 -2.288626E+00 -1.283830E+01  1.080362E-01
       153   1  9.398902E+02  1.506767E+02  2.794094E+00 -2.925668E+00  1.426611E+01 -9.816988E-03
       153   2  9.400504E+02  1.495758E+02  2.513752E+00 -1.277757E+01  1.418056E+01 -5.649501E-03
       153   3  9.413958E+02  1.489825E+02  2.740264E+00 -2.261429E+01  1.398258E+01 -1.482153E-03
       153   4  9.290142E+02  1.472384E+02  1.987047E+00 -3.092795E+00  1.470432E+01  2.141651E-02
       153   5  9.293156E+02  1.461486E+02  1.731345E+00 -1.359428E+01  1.461499E+01  1.380050E-01
       153   6  9.307866E+02  1.455509E+02  1.946072E+00 -2.408057E+01  1.441323E+01  2.545896E-01
       153   7  9.186648E+02  1.449485E+02  1.787946E+00 -3.310098E+00  1.514254E+01  5.642492E-02
       153   8  9.191069E+02  1.438693E+02  1.555655E+00 -1.446118E+01  1.504943E+01  2.854343E-01
       153   9  9.207030E+02  1.432666E+02  1.757370E+00 -2.559705E+01  1.484390E+01  5.144361E-01
       153  10  9.398902E+02  1.506767E+02  2.794094E+00 -2.925668E+00  4.903930E-13  7.006127E-13
       153  11  9.400504E+02  1.495758E+02  2.513752E+00 -1.277757E+01 -3.502807E-14  1.404886E-13
       153  12  9.413958E+02  1.489825E+02  2.740264E+00 -2.261429E+01 -4.028228E-13  2.565532E-16
       153  13  9.290142E+02  1.472384E+02  1.987047E+00 -3.092795E+00  1.926544E-13  9.109351E-13
       153  14  9.293156E+02  1.461486E+02  1.731345E+00 -1.359428E+01  1.401123E-13  3.501439E-13
       153  15  9.307866E+02  1.455509E+02  1.946072E+00 -2.408057E+01  1.751404E-14  2.100316E-13
       153  16  9.186648E+02  1.449485E+02  1.787946E+00 -3.310098E+00 -4.903930E-13  2.276825E-13
       153  17  9.191069E+02  1.438693E+02  1.555655E+00 -1.446118E+01  3.152526E-13  1.401123E-13
       153  18  9.207030E+02  1.432666E+02  1.757370E+00 -2.559705E+01  3.590377E-13 -3.489124E-14
       153  19  9.398902E+02  1.506767E+02  2.794094E+00 -2.925668E+00 -1.426611E+01  9.816988E-03
       153  20  9.400504E+02  1.495758E+02  2.513752E+00 -1.277757E+01 -1.418056E+01  5.649501E-03
       153  21  9.413958E+02  1.489825E+02  2.740264E+00 -2.261429E+01 -1.398258E+01  1.482153E-03
       153  22  9.290142E+02  1.472384E+02  1.987047E+00 -3.092795E+00 -1.470432E+01 -2.141651E-02
       153  23  9.293156E+02  1.461486E+02  1.731345E+00 -1.359428E+01 -1.461499E+01 -1.380050E-01
       153  24  9.307866E+02  1.455509E+02  1.946072E+00 -2.408057E+01 -1.441323E+01 -2.545896E-01
       153  25  9.186648E+02  1.449485E+02  1.787946E+00 -3.310098E+00 -1.514254E+01 -5.642492E-02
       153  26  9.191069E+02  1.438693E+02  1.555655E+00 -1.446118E+01 -1.504943E+01 -2.854343E-01
       153  27  9.207030E+02  1.432666E+02  1.757370E+00 -2.559705E+01 -1.484390E+01 -5.144361E-01
       154   1  9.422593E+02  1.479656E+02  2.695742E+00 -2.827808E+01  1.381781E+01 -1.925078E-02
       154   2  9.439185E+02  1.452417E+02  2.379998E+00 -3.751207E+01  1.345389E+01 -1.138982E-02
       154   3  9.466886E+02  1.429933E+02  2.538322E+00 -4.670351E+01  1.298424E+01 -3.528869E-03
       154   4  9.318189E+02  1.445775E+02  1.925047E+00 -3.006760E+01  1.424412E+01  2.974011E-01
       154   5  9.338751E+02  1.418728E+02  1.645242E+00 -3.990760E+01  1.386903E+01  4.109874E-01
       154   6  9.370277E+02  1.396290E+02  1.805250E+00 -4.970504E+01  1.338822E+01  5.245736E-01
       154   7  9.218697E+02  1.422573E+02  1.724650E+00 -3.200348E+01  1.467044E+01  6.252064E-01
       154   8  9.243214E+02  1.395703E+02  1.477177E+00 -4.244950E+01  1.428419E+01  8.445179E-01
       154   9  9.278548E+02  1.373295E+02  1.635261E+00 -5.285296E+01  1.379222E+01  1.063829E+00
       154  10  9.422593E+02  1.479656E+02  2.695742E+00 -2.827808E+01 -4.903930E-13  4.731526E-13
       154  11  9.439185E+02  1.452417E+02  2.379998E+00 -3.751207E+01 -4.903930E-13 -6.923517E-14
       154  12  9.466886E+02  1.429933E+02  2.538322E+00 -4.670351E+01 -1.751404E-14 -8.055088E-13
       154  13  9.318189E+02  1.445775E+02  1.925047E+00 -3.006760E+01  1.225982E-13  2.802246E-13
       154  14  9.338751E+02  1.418728E+02  1.645242E+00 -3.990760E+01 -2.101684E-13 -2.101684E-13
       154  15  9.370277E+02  1.396290E+02  1.805250E+00 -4.970504E+01  6.259115E-14 -7.018613E-13
       154  16  9.218697E+02  1.422573E+02  1.724650E+00 -3.200348E+01  1.401123E-13  4.200632E-13
       154  17  9.243214E+02  1.395703E+02  1.477177E+00 -4.244950E+01  2.802246E-13 -7.087711E-14
       154  18  9.278548E+02  1.373295E+02  1.635261E+00 -5.285296E+01  3.502807E-14 -7.879605E-13
       154  19  9.422593E+02  1.479656E+02  2.695742E+00 -2.827808E+01 -1.381781E+01  1.925078E-02
       154  20  9.439185E+02  1.452417E+02  2.379998E+00 -3.751207E+01 -1.345389E+01  1.138982E-02
       154  21  9.466886E+02  1.429933E+02  2.538322E+00 -4.670351E+01 -1.298424E+01  3.528869E-03
       154  22  9.318189E+02  1.445775E+02  1.925047E+00 -3.006760E+01 -1.424412E+01 -2.974011E-01
       154  23  9.338751E+02  1.418728E+02  1.645242E+00 -3.990760E+01 -1.386903E+01 -4.109874E-01
       154  24  9.370277E+02  1.396290E+02  1.805250E+00 -4.970504E+01 -1.338822E+01 -5.245736E-01
       154  25  9.218697E+02  1.422573E+02  1.724650E+00 -3.200348E+01 -1.467044E+01 -6.252064E-01
       154  26  9.243214E+02  1.395703E+02  1.477177E+00 -4.244950E+01 -1.428419E+01 -8.445179E-01
       154  27  9.278548E+02  1.373295E+02  1.635261E+00 -5.285296E+01 -1.379222E+01 -1.063829E+00
       155   1  9.155153E+02  1.410708E+02  1.536693E+00 -3.308447E+01  1.495950E+01  8.188476E-01
       155   2  9.180305E+02  1.382971E+02  1.227903E+00 -4.389626E+01  1.456954E+01  1.102213E+00
       155   3  9.219709E+02  1.361119E+02  1.455018E+00 -5.463524E+01  1.406520E+01  1.385579E+00
       155   4  9.034979E+02  1.390929E+02  1.007053E+00 -3.490182E+01  1.552109E+01  1.159539E+00
       155   5  9.064816E+02  1.362805E+02  7.314187E-01 -4.632715E+01  1.511527E+01  1.557301E+00
       155   6  9.108747E+02  1.340406E+02  9.546062E-01 -5.767967E+01  1.459505E+01  1.955063E+00
       155   7  8.918516E+02  1.378761E+02  9.523084E-01 -3.690004E+01  1.608267E+01  1.516110E+00
       155   8  8.953017E+02  1.350227E+02  7.046753E-01 -4.893891E+01  1.566097E+01  2.028269E+00
       155   9  9.001452E+02  1.327259E+02  9.187805E-01 -6.090497E+01  1.512488E+01  2.540427E+00
       155  10  9.155153E+02  1.410708E+02  1.536693E+00 -3.308447E+01 -4.203368E-13  5.254211E-13
       155  11  9.180305E+02  1.382971E+02  1.227903E+00 -4.389626E+01 -3.502807E-13  4.104852E-16
       155  12  9.219709E+02  1.361119E+02  1.455018E+00 -5.463524E+01 -1.050842E-13 -5.599360E-13
       155  13  9.034979E+02  1.390929E+02  1.007053E+00 -3.490182E+01  7.005614E-14  7.115077E-14
       155  14  9.064816E+02  1.362805E+02  7.314187E-01 -4.632715E+01  0.000000E+00 -1.094627E-15
       155  15  9.108747E+02  1.340406E+02  9.546062E-01 -5.767967E+01  3.785661E-13 -4.903246E-13
       155  16  8.918516E+02  1.378761E+02  9.523084E-01 -3.690004E+01  3.502807E-13  1.053579E-13
       155  17  8.953017E+02  1.350227E+02  7.046753E-01 -4.893891E+01  6.305053E-13 -4.104852E-16
       155  18  9.001452E+02  1.327259E+02  9.187805E-01 -6.090497E+01  5.341781E-13 -2.272378E-13
       155  19  9.155153E+02  1.410708E+02  1.536693E+00 -3.308447E+01 -1.495950E+01 -8.188476E-01
       155  20  9.180305E+02  1.382971E+02  1.227903E+00 -4.389626E+01 -1.456954E+01 -1.102213E+00
       155  21  9.219709E+02  1.361119E+02  1.455018E+00 -5.463524E+01 -1.406520E+01 -1.385579E+00
       155  22  9.034979E+02  1.390929E+02  1.007053E+00 -3.490182E+01 -1.552109E+01 -1.159539E+00
       155  23  9.064816E+02  1.362805E+02  7.314187E-01 -4.632715E+01 -1.511527E+01 -1.557301E+00
       155  24  9.108747E+02  1.340406E+02  9.546062E-01 -5.767967E+01 -1.459505E+01 -1.955063E+00
       155  25  8.918516E+02  1.378761E+02  9.523084E-01 -3.690004E+01 -1.608267E+01 -1.516110E+00
       155  26  8.953017E+02  1.350227E+02  7.046753E-01 -4.893891E+01 -1.566097E+01 -2.028269E+00
       155  27  9.001452E+02  1.327259E+02  9.187805E-01 -6.090497E+01 -1.512488E+01 -2.540427E+00
       156   1  9.120481E+02  1.437799E+02  1.593331E+00 -3.421590E+00  1.544040E+01  7.593056E-02
       156   2  9.123817E+02  1.426163E+02  1.290309E+00 -1.495529E+01  1.534918E+01  3.730603E-01
       156   3  9.142471E+02  1.420857E+02  1.565177E+00 -2.646307E+01  1.513629E+01  6.701801E-01
       156   4  8.995212E+02  1.418258E+02  1.035811E+00 -3.588283E+00  1.601906E+01  1.090269E-01
       156   5  9.000217E+02  1.406532E+02  7.575266E-01 -1.578690E+01  1.592241E+01  5.278307E-01
       156   6  9.020370E+02  1.400967E+02  1.017690E+00 -2.795958E+01  1.570408E+01  9.466205E-01
       156   7  8.873985E+02  1.407066E+02  9.893810E-01 -3.817331E+00  1.659771E+01  1.475617E-01
       156   8  8.880650E+02  1.395243E+02  7.340629E-01 -1.668085E+01  1.649562E+01  6.880394E-01
       156   9  8.902295E+02  1.389411E+02  9.777509E-01 -2.951843E+01  1.627186E+01  1.228499E+00
       156  10  9.120481E+02  1.437799E+02  1.593331E+00 -3.421590E+00  5.604491E-13  3.497676E-14
       156  11  9.123817E+02  1.426163E+02  1.290309E+00 -1.495529E+01  3.502807E-13  1.576947E-13
       156  12  9.142471E+02  1.420857E+02  1.565177E+00 -2.646307E+01 -3.327667E-13  8.738204E-14
       156  13  8.995212E+02  1.418258E+02  1.035811E+00 -3.588283E+00  1.401123E-13  2.100316E-13
       156  14  9.000217E+02  1.406532E+02  7.575266E-01 -1.578690E+01 -7.005614E-14  4.206105E-13
       156  15  9.020370E+02  1.400967E+02  1.017690E+00 -2.795958E+01  1.751404E-14  4.903246E-13
       156  16  8.873985E+02  1.407066E+02  9.893810E-01 -3.817331E+00 -6.305053E-13  3.502807E-14
       156  17  8.880650E+02  1.395243E+02  7.340629E-01 -1.668085E+01 -4.203368E-13  1.573527E-13
       156  18  8.902295E+02  1.389411E+02  9.777509E-01 -2.951843E+01  1.751404E-13 -8.757018E-14
       156  19  9.120481E+02  1.437799E+02  1.593331E+00 -3.421590E+00 -1.544040E+01 -7.593056E-02
       156  20  9.123817E+02  1.426163E+02  1.290309E+00 -1.495529E+01 -1.534918E+01 -3.730603E-01
       156  21  9.142471E+02  1.420857E+02  1.565177E+00 -2.646307E+01 -1.513629E+01 -6.701801E-01
       156  22  8.995212E+02  1.418258E+02  1.035811E+00 -3.588283E+00 -1.601906E+01 -1.090269E-01
       156  23  9.000217E+02  1.406532E+02  7.575266E-01 -1.578690E+01 -1.592241E+01 -5.278307E-01
       156  24  9.020370E+02  1.400967E+02  1.017690E+00 -2.795958E+01 -1.570408E+01 -9.466205E-01
       156  25  8.873985E+02  1.407066E+02  9.893810E-01 -3.817331E+00 -1.659771E+01 -1.475617E-01
       156  26  8.880650E+02  1.395243E+02  7.340629E-01 -1.668085E+01 -1.649562E+01 -6.880394E-01
       156  27  8.902295E+02  1.389411E+02  9.777509E-01 -2.951843E+01 -1.627186E+01 -1.228499E+00
       157   1  1.245978E+03 -2.022064E-01  1.607345E+01 -7.751744E+00 -1.680958E+01  1.014368E+00
       157   2  1.270861E+03 -9.522438E-02  1.948676E+01 -7.611759E+00 -1.711784E+01  1.174550E+00
       157   3  1.295605E+03 -2.586499E-01  2.270264E+01 -8.265683E+00 -1.742610E+01  1.352253E+00
       157   4  1.234120E+03  8.932994E-01  1.340364E+01 -2.987433E+01 -1.646961E+01  3.628724E+00
       157   5  1.256718E+03  8.953270E-01  1.618374E+01 -3.030835E+01 -1.676035E+01  4.165997E+00
       157   6  1.279178E+03  6.293843E-01  1.877208E+01 -3.153627E+01 -1.705109E+01  4.720791E+00
       157   7  1.220843E+03  1.588081E+00  1.081739E+01 -5.169992E+01 -1.575255E+01  6.242993E+00
       157   8  1.241208E+03  1.537494E+00  1.308647E+01 -5.270792E+01 -1.602576E+01  7.157344E+00
       157   9  1.261437E+03  1.221374E+00  1.516948E+01 -5.450981E+01 -1.629898E+01  8.089217E+00
       157  10  1.245978E+03 -2.022064E-01  1.607345E+01 -7.751744E+00  2.451965E-13  4.203368E-13
       157  11  1.270861E+03 -9.522438E-02  1.948676E+01 -7.611759E+00  7.005614E-14  3.480914E-13
       157  12  1.295605E+03 -2.586499E-01  2.270264E+01 -8.265683E+00 -3.634162E-13  1.023476E-13
       157  13  1.234120E+03  8.932994E-01  1.340364E+01 -2.987433E+01 -1.401123E-13 -8.757018E-14
       157  14  1.256718E+03  8.953270E-01  1.618374E+01 -3.030835E+01  7.005614E-14 -3.502807E-13
       157  15  1.279178E+03  6.293843E-01  1.877208E+01 -3.153627E+01  3.502807E-14 -1.204090E-13
       157  16  1.220843E+03  1.588081E+00  1.081739E+01 -5.169992E+01 -1.050842E-13 -5.429351E-13
       157  17  1.241208E+03  1.537494E+00  1.308647E+01 -5.270792E+01  1.751404E-13 -6.195590E-13
       157  18  1.261437E+03  1.221374E+00  1.516948E+01 -5.450981E+01  8.757018E-14 -7.547454E-13
       157  19  1.245978E+03 -2.022064E-01  1.607345E+01 -7.751744E+00  1.680958E+01 -1.014368E+00
       157  20  1.270861E+03 -9.522438E-02  1.948676E+01 -7.611759E+00  1.711784E+01 -1.174550E+00
       157  21  1.295605E+03 -2.586499E-01  2.270264E+01 -8.265683E+00  1.742610E+01 -1.352253E+00
       157  22  1.234120E+03  8.932994E-01  1.340364E+01 -2.987433E+01  1.646961E+01 -3.628724E+00
       157  23  1.256718E+03  8.953270E-01  1.618374E+01 -3.030835E+01  1.676035E+01 -4.165997E+00
       157  24  1.279178E+03  6.293843E-01  1.877208E+01 -3.153627E+01  1.705109E+01 -4.720791E+00
       157  25  1.220843E+03  1.588081E+00  1.081739E+01 -5.169992E+01  1.575255E+01 -6.242993E+00
       157  26  1.241208E+03  1.537494E+00  1.308647E+01 -5.270792E+01  1.602576E+01 -7.157344E+00
       157  27  1.261437E+03  1.221374E+00  1.516948E+01 -5.450981E+01  1.629898E+01 -8.089217E+00
       158   1  1.311113E+03 -2.103999E-02  2.497378E+01 -8.342589E+00 -1.755492E+01  1.456720E+00
       158   2  1.337364E+03  2.671621E-02  2.862620E+01 -8.069401E+00 -1.764425E+01  1.633264E+00
       158   3  1.363541E+03 -8.248254E-02  3.218807E+01 -8.649081E+00 -1.773358E+01  1.819966E+00
       158   4  1.292673E+03  5.232168E-01  2.038833E+01 -3.192603E+01 -1.718393E+01  5.051117E+00
       158   5  1.316450E+03  4.190524E-01  2.334381E+01 -3.197096E+01 -1.726310E+01  5.626729E+00
       158   6  1.340156E+03  1.593035E-01  2.621200E+01 -3.286874E+01 -1.734226E+01  6.212499E+00
       158   7  1.273763E+03  1.151282E+00  1.655251E+01 -5.520153E+01 -1.641387E+01  8.645393E+00
       158   8  1.295123E+03  9.505810E-01  1.894037E+01 -5.556456E+01 -1.648287E+01  9.620060E+00
       158   9  1.316412E+03  5.956658E-01  2.124418E+01 -5.678043E+01 -1.655186E+01  1.060489E+01
       158  10  1.311113E+03 -2.103999E-02  2.497378E+01 -8.342589E+00  1.401123E-13  1.401123E-13
       158  11  1.337364E+03  2.671621E-02  2.862620E+01 -8.069401E+00 -2.101684E-13  3.459022E-13
       158  12  1.363541E+03 -8.248254E-02  3.218807E+01 -8.649081E+00 -1.707618E-13  4.121271E-13
       158  13  1.292673E+03  5.232168E-01  2.038833E+01 -3.192603E+01 -2.101684E-13 -5.254211E-14
       158  14  1.316450E+03  4.190524E-01  2.334381E+01 -3.197096E+01 -2.101684E-13  0.000000E+00
       158  15  1.340156E+03  1.593035E-01  2.621200E+01 -3.286874E+01 -3.677947E-13 -5.692061E-14
       158  16  1.273763E+03  1.151282E+00  1.655251E+01 -5.520153E+01  5.254211E-14 -4.247154E-13
       158  17  1.295123E+03  9.505810E-01  1.894037E+01 -5.556456E+01 -1.401123E-13 -7.005614E-14
       158  18  1.316412E+03  5.956658E-01  2.124418E+01 -5.678043E+01 -2.189254E-13 -6.841420E-14
       158  19  1.311113E+03 -2.103999E-02  2.497378E+01 -8.342589E+00  1.755492E+01 -1.456720E+00
       158  20  1.337364E+03  2.671621E-02  2.862620E+01 -8.069401E+00  1.764425E+01 -1.633264E+00
       158  21  1.363541E+03 -8.248254E-02  3.218807E+01 -8.649081E+00  1.773358E+01 -1.819966E+00
       158  22  1.292673E+03  5.232168E-01  2.038833E+01 -3.192603E+01  1.718393E+01 -5.051117E+00
       158  23  1.316450E+03  4.190524E-01  2.334381E+01 -3.197096E+01  1.726310E+01 -5.626729E+00
       158  24  1.340156E+03  1.593035E-01  2.621200E+01 -3.286874E+01  1.734226E+01 -6.212499E+00
       158  25  1.273763E+03  1.151282E+00  1.655251E+01 -5.520153E+01  1.641387E+01 -8.645393E+00
       158  26  1.295123E+03  9.505810E-01  1.894037E+01 -5.556456E+01  1.648287E+01 -9.620060E+00
       158  27  1.316412E+03  5.956658E-01  2.124418E+01 -5.678043E+01  1.655186E+01 -1.060489E+01
       159   1  1.262513E+03  1.837879E+00  1.471789E+01 -6.698717E+01 -1.579898E+01  1.019133E+01
       159   2  1.282620E+03  1.488682E+00  1.683440E+01 -6.759725E+01 -1.585963E+01  1.131472E+01
       159   3  1.302589E+03  8.276220E-01  1.880149E+01 -6.884313E+01 -1.592028E+01  1.245658E+01
       159   4  1.242805E+03  3.429557E+00  1.199375E+01 -8.485424E+01 -1.458632E+01  1.232961E+01
       159   5  1.261006E+03  2.648198E+00  1.370304E+01 -8.573158E+01 -1.462847E+01  1.365008E+01
       159   6  1.279072E+03  1.557512E+00  1.526887E+01 -8.724472E+01 -1.467062E+01  1.498903E+01
       159   7  1.222762E+03  5.047619E+00  9.691980E+00 -1.026206E+02 -1.317658E+01  1.446788E+01
       159   8  1.239085E+03  3.861467E+00  1.105791E+01 -1.037652E+02 -1.320023E+01  1.598544E+01
       159   9  1.255275E+03  2.368522E+00  1.228635E+01 -1.055456E+02 -1.322387E+01  1.752148E+01
       159  10  1.262513E+03  1.837879E+00  1.471789E+01 -6.698717E+01 -2.451965E-13  4.115798E-13
       159  11  1.282620E+03  1.488682E+00  1.683440E+01 -6.759725E+01  3.502807E-14  1.444908E-13
       159  12  1.302589E+03  8.276220E-01  1.880149E+01 -6.884313E+01 -2.320610E-13  2.468384E-13
       159  13  1.242805E+03  3.429557E+00  1.199375E+01 -8.485424E+01 -3.502807E-13  1.751404E-14
       159  14  1.261006E+03  2.648198E+00  1.370304E+01 -8.573158E+01  0.000000E+00 -1.050842E-13
       159  15  1.279072E+03  1.557512E+00  1.526887E+01 -8.724472E+01 -4.378509E-13 -1.094627E-15
       159  16  1.222762E+03  5.047619E+00  9.691980E+00 -1.026206E+02  1.926544E-13 -5.560706E-13
       159  17  1.239085E+03  3.861467E+00  1.105791E+01 -1.037652E+02 -3.502807E-14 -4.072013E-13
       159  18  1.255275E+03  2.368522E+00  1.228635E+01 -1.055456E+02 -1.094627E-13 -1.888232E-13
       159  19  1.262513E+03  1.837879E+00  1.471789E+01 -6.698717E+01  1.579898E+01 -1.019133E+01
       159  20  1.282620E+03  1.488682E+00  1.683440E+01 -6.759725E+01  1.585963E+01 -1.131472E+01
       159  21  1.302589E+03  8.276220E-01  1.880149E+01 -6.884313E+01  1.592028E+01 -1.245658E+01
       159  22  1.242805E+03  3.429557E+00  1.199375E+01 -8.485424E+01  1.458632E+01 -1.232961E+01
       159  23  1.261006E+03  2.648198E+00  1.370304E+01 -8.573158E+01  1.462847E+01 -1.365008E+01
       159  24  1.279072E+03  1.557512E+00  1.526887E+01 -8.724472E+01  1.467062E+01 -1.498903E+01
       159  25  1.222762E+03  5.047619E+00  9.691980E+00 -1.026206E+02  1.317658E+01 -1.446788E+01
       159  26  1.239085E+03  3.861467E+00  1.105791E+01 -1.037652E+02  1.320023E+01 -1.598544E+01
       159  27  1.255275E+03  2.368522E+00  1.228635E+01 -1.055456E+02  1.322387E+01 -1.752148E+01
       160   1  1.212744E+03  2.675754E+00  9.679699E+00 -6.280253E+01 -1.518022E+01  7.404049E+00
       160   2  1.231915E+03  2.519603E+00  1.169859E+01 -6.415852E+01 -1.543778E+01  8.456072E+00
       160   3  1.250909E+03  2.000360E+00  1.349373E+01 -6.615764E+01 -1.569533E+01  9.544390E+00
       160   4  1.198224E+03  5.232837E+00  8.071552E+00 -7.960056E+01 -1.405162E+01  9.050927E+00
       160   5  1.215517E+03  4.770559E+00  9.711359E+00 -8.139871E+01 -1.427288E+01  1.029241E+01
       160   6  1.232639E+03  3.950230E+00  1.113918E+01 -8.383998E+01 -1.449414E+01  1.157018E+01
       160   7  1.182713E+03  7.495693E+00  6.474155E+00 -9.625593E+01 -1.273355E+01  1.069781E+01
       160   8  1.198154E+03  6.753602E+00  7.796280E+00 -9.849624E+01 -1.291852E+01  1.212874E+01
       160   9  1.213430E+03  5.658501E+00  8.918183E+00 -1.013797E+02 -1.310349E+01  1.359598E+01
       160  10  1.212744E+03  2.675754E+00  9.679699E+00 -6.280253E+01 -2.451965E-13  0.000000E+00
       160  11  1.231915E+03  2.519603E+00  1.169859E+01 -6.415852E+01  1.401123E-13  4.903930E-13
       160  12  1.250909E+03  2.000360E+00  1.349373E+01 -6.615764E+01  7.749961E-13  4.504391E-13
       160  13  1.198224E+03  5.232837E+00  8.071552E+00 -7.960056E+01  7.005614E-14  9.632719E-14
       160  14  1.215517E+03  4.770559E+00  9.711359E+00 -8.139871E+01  2.802246E-13  2.101684E-13
       160  15  1.232639E+03  3.950230E+00  1.113918E+01 -8.383998E+01  2.802246E-13  9.085406E-14
       160  16  1.182713E+03  7.495693E+00  6.474155E+00 -9.625593E+01  4.378509E-13  1.401123E-13
       160  17  1.198154E+03  6.753602E+00  7.796280E+00 -9.849624E+01  7.005614E-14 -1.379230E-13
       160  18  1.213430E+03  5.658501E+00  8.918183E+00 -1.013797E+02  1.313553E-14 -2.654471E-13
       160  19  1.212744E+03  2.675754E+00  9.679699E+00 -6.280253E+01  1.518022E+01 -7.404049E+00
       160  20  1.231915E+03  2.519603E+00  1.169859E+01 -6.415852E+01  1.543778E+01 -8.456072E+00
       160  21  1.250909E+03  2.000360E+00  1.349373E+01 -6.615764E+01  1.569533E+01 -9.544390E+00
       160  22  1.198224E+03  5.232837E+00  8.071552E+00 -7.960056E+01  1.405162E+01 -9.050927E+00
       160  23  1.215517E+03  4.770559E+00  9.711359E+00 -8.139871E+01  1.427288E+01 -1.029241E+01
       160  24  1.232639E+03  3.950230E+00  1.113918E+01 -8.383998E+01  1.449414E+01 -1.157018E+01
       160  25  1.182713E+03  7.495693E+00  6.474155E+00 -9.625593E+01  1.273355E+01 -1.069781E+01
       160  26  1.198154E+03  6.753602E+00  7.796280E+00 -9.849624E+01  1.291852E+01 -1.212874E+01
       160  27  1.213430E+03  5.658501E+00  8.918183E+00 -1.013797E+02  1.310349E+01 -1.359598E+01
       161   1  9.032786E+02  1.306885E+02  8.724688E-01 -6.754979E+01  1.475791E+01  2.806042E+00
       161   2  9.136977E+02  1.321104E+02  9.342741E-01 -6.393793E+01  1.424002E+01  2.152795E+00
       161   3  9.244266E+02  1.341583E+02  1.401476E+00 -6.060826E+01  1.372211E+01  1.524733E+00
       161   4  9.092733E+02  1.263877E+02  6.500046E-01 -7.799040E+01  1.404174E+01  3.263912E+00
       161   5  9.189666E+02  1.278668E+02  6.805706E-01 -7.385902E+01  1.354902E+01  2.509962E+00
       161   6  9.289660E+02  1.299682E+02  1.108354E+00 -7.000981E+01  1.305628E+01  1.781196E+00
       161   7  9.164693E+02  1.225657E+02  8.213282E-01 -8.832137E+01  1.322485E+01  3.721766E+00
       161   8  9.254507E+02  1.241159E+02  8.532973E-01 -8.367048E+01  1.275730E+01  2.867117E+00
       161   9  9.347348E+02  1.262849E+02  1.274304E+00 -7.930175E+01  1.228974E+01  2.037652E+00
       161  10  9.032786E+02  1.306885E+02  8.724688E-01 -6.754979E+01  3.677947E-13  1.406596E-13
       161  11  9.136977E+02  1.321104E+02  9.342741E-01 -6.393793E+01  1.401123E-13  1.384703E-13
       161  12  9.244266E+02  1.341583E+02  1.401476E+00 -6.060826E+01 -2.627105E-13  1.299870E-15
       161  13  9.092733E+02  1.263877E+02  6.500046E-01 -7.799040E+01  7.005614E-14 -5.035285E-14
       161  14  9.189666E+02  1.278668E+02  6.805706E-01 -7.385902E+01 -3.502807E-13 -7.005614E-14
       161  15  9.289660E+02  1.299682E+02  1.108354E+00 -7.000981E+01 -1.050842E-13 -3.687415E-14
       161  16  9.164693E+02  1.225657E+02  8.213282E-01 -8.832137E+01 -1.050842E-13 -1.395650E-13
       161  17  9.254507E+02  1.241159E+02  8.532973E-01 -8.367048E+01  8.757018E-14 -3.508280E-13
       161  18  9.347348E+02  1.262849E+02  1.274304E+00 -7.930175E+01  2.189254E-13  3.530173E-14
       161  19  9.032786E+02  1.306885E+02  8.724688E-01 -6.754979E+01 -1.475791E+01 -2.806042E+00
       161  20  9.136977E+02  1.321104E+02  9.342741E-01 -6.393793E+01 -1.424002E+01 -2.152795E+00
       161  21  9.244266E+02  1.341583E+02  1.401476E+00 -6.060826E+01 -1.372211E+01 -1.524733E+00
       161  22  9.092733E+02  1.263877E+02  6.500046E-01 -7.799040E+01 -1.404174E+01 -3.263912E+00
       161  23  9.189666E+02  1.278668E+02  6.805706E-01 -7.385902E+01 -1.354902E+01 -2.509962E+00
       161  24  9.289660E+02  1.299682E+02  1.108354E+00 -7.000981E+01 -1.305628E+01 -1.781196E+00
       161  25  9.164693E+02  1.225657E+02  8.213282E-01 -8.832137E+01 -1.322485E+01 -3.721766E+00
       161  26  9.254507E+02  1.241159E+02  8.532973E-01 -8.367048E+01 -1.275730E+01 -2.867117E+00
       161  27  9.347348E+02  1.262849E+02  1.274304E+00 -7.930175E+01 -1.228974E+01 -2.037652E+00
       162   1  9.301165E+02  1.353850E+02  1.573830E+00 -5.863387E+01  1.345553E+01  1.168335E+00
       162   2  9.390291E+02  1.377472E+02  1.764595E+00 -5.510986E+01  1.306006E+01  5.670865E-01
       162   3  9.483661E+02  1.410273E+02  2.453203E+00 -5.181663E+01  1.266461E+01 -1.603292E-02
       162   4  9.344244E+02  1.312709E+02  1.326635E+00 -6.771151E+01  1.279875E+01  1.368456E+00
       162   5  9.427164E+02  1.336036E+02  1.478283E+00 -6.366235E+01  1.242142E+01  6.742881E-01
       162   6  9.514304E+02  1.368516E+02  2.121905E+00 -5.984396E+01  1.204411E+01 -1.750726E-03
       162   7  9.396797E+02  1.275472E+02  1.432556E+00 -7.672411E+01  1.204904E+01  1.568570E+00
       162   8  9.473640E+02  1.298631E+02  1.575193E+00 -7.214981E+01  1.168986E+01  7.814860E-01
       162   9  9.554678E+02  1.330919E+02  2.203933E+00 -6.780629E+01  1.133068E+01  1.253099E-02
       162  10  9.301165E+02  1.353850E+02  1.573830E+00 -5.863387E+01  1.050842E-13  1.395650E-13
       162  11  9.390291E+02  1.377472E+02  1.764595E+00 -5.510986E+01 -1.576263E-13 -1.406596E-13
       162  12  9.483661E+02  1.410273E+02  2.453203E+00 -5.181663E+01  1.751404E-14  2.291192E-13
       162  13  9.344244E+02  1.312709E+02  1.326635E+00 -6.771151E+01  1.401123E-13 -5.035285E-14
       162  14  9.427164E+02  1.336036E+02  1.478283E+00 -6.366235E+01  2.101684E-13 -7.224539E-14
       162  15  9.514304E+02  1.368516E+02  2.121905E+00 -5.984396E+01  3.677947E-13 -1.191134E-14
       162  16  9.396797E+02  1.275472E+02  1.432556E+00 -7.672411E+01 -8.757018E-14 -5.473136E-16
       162  17  9.473640E+02  1.298631E+02  1.575193E+00 -7.214981E+01 -1.225982E-13 -8.209704E-16
       162  18  9.554678E+02  1.330919E+02  2.203933E+00 -6.780629E+01  2.889816E-13 -1.368284E-16
       162  19  9.301165E+02  1.353850E+02  1.573830E+00 -5.863387E+01 -1.345553E+01 -1.168335E+00
       162  20  9.390291E+02  1.377472E+02  1.764595E+00 -5.510986E+01 -1.306006E+01 -5.670865E-01
       162  21  9.483661E+02  1.410273E+02  2.453203E+00 -5.181663E+01 -1.266461E+01  1.603292E-02
       162  22  9.344244E+02  1.312709E+02  1.326635E+00 -6.771151E+01 -1.279875E+01 -1.368456E+00
       162  23  9.427164E+02  1.336036E+02  1.478283E+00 -6.366235E+01 -1.242142E+01 -6.742881E-01
       162  24  9.514304E+02  1.368516E+02  2.121905E+00 -5.984396E+01 -1.204411E+01  1.750726E-03
       162  25  9.396797E+02  1.275472E+02  1.432556E+00 -7.672411E+01 -1.204904E+01 -1.568570E+00
       162  26  9.473640E+02  1.298631E+02  1.575193E+00 -7.214981E+01 -1.168986E+01 -7.814860E-01
       162  27  9.554678E+02  1.330919E+02  2.203933E+00 -6.780629E+01 -1.133068E+01 -1.253099E-02
       163   1  9.429023E+02  1.248029E+02  1.349404E+00 -8.151882E+01  1.156861E+01  1.662537E+00
       163   2  9.502165E+02  1.271927E+02  1.517306E+00 -7.663344E+01  1.122191E+01  8.226872E-01
       163   3  9.578665E+02  1.303025E+02  2.085386E+00 -7.204584E+01  1.087522E+01  7.607374E-03
       163   4  9.488089E+02  1.195236E+02  1.116740E+00 -8.866799E+01  1.067885E+01  1.833723E+00
       163   5  9.553217E+02  1.218660E+02  1.241254E+00 -8.336478E+01  1.035694E+01  9.188386E-01
       163   6  9.621670E+02  1.249251E+02  1.757933E+00 -7.835935E+01  1.003504E+01  2.872393E-02
       163   7  9.554821E+02  1.145592E+02  1.167351E+00 -9.573790E+01  9.714055E+00  2.004910E+00
       163   8  9.612040E+02  1.168648E+02  1.272788E+00 -9.001684E+01  9.416929E+00  1.014990E+00
       163   9  9.672549E+02  1.198835E+02  1.762377E+00 -8.459359E+01  9.119814E+00  4.984049E-02
       163  10  9.429023E+02  1.248029E+02  1.349404E+00 -8.151882E+01 -1.926544E-13  1.390177E-13
       163  11  9.502165E+02  1.271927E+02  1.517306E+00 -7.663344E+01 -1.225982E-13  1.390177E-13
       163  12  9.578665E+02  1.303025E+02  2.085386E+00 -7.204584E+01  3.415237E-13  1.569422E-13
       163  13  9.488089E+02  1.195236E+02  1.116740E+00 -8.866799E+01  3.502807E-13  7.224539E-14
       163  14  9.553217E+02  1.218660E+02  1.241254E+00 -8.336478E+01 -1.401123E-13  7.005614E-14
       163  15  9.621670E+02  1.249251E+02  1.757933E+00 -7.835935E+01 -3.502807E-14  8.161126E-14
       163  16  9.554821E+02  1.145592E+02  1.167351E+00 -9.573790E+01  5.254211E-14 -1.401123E-13
       163  17  9.612040E+02  1.168648E+02  1.272788E+00 -9.001684E+01  3.502807E-14  7.388734E-14
       163  18  9.672549E+02  1.198835E+02  1.762377E+00 -8.459359E+01 -1.926544E-13 -8.907529E-14
       163  19  9.429023E+02  1.248029E+02  1.349404E+00 -8.151882E+01 -1.156861E+01 -1.662537E+00
       163  20  9.502165E+02  1.271927E+02  1.517306E+00 -7.663344E+01 -1.122191E+01 -8.226872E-01
       163  21  9.578665E+02  1.303025E+02  2.085386E+00 -7.204584E+01 -1.087522E+01 -7.607374E-03
       163  22  9.488089E+02  1.195236E+02  1.116740E+00 -8.866799E+01 -1.067885E+01 -1.833723E+00
       163  23  9.553217E+02  1.218660E+02  1.241254E+00 -8.336478E+01 -1.035694E+01 -9.188386E-01
       163  24  9.621670E+02  1.249251E+02  1.757933E+00 -7.835935E+01 -1.003504E+01 -2.872393E-02
       163  25  9.554821E+02  1.145592E+02  1.167351E+00 -9.573790E+01 -9.714055E+00 -2.004910E+00
       163  26  9.612040E+02  1.168648E+02  1.272788E+00 -9.001684E+01 -9.416929E+00 -1.014990E+00
       163  27  9.672549E+02  1.198835E+02  1.762377E+00 -8.459359E+01 -9.119814E+00 -4.984049E-02
       164   1  9.209089E+02  1.197230E+02  7.620110E-01 -9.381535E+01  1.270143E+01  3.952573E+00
       164   2  9.294530E+02  1.214003E+02  8.248618E-01 -8.885563E+01  1.225084E+01  3.040323E+00
       164   3  9.382278E+02  1.235319E+02  1.201749E+00 -8.425449E+01  1.180023E+01  2.161186E+00
       164   4  9.290548E+02  1.142913E+02  5.788384E-01 -1.020230E+02  1.173161E+01  4.333650E+00
       164   5  9.366725E+02  1.160209E+02  6.089670E-01 -9.666563E+01  1.131411E+01  3.339316E+00
       164   6  9.445163E+02  1.182001E+02  9.423836E-01 -9.166682E+01  1.089660E+01  2.378093E+00
       164   7  9.381480E+02  1.092353E+02  7.008748E-01 -1.100999E+02  1.067970E+01  4.714728E+00
       164   8  9.448508E+02  1.110286E+02  7.248898E-01 -1.043449E+02  1.029530E+01  3.638308E+00
       164   9  9.517750E+02  1.132670E+02  1.041444E+00 -9.894837E+01  9.910886E+00  2.595001E+00
       164  10  9.209089E+02  1.197230E+02  7.620110E-01 -9.381535E+01  1.926544E-13 -1.390177E-13
       164  11  9.294530E+02  1.214003E+02  8.248618E-01 -8.885563E+01  3.502807E-14 -7.279271E-14
       164  12  9.382278E+02  1.235319E+02  1.201749E+00 -8.425449E+01  2.802246E-13 -1.901915E-14
       164  13  9.290548E+02  1.142913E+02  5.788384E-01 -1.020230E+02 -7.005614E-14  0.000000E+00
       164  14  9.366725E+02  1.160209E+02  6.089670E-01 -9.666563E+01  7.005614E-14 -1.094627E-15
       164  15  9.445163E+02  1.182001E+02  9.423836E-01 -9.166682E+01 -1.225982E-13  6.519447E-15
       164  16  9.381480E+02  1.092353E+02  7.008748E-01 -1.100999E+02 -8.757018E-14  2.824138E-13
       164  17  9.448508E+02  1.110286E+02  7.248898E-01 -1.043449E+02 -2.627105E-13  1.357338E-13
       164  18  9.517750E+02  1.132670E+02  1.041444E+00 -9.894837E+01 -8.757018E-14 -2.431441E-13
       164  19  9.209089E+02  1.197230E+02  7.620110E-01 -9.381535E+01 -1.270143E+01 -3.952573E+00
       164  20  9.294530E+02  1.214003E+02  8.248618E-01 -8.885563E+01 -1.225084E+01 -3.040323E+00
       164  21  9.382278E+02  1.235319E+02  1.201749E+00 -8.425449E+01 -1.180023E+01 -2.161186E+00
       164  22  9.290548E+02  1.142913E+02  5.788384E-01 -1.020230E+02 -1.173161E+01 -4.333650E+00
       164  23  9.366725E+02  1.160209E+02  6.089670E-01 -9.666563E+01 -1.131411E+01 -3.339316E+00
       164  24  9.445163E+02  1.182001E+02  9.423836E-01 -9.166682E+01 -1.089660E+01 -2.378093E+00
       164  25  9.381480E+02  1.092353E+02  7.008748E-01 -1.100999E+02 -1.067970E+01 -4.714728E+00
       164  26  9.448508E+02  1.110286E+02  7.248898E-01 -1.043449E+02 -1.029530E+01 -3.638308E+00
       164  27  9.517750E+02  1.132670E+02  1.041444E+00 -9.894837E+01 -9.910886E+00 -2.595001E+00
       165   1  9.973029E+02  8.663443E+01  6.823353E-01 -1.013558E+02  3.567189E+00  1.435078E-01
       165   2  9.962868E+02  8.424956E+01  5.351032E-01 -1.080279E+02  3.685764E+00  1.329225E+00
       165   3  9.954009E+02  8.214646E+01  5.399783E-01 -1.150703E+02  3.804342E+00  2.554147E+00
       165   4  9.909234E+02  9.335285E+01  8.164666E-01 -9.961366E+01  4.718554E+00  1.261321E-01
       165   5  9.889023E+02  9.087386E+01  6.214184E-01 -1.061137E+02  4.876353E+00  1.282413E+00
       165   6  9.870168E+02  8.868207E+01  5.911644E-01 -1.129840E+02  5.034157E+00  2.477900E+00
       165   7  9.848786E+02  1.002134E+02  1.089481E+00 -9.778630E+01  5.840483E+00  1.087564E-01
       165   8  9.818486E+02  9.763618E+01  8.370800E-01 -1.041142E+02  6.037507E+00  1.235602E+00
       165   9  9.789595E+02  9.535162E+01  7.621600E-01 -1.108123E+02  6.234537E+00  2.401654E+00
       165  10  9.973029E+02  8.663443E+01  6.823353E-01 -1.013558E+02 -2.802246E-13  0.000000E+00
       165  11  9.962868E+02  8.424956E+01  5.351032E-01 -1.080279E+02 -2.627105E-13 -2.101684E-13
       165  12  9.954009E+02  8.214646E+01  5.399783E-01 -1.150703E+02  4.466079E-13 -7.142442E-14
       165  13  9.909234E+02  9.335285E+01  8.164666E-01 -9.961366E+01  1.401123E-13  1.050842E-13
       165  14  9.889023E+02  9.087386E+01  6.214184E-01 -1.061137E+02  4.203368E-13  3.524700E-13
       165  15  9.870168E+02  8.868207E+01  5.911644E-01 -1.129840E+02 -3.853088E-13  1.056315E-13
       165  16  9.848786E+02  1.002134E+02  1.089481E+00 -9.778630E+01  5.429351E-13  2.780353E-13
       165  17  9.818486E+02  9.763618E+01  8.370800E-01 -1.041142E+02 -5.254211E-14  4.871091E-13
       165  18  9.789595E+02  9.535162E+01  7.621600E-01 -1.108123E+02 -5.867202E-13  4.020018E-13
       165  19  9.973029E+02  8.663443E+01  6.823353E-01 -1.013558E+02 -3.567189E+00 -1.435078E-01
       165  20  9.962868E+02  8.424956E+01  5.351032E-01 -1.080279E+02 -3.685764E+00 -1.329225E+00
       165  21  9.954009E+02  8.214646E+01  5.399783E-01 -1.150703E+02 -3.804342E+00 -2.554147E+00
       165  22  9.909234E+02  9.335285E+01  8.164666E-01 -9.961366E+01 -4.718554E+00 -1.261321E-01
       165  23  9.889023E+02  9.087386E+01  6.214184E-01 -1.061137E+02 -4.876353E+00 -1.282413E+00
       165  24  9.870168E+02  8.868207E+01  5.911644E-01 -1.129840E+02 -5.034157E+00 -2.477900E+00
       165  25  9.848786E+02  1.002134E+02  1.089481E+00 -9.778630E+01 -5.840483E+00 -1.087564E-01
       165  26  9.818486E+02  9.763618E+01  8.370800E-01 -1.041142E+02 -6.037507E+00 -1.235602E+00
       165  27  9.789595E+02  9.535162E+01  7.621600E-01 -1.108123E+02 -6.234537E+00 -2.401654E+00
       166   1  9.947297E+02  8.092271E+01  5.093956E-01 -1.189941E+02  3.880675E+00  3.287979E+00
       166   2  9.934751E+02  7.879696E+01  4.493727E-01 -1.254612E+02  4.045492E+00  4.589647E+00
       166   3  9.922784E+02  7.677545E+01  4.776500E-01 -1.323573E+02  4.210303E+00  5.937934E+00
       166   4  9.857122E+02  8.742141E+01  5.337822E-01 -1.168346E+02  5.140456E+00  3.192350E+00
       166   5  9.833260E+02  8.527753E+01  4.377167E-01 -1.231686E+02  5.351870E+00  4.456848E+00
       166   6  9.810041E+02  8.324439E+01  4.450808E-01 -1.299315E+02  5.563277E+00  5.767965E+00
       166   7  9.770662E+02  9.407177E+01  6.921184E-01 -1.145474E+02  6.363067E+00  3.096721E+00
       166   8  9.735432E+02  9.190460E+01  5.479617E-01 -1.207482E+02  6.621079E+00  4.324049E+00
       166   9  9.700910E+02  8.985466E+01  5.223639E-01 -1.273779E+02  6.879082E+00  5.597995E+00
       166  10  9.947297E+02  8.092271E+01  5.093956E-01 -1.189941E+02  7.005614E-14  1.379230E-13
       166  11  9.934751E+02  7.879696E+01  4.493727E-01 -1.254612E+02  1.225982E-13 -7.224539E-14
       166  12  9.922784E+02  7.677545E+01  4.776500E-01 -1.323573E+02  2.276825E-13  2.799509E-13
       166  13  9.857122E+02  8.742141E+01  5.337822E-01 -1.168346E+02  6.305053E-13 -1.313553E-14
       166  14  9.833260E+02  8.527753E+01  4.377167E-01 -1.231686E+02  2.101684E-13 -7.224539E-14
       166  15  9.810041E+02  8.324439E+01  4.450808E-01 -1.299315E+02  3.502807E-14  1.915598E-14
       166  16  9.770662E+02  9.407177E+01  6.921184E-01 -1.145474E+02  1.401123E-13  0.000000E+00
       166  17  9.735432E+02  9.190460E+01  5.479617E-01 -1.207482E+02 -8.757018E-14 -1.423015E-13
       166  18  9.700910E+02  8.985466E+01  5.223639E-01 -1.273779E+02 -9.632719E-14  9.194868E-14
       166  19  9.947297E+02  8.092271E+01  5.093956E-01 -1.189941E+02 -3.880675E+00 -3.287979E+00
       166  20  9.934751E+02  7.879696E+01  4.493727E-01 -1.254612E+02 -4.045492E+00 -4.589647E+00
       166  21  9.922784E+02  7.677545E+01  4.776500E-01 -1.323573E+02 -4.210303E+00 -5.937934E+00
       166  22  9.857122E+02  8.742141E+01  5.337822E-01 -1.168346E+02 -5.140456E+00 -3.192350E+00
       166  23  9.833260E+02  8.527753E+01  4.377167E-01 -1.231686E+02 -5.351870E+00 -4.456848E+00
       166  24  9.810041E+02  8.324439E+01  4.450808E-01 -1.299315E+02 -5.563277E+00 -5.767965E+00
       166  25  9.770662E+02  9.407177E+01  6.921184E-01 -1.145474E+02 -6.363067E+00 -3.096721E+00
       166  26  9.735432E+02  9.190460E+01  5.479617E-01 -1.207482E+02 -6.621079E+00 -4.324049E+00
       166  27  9.700910E+02  8.985466E+01  5.223639E-01 -1.273779E+02 -6.879082E+00 -5.597995E+00
       167   1  9.721341E+02  9.786231E+01  7.791799E-01 -1.124282E+02  7.058441E+00  3.024802E+00
       167   2  9.679430E+02  9.562698E+01  5.845859E-01 -1.185237E+02  7.341644E+00  4.227050E+00
       167   3  9.638880E+02  9.365633E+01  5.784200E-01 -1.250263E+02  7.624839E+00  5.469291E+00
       167   4  9.637805E+02  1.037407E+02  7.450364E-01 -1.075752E+02  8.210523E+00  2.860665E+00
       167   5  9.585320E+02  1.015344E+02  5.240916E-01 -1.134062E+02  8.533701E+00  4.002558E+00
       167   6  9.534252E+02  9.959829E+01  5.045546E-01 -1.196442E+02  8.856868E+00  5.184444E+00
       167   7  9.561043E+02  1.098961E+02  9.577262E-01 -1.025862E+02  9.302271E+00  2.696533E+00
       167   8  9.497900E+02  1.077103E+02  6.908659E-01 -1.081527E+02  9.665423E+00  3.778074E+00
       167   9  9.436230E+02  1.058005E+02  6.383929E-01 -1.141262E+02  1.002856E+01  4.899606E+00
       167  10  9.721341E+02  9.786231E+01  7.791799E-01 -1.124282E+02  1.401123E-13 -4.225261E-13
       167  11  9.679430E+02  9.562698E+01  5.845859E-01 -1.185237E+02 -1.225982E-13 -2.780353E-13
       167  12  9.638880E+02  9.365633E+01  5.784200E-01 -1.250263E+02  1.838974E-13 -2.443755E-13
       167  13  9.637805E+02  1.037407E+02  7.450364E-01 -1.075752E+02  7.005614E-14  1.751404E-14
       167  14  9.585320E+02  1.015344E+02  5.240916E-01 -1.134062E+02  2.802246E-13  6.567763E-15
       167  15  9.534252E+02  9.959829E+01  5.045546E-01 -1.196442E+02  2.802246E-13 -5.473136E-16
       167  16  9.561043E+02  1.098961E+02  9.577262E-01 -1.025862E+02  1.751404E-13  5.593545E-13
       167  17  9.497900E+02  1.077103E+02  6.908659E-01 -1.081527E+02 -8.757018E-14  4.931296E-13
       167  18  9.436230E+02  1.058005E+02  6.383929E-01 -1.141262E+02  5.254211E-14  5.240528E-14
       167  19  9.721341E+02  9.786231E+01  7.791799E-01 -1.124282E+02 -7.058441E+00 -3.024802E+00
       167  20  9.679430E+02  9.562698E+01  5.845859E-01 -1.185237E+02 -7.341644E+00 -4.227050E+00
       167  21  9.638880E+02  9.365633E+01  5.784200E-01 -1.250263E+02 -7.624839E+00 -5.469291E+00
       167  22  9.637805E+02  1.037407E+02  7.450364E-01 -1.075752E+02 -8.210523E+00 -2.860665E+00
       167  23  9.585320E+02  1.015344E+02  5.240916E-01 -1.134062E+02 -8.533701E+00 -4.002558E+00
       167  24  9.534252E+02  9.959829E+01  5.045546E-01 -1.196442E+02 -8.856868E+00 -5.184444E+00
       167  25  9.561043E+02  1.098961E+02  9.577262E-01 -1.025862E+02 -9.302271E+00 -2.696533E+00
       167  26  9.497900E+02  1.077103E+02  6.908659E-01 -1.081527E+02 -9.665423E+00 -3.778074E+00
       167  27  9.436230E+02  1.058005E+02  6.383929E-01 -1.141262E+02 -1.002856E+01 -4.899606E+00
       168   1  9.814389E+02  1.041224E+02  1.245054E+00 -9.601747E+01  6.481037E+00  1.011588E-01
       168   2  9.777991E+02  1.013881E+02  9.192727E-01 -1.022205E+02  6.698656E+00  1.207523E+00
       168   3  9.743879E+02  9.914717E+01  8.624663E-01 -1.087679E+02  6.916282E+00  2.345422E+00
       168   4  9.755583E+02  1.101593E+02  1.313383E+00 -9.189880E+01  7.544903E+00  7.694262E-02
       168   5  9.709918E+02  1.073587E+02  9.496122E-01 -9.780515E+01  7.794074E+00  1.129899E+00
       168   6  9.666582E+02  1.050558E+02  8.650150E-01 -1.040559E+02  8.043253E+00  2.214389E+00
       168   7  9.702491E+02  1.164389E+02  1.620108E+00 -8.769450E+01  8.555380E+00  5.272721E-02
       168   8  9.647485E+02  1.135645E+02  1.201045E+00 -9.330419E+01  8.836102E+00  1.052277E+00
       168   9  9.594852E+02  1.111922E+02  1.071355E+00 -9.925830E+01  9.116834E+00  2.083360E+00
       168  10  9.814389E+02  1.041224E+02  1.245054E+00 -9.601747E+01  7.355895E-13 -9.807860E-13
       168  11  9.777991E+02  1.013881E+02  9.192727E-01 -1.022205E+02  1.751404E-14 -7.695229E-13
       168  12  9.743879E+02  9.914717E+01  8.624663E-01 -1.087679E+02 -6.918044E-13 -3.669738E-13
       168  13  9.755583E+02  1.101593E+02  1.313383E+00 -9.189880E+01  1.401123E-13 -1.401123E-13
       168  14  9.709918E+02  1.073587E+02  9.496122E-01 -9.780515E+01 -2.101684E-13 -2.758461E-13
       168  15  9.666582E+02  1.050558E+02  8.650150E-01 -1.040559E+02  3.327667E-13 -1.028950E-13
       168  16  9.702491E+02  1.164389E+02  1.620108E+00 -8.769450E+01 -1.225982E-13  5.604491E-13
       168  17  9.647485E+02  1.135645E+02  1.201045E+00 -9.330419E+01  1.751404E-13  2.074319E-13
       168  18  9.594852E+02  1.111922E+02  1.071355E+00 -9.925830E+01  4.466079E-13  2.103052E-13
       168  19  9.814389E+02  1.041224E+02  1.245054E+00 -9.601747E+01 -6.481037E+00 -1.011588E-01
       168  20  9.777991E+02  1.013881E+02  9.192727E-01 -1.022205E+02 -6.698656E+00 -1.207523E+00
       168  21  9.743879E+02  9.914717E+01  8.624663E-01 -1.087679E+02 -6.916282E+00 -2.345422E+00
       168  22  9.755583E+02  1.101593E+02  1.313383E+00 -9.189880E+01 -7.544903E+00 -7.694262E-02
       168  23  9.709918E+02  1.073587E+02  9.496122E-01 -9.780515E+01 -7.794074E+00 -1.129899E+00
       168  24  9.666582E+02  1.050558E+02  8.650150E-01 -1.040559E+02 -8.043253E+00 -2.214389E+00
       168  25  9.702491E+02  1.164389E+02  1.620108E+00 -8.769450E+01 -8.555380E+00 -5.272721E-02
       168  26  9.647485E+02  1.135645E+02  1.201045E+00 -9.330419E+01 -8.836102E+00 -1.052277E+00
       168  27  9.594852E+02  1.111922E+02  1.071355E+00 -9.925830E+01 -9.116834E+00 -2.083360E+00
       169   1  1.016551E+03 -1.895979E+01 -1.118622E-01 -2.274433E+02  8.465596E+00  3.623760E+01
       169   2  1.011844E+03 -5.460124E+00  5.130366E-01 -2.223375E+02  8.256700E+00  3.366034E+01
       169   3  1.006177E+03  5.759445E+00  2.160752E-01 -2.177775E+02  8.047811E+00  3.115568E+01
       169   4  1.051972E+03 -2.169509E+01  9.920147E-01 -2.194398E+02  5.901156E+00  3.605275E+01
       169   5  1.045660E+03 -8.764722E+00  1.573451E+00 -2.154722E+02  5.764901E+00  3.357386E+01
       169   6  1.038379E+03  1.875448E+00  1.209510E+00 -2.120503E+02  5.628651E+00  3.116757E+01
       169   7  1.085743E+03 -2.512292E+01  1.438049E+00 -2.114653E+02  3.435131E+00  3.586789E+01
       169   8  1.077814E+03 -1.277552E+01  1.944139E+00 -2.086357E+02  3.371516E+00  3.348737E+01
       169   9  1.068904E+03 -2.728408E+00  1.481336E+00 -2.063520E+02  3.307903E+00  3.117945E+01
       169  10  1.016551E+03 -1.895979E+01 -1.118622E-01 -2.274433E+02 -3.502807E-14 -7.005614E-13
       169  11  1.011844E+03 -5.460124E+00  5.130366E-01 -2.223375E+02  2.101684E-13 -2.134523E-13
       169  12  1.006177E+03  5.759445E+00  2.160752E-01 -2.177775E+02  4.466079E-13  6.841420E-14
       169  13  1.051972E+03 -2.169509E+01  9.920147E-01 -2.194398E+02 -3.502807E-13 -3.502807E-14
       169  14  1.045660E+03 -8.764722E+00  1.573451E+00 -2.154722E+02  7.005614E-14  8.757018E-15
       169  15  1.038379E+03  1.875448E+00  1.209510E+00 -2.120503E+02  4.641219E-13 -4.269046E-14
       169  16  1.085743E+03 -2.512292E+01  1.438049E+00 -2.114653E+02 -3.152526E-13  5.626384E-13
       169  17  1.077814E+03 -1.277552E+01  1.944139E+00 -2.086357E+02  3.502807E-14 -1.291660E-13
       169  18  1.068904E+03 -2.728408E+00  1.481336E+00 -2.063520E+02  3.896873E-13 -2.096211E-13
       169  19  1.016551E+03 -1.895979E+01 -1.118622E-01 -2.274433E+02 -8.465596E+00 -3.623760E+01
       169  20  1.011844E+03 -5.460124E+00  5.130366E-01 -2.223375E+02 -8.256700E+00 -3.366034E+01
       169  21  1.006177E+03  5.759445E+00  2.160752E-01 -2.177775E+02 -8.047811E+00 -3.115568E+01
       169  22  1.051972E+03 -2.169509E+01  9.920147E-01 -2.194398E+02 -5.901156E+00 -3.605275E+01
       169  23  1.045660E+03 -8.764722E+00  1.573451E+00 -2.154722E+02 -5.764901E+00 -3.357386E+01
       169  24  1.038379E+03  1.875448E+00  1.209510E+00 -2.120503E+02 -5.628651E+00 -3.116757E+01
       169  25  1.085743E+03 -2.512292E+01  1.438049E+00 -2.114653E+02 -3.435131E+00 -3.586789E+01
       169  26  1.077814E+03 -1.277552E+01  1.944139E+00 -2.086357E+02 -3.371516E+00 -3.348737E+01
       169  27  1.068904E+03 -2.728408E+00  1.481336E+00 -2.063520E+02 -3.307903E+00 -3.117945E+01
       170   1  1.004303E+03  1.198376E+01  4.047794E-01 -2.146171E+02  7.860481E+00  2.974869E+01
       170   2  1.001966E+03  2.173886E+01  7.865656E-01 -2.086451E+02  7.457783E+00  2.742193E+01
       170   3  9.988959E+02  2.970614E+01  5.086743E-01 -2.032487E+02  7.055085E+00  2.517346E+01
       170   4  1.035147E+03  7.651596E+00  1.190358E+00 -2.094962E+02  5.515420E+00  2.980136E+01
       170   5  1.031202E+03  1.706355E+01  1.541717E+00 -2.043178E+02  5.191014E+00  2.751638E+01
       170   6  1.026512E+03  2.467677E+01  1.208013E+00 -1.997151E+02  4.866608E+00  2.530969E+01
       170   7  1.065050E+03  2.910996E+00  1.558194E+00 -2.043182E+02  3.212178E+00  2.985403E+01
       170   8  1.059490E+03  1.197399E+01  1.865576E+00 -1.999335E+02  2.966064E+00  2.761083E+01
       170   9  1.053175E+03  1.922735E+01  1.462509E+00 -1.961244E+02  2.719950E+00  2.544593E+01
       170  10  1.004303E+03  1.198376E+01  4.047794E-01 -2.146171E+02 -5.954772E-13  4.159583E-13
       170  11  1.001966E+03  2.173886E+01  7.865656E-01 -2.086451E+02  5.254211E-14  6.326945E-13
       170  12  9.988959E+02  2.970614E+01  5.086743E-01 -2.032487E+02  3.108741E-13  4.559122E-13
       170  13  1.035147E+03  7.651596E+00  1.190358E+00 -2.094962E+02 -3.502807E-13  1.050842E-13
       170  14  1.031202E+03  1.706355E+01  1.541717E+00 -2.043178E+02  7.005614E-14  1.269768E-13
       170  15  1.026512E+03  2.467677E+01  1.208013E+00 -1.997151E+02  3.152526E-13  9.140137E-14
       170  16  1.065050E+03  2.910996E+00  1.558194E+00 -2.043182E+02  8.757018E-14 -2.802246E-13
       170  17  1.059490E+03  1.197399E+01  1.865576E+00 -1.999335E+02 -1.225982E-13 -1.466800E-13
       170  18  1.053175E+03  1.922735E+01  1.462509E+00 -1.961244E+02 -7.881316E-14 -2.104421E-13
       170  19  1.004303E+03  1.198376E+01  4.047794E-01 -2.146171E+02 -7.860481E+00 -2.974869E+01
       170  20  1.001966E+03  2.173886E+01  7.865656E-01 -2.086451E+02 -7.457783E+00 -2.742193E+01
       170  21  9.988959E+02  2.970614E+01  5.086743E-01 -2.032487E+02 -7.055085E+00 -2.517346E+01
       170  22  1.035147E+03  7.651596E+00  1.190358E+00 -2.094962E+02 -5.515420E+00 -2.980136E+01
       170  23  1.031202E+03  1.706355E+01  1.541717E+00 -2.043178E+02 -5.191014E+00 -2.751638E+01
       170  24  1.026512E+03  2.467677E+01  1.208013E+00 -1.997151E+02 -4.866608E+00 -2.530969E+01
       170  25  1.065050E+03  2.910996E+00  1.558194E+00 -2.043182E+02 -3.212178E+00 -2.985403E+01
       170  26  1.059490E+03  1.197399E+01  1.865576E+00 -1.999335E+02 -2.966064E+00 -2.761083E+01
       170  27  1.053175E+03  1.922735E+01  1.462509E+00 -1.961244E+02 -2.719950E+00 -2.544593E+01
       171   1  1.082357E+03  1.117900E+00  2.031015E+00 -2.000893E+02  1.904463E+00  2.977003E+01
       171   2  1.075856E+03  9.678307E+00  2.215996E+00 -1.962570E+02  1.691758E+00  2.757911E+01
       171   3  1.068723E+03  1.672432E+01  1.808223E+00 -1.928455E+02  1.479054E+00  2.542472E+01
       171   4  1.111635E+03 -9.519556E-01  3.074226E+00 -1.911793E+02 -2.753447E-01  2.937502E+01
       171   5  1.103842E+03  6.997736E+00  3.208589E+00 -1.880773E+02 -4.515277E-01  2.724285E+01
       171   6  1.095411E+03  1.342799E+01  2.738372E+00 -1.853962E+02 -6.277106E-01  2.514720E+01
       171   7  1.139957E+03 -3.400022E+00  3.811997E+00 -1.823494E+02 -2.396441E+00  2.898002E+01
       171   8  1.130863E+03  3.930810E+00  3.876718E+00 -1.799777E+02 -2.536103E+00  2.690660E+01
       171   9  1.121126E+03  9.737156E+00  3.325037E+00 -1.780269E+02 -2.675765E+00  2.486970E+01
       171  10  1.082357E+03  1.117900E+00  2.031015E+00 -2.000893E+02  0.000000E+00 -5.626384E-13
       171  11  1.075856E+03  9.678307E+00  2.215996E+00 -1.962570E+02  7.005614E-14 -4.203368E-13
       171  12  1.068723E+03  1.672432E+01  1.808223E+00 -1.928455E+02 -2.233039E-13 -1.217773E-13
       171  13  1.111635E+03 -9.519556E-01  3.074226E+00 -1.911793E+02  2.802246E-13 -3.502807E-14
       171  14  1.103842E+03  6.997736E+00  3.208589E+00 -1.880773E+02  1.401123E-13 -1.444908E-13
       171  15  1.095411E+03  1.342799E+01  2.738372E+00 -1.853962E+02  3.677947E-13 -3.721732E-14
       171  16  1.139957E+03 -3.400022E+00  3.811997E+00 -1.823494E+02  1.926544E-13  1.423015E-13
       171  17  1.130863E+03  3.930810E+00  3.876718E+00 -1.799777E+02  8.757018E-14 -4.203368E-13
       171  18  1.121126E+03  9.737156E+00  3.325037E+00 -1.780269E+02 -2.233039E-13 -3.141580E-13
       171  19  1.082357E+03  1.117900E+00  2.031015E+00 -2.000893E+02 -1.904463E+00 -2.977003E+01
       171  20  1.075856E+03  9.678307E+00  2.215996E+00 -1.962570E+02 -1.691758E+00 -2.757911E+01
       171  21  1.068723E+03  1.672432E+01  1.808223E+00 -1.928455E+02 -1.479054E+00 -2.542472E+01
       171  22  1.111635E+03 -9.519556E-01  3.074226E+00 -1.911793E+02  2.753447E-01 -2.937502E+01
       171  23  1.103842E+03  6.997736E+00  3.208589E+00 -1.880773E+02  4.515277E-01 -2.724285E+01
       171  24  1.095411E+03  1.342799E+01  2.738372E+00 -1.853962E+02  6.277106E-01 -2.514720E+01
       171  25  1.139957E+03 -3.400022E+00  3.811997E+00 -1.823494E+02  2.396441E+00 -2.898002E+01
       171  26  1.130863E+03  3.930810E+00  3.876718E+00 -1.799777E+02  2.536103E+00 -2.690660E+01
       171  27  1.121126E+03  9.737156E+00  3.325037E+00 -1.780269E+02  2.675765E+00 -2.486970E+01
       172   1  1.105097E+03 -2.580440E+01  2.026118E+00 -2.055691E+02  2.066638E+00  3.563135E+01
       172   2  1.096273E+03 -1.414140E+01  2.385155E+00 -2.035319E+02  2.026172E+00  3.334977E+01
       172   3  1.086654E+03 -4.341269E+00  1.956656E+00 -2.018006E+02  1.985707E+00  3.107507E+01
       172   4  1.137597E+03 -2.549986E+01  3.368279E+00 -1.941492E+02 -1.657946E-01  3.497822E+01
       172   5  1.127693E+03 -1.472598E+01  3.673250E+00 -1.930841E+02 -1.993462E-01  3.280184E+01
       172   6  1.116994E+03 -5.815870E+00  3.188486E+00 -1.923249E+02 -2.328967E-01  3.063235E+01
       172   7  1.168655E+03 -2.576111E+01  4.265235E+00 -1.829406E+02 -2.293056E+00  3.432510E+01
       172   8  1.157657E+03 -1.589092E+01  4.482080E+00 -1.828476E+02 -2.319696E+00  3.225394E+01
       172   9  1.145863E+03 -7.885406E+00  3.906989E+00 -1.830605E+02 -2.346334E+00  3.018964E+01
       172  10  1.105097E+03 -2.580440E+01  2.026118E+00 -2.055691E+02 -2.101684E-13 -2.802246E-13
       172  11  1.096273E+03 -1.414140E+01  2.385155E+00 -2.035319E+02 -7.005614E-14 -2.123577E-13
       172  12  1.086654E+03 -4.341269E+00  1.956656E+00 -2.018006E+02  4.115798E-13 -3.026644E-13
       172  13  1.137597E+03 -2.549986E+01  3.368279E+00 -1.941492E+02 -4.903930E-13  8.757018E-14
       172  14  1.127693E+03 -1.472598E+01  3.673250E+00 -1.930841E+02  2.802246E-13  1.444908E-13
       172  15  1.116994E+03 -5.815870E+00  3.188486E+00 -1.923249E+02  2.276825E-13  8.538092E-14
       172  16  1.168655E+03 -2.576111E+01  4.265235E+00 -1.829406E+02 -3.152526E-13  2.758461E-13
       172  17  1.157657E+03 -1.589092E+01  4.482080E+00 -1.828476E+02  3.502807E-14  8.581877E-13
       172  18  1.145863E+03 -7.885406E+00  3.906989E+00 -1.830605E+02 -6.567763E-14  5.237791E-13
       172  19  1.105097E+03 -2.580440E+01  2.026118E+00 -2.055691E+02 -2.066638E+00 -3.563135E+01
       172  20  1.096273E+03 -1.414140E+01  2.385155E+00 -2.035319E+02 -2.026172E+00 -3.334977E+01
       172  21  1.086654E+03 -4.341269E+00  1.956656E+00 -2.018006E+02 -1.985707E+00 -3.107507E+01
       172  22  1.137597E+03 -2.549986E+01  3.368279E+00 -1.941492E+02  1.657946E-01 -3.497822E+01
       172  23  1.127693E+03 -1.472598E+01  3.673250E+00 -1.930841E+02  1.993462E-01 -3.280184E+01
       172  24  1.116994E+03 -5.815870E+00  3.188486E+00 -1.923249E+02  2.328967E-01 -3.063235E+01
       172  25  1.168655E+03 -2.576111E+01  4.265235E+00 -1.829406E+02  2.293056E+00 -3.432510E+01
       172  26  1.157657E+03 -1.589092E+01  4.482080E+00 -1.828476E+02  2.319696E+00 -3.225394E+01
       172  27  1.145863E+03 -7.885406E+00  3.906989E+00 -1.830605E+02  2.346334E+00 -3.018964E+01
       173   1  9.929885E+02  1.422856E+02  5.623808E+00 -4.999489E+01  6.432563E+00 -5.085214E+00
       173   2  9.949783E+02  1.491135E+02  6.820676E+00 -4.135992E+01  5.600426E+00 -5.810814E+00
       173   3  9.975704E+02  1.571929E+02  8.774071E+00 -3.277227E+01  4.768289E+00 -6.439293E+00
       173   4  9.942633E+02  1.340118E+02  4.774809E+00 -5.211114E+01  5.643300E+00 -5.305146E+00
       173   5  9.958108E+02  1.399860E+02  5.761221E+00 -4.307627E+01  4.908286E+00 -6.060920E+00
       173   6  9.979471E+02  1.471984E+02  7.472694E+00 -3.408872E+01  4.173272E+00 -6.719573E+00
       173   7  9.958320E+02  1.258811E+02  4.109842E+00 -5.448057E+01  4.823875E+00 -5.525085E+00
       173   8  9.969413E+02  1.310059E+02  4.895560E+00 -4.504579E+01  4.185983E+00 -6.311035E+00
       173   9  9.986261E+02  1.373553E+02  6.374874E+00 -3.565834E+01  3.548092E+00 -6.999862E+00
       173  10  9.929885E+02  1.422856E+02  5.623808E+00 -4.999489E+01 -2.802246E-13  4.192422E-13
       173  11  9.949783E+02  1.491135E+02  6.820676E+00 -4.135992E+01 -2.627105E-13 -2.090738E-13
       173  12  9.975704E+02  1.571929E+02  8.774071E+00 -3.277227E+01 -1.401123E-13 -7.881316E-13
       173  13  9.942633E+02  1.340118E+02  4.774809E+00 -5.211114E+01 -4.903930E-13 -4.378509E-15
       173  14  9.958108E+02  1.399860E+02  5.761221E+00 -4.307627E+01 -2.802246E-13  6.786689E-14
       173  15  9.979471E+02  1.471984E+02  7.472694E+00 -3.408872E+01 -3.502807E-13  4.116785E-14
       173  16  9.958320E+02  1.258811E+02  4.109842E+00 -5.448057E+01  1.050842E-13 -4.203368E-13
       173  17  9.969413E+02  1.310059E+02  4.895560E+00 -4.504579E+01 -1.751404E-14  4.914876E-13
       173  18  9.986261E+02  1.373553E+02  6.374874E+00 -3.565834E+01  2.627105E-14  7.183491E-13
       173  19  9.929885E+02  1.422856E+02  5.623808E+00 -4.999489E+01 -6.432563E+00  5.085214E+00
       173  20  9.949783E+02  1.491135E+02  6.820676E+00 -4.135992E+01 -5.600426E+00  5.810814E+00
       173  21  9.975704E+02  1.571929E+02  8.774071E+00 -3.277227E+01 -4.768289E+00  6.439293E+00
       173  22  9.942633E+02  1.340118E+02  4.774809E+00 -5.211114E+01 -5.643300E+00  5.305146E+00
       173  23  9.958108E+02  1.399860E+02  5.761221E+00 -4.307627E+01 -4.908286E+00  6.060920E+00
       173  24  9.979471E+02  1.471984E+02  7.472694E+00 -3.408872E+01 -4.173272E+00  6.719573E+00
       173  25  9.958320E+02  1.258811E+02  4.109842E+00 -5.448057E+01 -4.823875E+00  5.525085E+00
       173  26  9.969413E+02  1.310059E+02  4.895560E+00 -4.504579E+01 -4.185983E+00  6.311035E+00
       173  27  9.986261E+02  1.373553E+02  6.374874E+00 -3.565834E+01 -3.548092E+00  6.999862E+00
       174   1  9.986345E+02  1.623525E+02  1.001009E+01 -2.715162E+01  4.117643E+00 -6.763883E+00
       174   2  9.990264E+02  1.719691E+02  1.222284E+01 -1.575703E+01  2.443815E+00 -7.175046E+00
       174   3  1.000309E+03  1.833533E+02  1.563593E+01 -4.211090E+00  7.699305E-01 -7.371651E+00
       174   4  9.988252E+02  1.516966E+02  8.534181E+00 -2.810952E+01  3.592350E+00 -7.056932E+00
       174   5  9.990867E+02  1.599245E+02  1.039182E+01 -1.622236E+01  2.133075E+00 -7.481804E+00
       174   6  1.000209E+03  1.698902E+02  1.338027E+01 -4.183822E+00  6.737500E-01 -7.692114E+00
       174   7  9.992449E+02  1.411618E+02  7.233820E+00 -2.954570E+01  3.053356E+00 -7.349991E+00
       174   8  9.993779E+02  1.480028E+02  8.740753E+00 -1.716598E+01  1.808632E+00 -7.788572E+00
       174   9  1.000342E+03  1.565518E+02  1.130899E+01 -4.634859E+00  5.638674E-01 -8.012588E+00
       174  10  9.986345E+02  1.623525E+02  1.001009E+01 -2.715162E+01  1.225982E-13 -6.983721E-13
       174  11  9.990264E+02  1.719691E+02  1.222284E+01 -1.575703E+01  2.977386E-13 -5.593545E-13
       174  12  1.000309E+03  1.833533E+02  1.563593E+01 -4.211090E+00 -1.663833E-13 -1.044001E-13
       174  13  9.988252E+02  1.516966E+02  8.534181E+00 -2.810952E+01  4.203368E-13  1.751404E-14
       174  14  9.990867E+02  1.599245E+02  1.039182E+01 -1.622236E+01  5.604491E-13 -6.896151E-14
       174  15  1.000209E+03  1.698902E+02  1.338027E+01 -4.183822E+00 -1.926544E-13  1.614575E-14
       174  16  9.992449E+02  1.411618E+02  7.233820E+00 -2.954570E+01  5.429351E-13  6.983721E-13
       174  17  9.993779E+02  1.480028E+02  8.740753E+00 -1.716598E+01  3.677947E-13  4.909403E-13
       174  18  1.000342E+03  1.565518E+02  1.130899E+01 -4.634859E+00 -7.005614E-14  5.473136E-16
       174  19  9.986345E+02  1.623525E+02  1.001009E+01 -2.715162E+01 -4.117643E+00  6.763883E+00
       174  20  9.990264E+02  1.719691E+02  1.222284E+01 -1.575703E+01 -2.443815E+00  7.175046E+00
       174  21  1.000309E+03  1.833533E+02  1.563593E+01 -4.211090E+00 -7.699305E-01  7.371651E+00
       174  22  9.988252E+02  1.516966E+02  8.534181E+00 -2.810952E+01 -3.592350E+00  7.056932E+00
       174  23  9.990867E+02  1.599245E+02  1.039182E+01 -1.622236E+01 -2.133075E+00  7.481804E+00
       174  24  1.000209E+03  1.698902E+02  1.338027E+01 -4.183822E+00 -6.737500E-01  7.692114E+00
       174  25  9.992449E+02  1.411618E+02  7.233820E+00 -2.954570E+01 -3.053356E+00  7.349991E+00
       174  26  9.993779E+02  1.480028E+02  8.740753E+00 -1.716598E+01 -1.808632E+00  7.788572E+00
       174  27  1.000342E+03  1.565518E+02  1.130899E+01 -4.634859E+00 -5.638674E-01  8.012588E+00
       175   1  9.993501E+02  1.344765E+02  6.300119E+00 -3.002519E+01  2.729816E+00 -7.472649E+00
       175   2  9.995460E+02  1.408203E+02  7.739151E+00 -1.742981E+01  1.614090E+00 -7.922735E+00
       175   3  1.000096E+03  1.477827E+02  9.738477E+00 -4.677862E+00  4.983259E-01 -8.144063E+00
       175   4  9.996622E+02  1.230811E+02  4.786023E+00 -3.013373E+01  2.163839E+00 -7.571651E+00
       175   5  9.997082E+02  1.279498E+02  5.846276E+00 -1.738824E+01  1.276858E+00 -8.024794E+00
       175   6  1.000076E+03  1.334054E+02  7.392698E+00 -4.486171E+00  3.898467E-01 -8.249180E+00
       175   7  1.000050E+03  1.117258E+02  3.330397E+00 -3.074859E+01  1.594805E+00 -7.670653E+00
       175   8  9.999462E+02  1.151199E+02  4.012863E+00 -1.785300E+01  9.365687E-01 -8.126853E+00
       175   9  1.000133E+03  1.190691E+02  5.107371E+00 -4.800811E+00  2.783101E-01 -8.354296E+00
       175  10  9.993501E+02  1.344765E+02  6.300119E+00 -3.002519E+01  7.005614E-14  1.094627E-15
       175  11  9.995460E+02  1.408203E+02  7.739151E+00 -1.742981E+01 -2.802246E-13 -2.785826E-13
       175  12  1.000096E+03  1.477827E+02  9.738477E+00 -4.677862E+00 -4.203368E-13 -1.348444E-12
       175  13  9.996622E+02  1.230811E+02  4.786023E+00 -3.013373E+01 -4.203368E-13 -5.254211E-14
       175  14  9.997082E+02  1.279498E+02  5.846276E+00 -1.738824E+01 -8.406737E-13 -6.567763E-14
       175  15  1.000076E+03  1.334054E+02  7.392698E+00 -4.486171E+00 -7.005614E-13 -3.502807E-14
       175  16  1.000050E+03  1.117258E+02  3.330397E+00 -3.074859E+01  0.000000E+00  2.791299E-13
       175  17  9.999462E+02  1.151199E+02  4.012863E+00 -1.785300E+01 -4.028228E-13  5.615438E-13
       175  18  1.000133E+03  1.190691E+02  5.107371E+00 -4.800811E+00 -3.415237E-13  8.249384E-13
       175  19  9.993501E+02  1.344765E+02  6.300119E+00 -3.002519E+01 -2.729816E+00  7.472649E+00
       175  20  9.995460E+02  1.408203E+02  7.739151E+00 -1.742981E+01 -1.614090E+00  7.922735E+00
       175  21  1.000096E+03  1.477827E+02  9.738477E+00 -4.677862E+00 -4.983259E-01  8.144063E+00
       175  22  9.996622E+02  1.230811E+02  4.786023E+00 -3.013373E+01 -2.163839E+00  7.571651E+00
       175  23  9.997082E+02  1.279498E+02  5.846276E+00 -1.738824E+01 -1.276858E+00  8.024794E+00
       175  24  1.000076E+03  1.334054E+02  7.392698E+00 -4.486171E+00 -3.898467E-01  8.249180E+00
       175  25  1.000050E+03  1.117258E+02  3.330397E+00 -3.074859E+01 -1.594805E+00  7.670653E+00
       175  26  9.999462E+02  1.151199E+02  4.012863E+00 -1.785300E+01 -9.365687E-01  8.126853E+00
       175  27  1.000133E+03  1.190691E+02  5.107371E+00 -4.800811E+00 -2.783101E-01  8.354296E+00
       176   1  9.966613E+02  1.206856E+02  3.582117E+00 -5.538428E+01  4.331817E+00 -5.619787E+00
       176   2  9.976302E+02  1.256140E+02  4.378186E+00 -4.578132E+01  3.752751E+00 -6.420419E+00
       176   3  9.988560E+02  1.310347E+02  5.538397E+00 -3.624288E+01  3.173685E+00 -7.116021E+00
       176   4  9.982053E+02  1.117577E+02  2.729597E+00 -5.600817E+01  3.474926E+00 -5.700745E+00
       176   5  9.986782E+02  1.158101E+02  3.307700E+00 -4.625080E+01  3.000890E+00 -6.508864E+00
       176   6  9.993935E+02  1.203400E+02  4.215908E+00 -3.655795E+01  2.526854E+00 -7.211954E+00
       176   7  9.998891E+02  1.028962E+02  1.958444E+00 -5.688664E+01  2.610547E+00 -5.781703E+00
       176   8  9.998672E+02  1.060735E+02  2.321007E+00 -4.697486E+01  2.241542E+00 -6.597310E+00
       176   9  1.000073E+03  1.097139E+02  2.979638E+00 -3.712760E+01  1.872536E+00 -7.307887E+00
       176  10  9.966613E+02  1.206856E+02  3.582117E+00 -5.538428E+01 -1.401123E-13  2.758461E-13
       176  11  9.976302E+02  1.256140E+02  4.378186E+00 -4.578132E+01  1.401123E-13  3.513753E-13
       176  12  9.988560E+02  1.310347E+02  5.538397E+00 -3.624288E+01 -3.502807E-13  2.810455E-13
       176  13  9.982053E+02  1.117577E+02  2.729597E+00 -5.600817E+01  1.401123E-13 -5.254211E-14
       176  14  9.986782E+02  1.158101E+02  3.307700E+00 -4.625080E+01 -2.802246E-13  4.378509E-15
       176  15  9.993935E+02  1.203400E+02  4.215908E+00 -3.655795E+01  1.751404E-14 -6.118768E-14
       176  16  9.998891E+02  1.028962E+02  1.958444E+00 -5.688664E+01 -8.757018E-14 -4.203368E-13
       176  17  9.998672E+02  1.060735E+02  2.321007E+00 -4.697486E+01  0.000000E+00 -4.225261E-13
       176  18  1.000073E+03  1.097139E+02  2.979638E+00 -3.712760E+01  2.276825E-13  4.871091E-14
       176  19  9.966613E+02  1.206856E+02  3.582117E+00 -5.538428E+01 -4.331817E+00  5.619787E+00
       176  20  9.976302E+02  1.256140E+02  4.378186E+00 -4.578132E+01 -3.752751E+00  6.420419E+00
       176  21  9.988560E+02  1.310347E+02  5.538397E+00 -3.624288E+01 -3.173685E+00  7.116021E+00
       176  22  9.982053E+02  1.117577E+02  2.729597E+00 -5.600817E+01 -3.474926E+00  5.700745E+00
       176  23  9.986782E+02  1.158101E+02  3.307700E+00 -4.625080E+01 -3.000890E+00  6.508864E+00
       176  24  9.993935E+02  1.203400E+02  4.215908E+00 -3.655795E+01 -2.526854E+00  7.211954E+00
       176  25  9.998891E+02  1.028962E+02  1.958444E+00 -5.688664E+01 -2.610547E+00  5.781703E+00
       176  26  9.998672E+02  1.060735E+02  2.321007E+00 -4.697486E+01 -2.241542E+00  6.597310E+00
       176  27  1.000073E+03  1.097139E+02  2.979638E+00 -3.712760E+01 -1.872536E+00  7.307887E+00
       177   1  1.173418E+03  9.304699E+00  5.783785E+00 -1.046185E+02 -1.188830E+01  1.140797E+01
       177   2  1.187870E+03  8.362789E+00  6.955505E+00 -1.071473E+02 -1.204995E+01  1.290758E+01
       177   3  1.202103E+03  6.938145E+00  7.877574E+00 -1.102015E+02 -1.221160E+01  1.445102E+01
       177   4  1.156999E+03  1.298421E+01  4.826771E+00 -1.170470E+02 -1.036482E+01  1.239241E+01
       177   5  1.169908E+03  1.165747E+01  5.792033E+00 -1.199679E+02 -1.048263E+01  1.398360E+01
       177   6  1.182603E+03  9.854082E+00  6.521855E+00 -1.234142E+02 -1.060044E+01  1.561862E+01
       177   7  1.139804E+03  1.640906E+01  3.797658E+00 -1.294213E+02 -8.749739E+00  1.337682E+01
       177   8  1.151182E+03  1.471019E+01  4.586147E+00 -1.327342E+02 -8.823714E+00  1.505958E+01
       177   9  1.162353E+03  1.254078E+01  5.153405E+00 -1.365726E+02 -8.897688E+00  1.678617E+01
       177  10  1.173418E+03  9.304699E+00  5.783785E+00 -1.046185E+02 -8.757018E-14  2.889816E-13
       177  11  1.187870E+03  8.362789E+00  6.955505E+00 -1.071473E+02  5.254211E-14  4.422294E-13
       177  12  1.202103E+03  6.938145E+00  7.877574E+00 -1.102015E+02 -1.225982E-13  6.315999E-13
       177  13  1.156999E+03  1.298421E+01  4.826771E+00 -1.170470E+02 -3.502807E-13 -1.225982E-13
       177  14  1.169908E+03  1.165747E+01  5.792033E+00 -1.199679E+02 -1.401123E-13 -2.189254E-13
       177  15  1.182603E+03  9.854082E+00  6.521855E+00 -1.234142E+02  7.005614E-14 -8.100241E-14
       177  16  1.139804E+03  1.640906E+01  3.797658E+00 -1.294213E+02 -7.531035E-13 -7.049399E-13
       177  17  1.151182E+03  1.471019E+01  4.586147E+00 -1.327342E+02 -1.751404E-14 -6.217482E-13
       177  18  1.162353E+03  1.254078E+01  5.153405E+00 -1.365726E+02  9.457579E-13 -4.898457E-13
       177  19  1.173418E+03  9.304699E+00  5.783785E+00 -1.046185E+02  1.188830E+01 -1.140797E+01
       177  20  1.187870E+03  8.362789E+00  6.955505E+00 -1.071473E+02  1.204995E+01 -1.290758E+01
       177  21  1.202103E+03  6.938145E+00  7.877574E+00 -1.102015E+02  1.221160E+01 -1.445102E+01
       177  22  1.156999E+03  1.298421E+01  4.826771E+00 -1.170470E+02  1.036482E+01 -1.239241E+01
       177  23  1.169908E+03  1.165747E+01  5.792033E+00 -1.199679E+02  1.048263E+01 -1.398360E+01
       177  24  1.182603E+03  9.854082E+00  6.521855E+00 -1.234142E+02  1.060044E+01 -1.561862E+01
       177  25  1.139804E+03  1.640906E+01  3.797658E+00 -1.294213E+02  8.749739E+00 -1.337682E+01
       177  26  1.151182E+03  1.471019E+01  4.586147E+00 -1.327342E+02  8.823714E+00 -1.505958E+01
       177  27  1.162353E+03  1.254078E+01  5.153405E+00 -1.365726E+02  8.897688E+00 -1.678617E+01
       178   1  1.210914E+03  6.207524E+00  8.584751E+00 -1.115593E+02 -1.227389E+01  1.536704E+01
       178   2  1.226273E+03  4.778753E+00  9.807567E+00 -1.129414E+02 -1.228546E+01  1.695802E+01
       178   3  1.241388E+03  2.781719E+00  1.078400E+01 -1.148077E+02 -1.229704E+01  1.857197E+01
       178   4  1.190272E+03  8.742102E+00  6.999301E+00 -1.249523E+02 -1.064520E+01  1.658994E+01
       178   5  1.204142E+03  6.764631E+00  8.005494E+00 -1.266720E+02 -1.063378E+01  1.827939E+01
       178   6  1.217770E+03  4.222072E+00  8.772730E+00 -1.288758E+02 -1.062236E+01  1.999181E+01
       178   7  1.169185E+03  1.118263E+01  5.546549E+00 -1.383592E+02 -8.918007E+00  1.781279E+01
       178   8  1.181579E+03  8.670138E+00  6.368035E+00 -1.404164E+02 -8.883597E+00  1.960071E+01
       178   9  1.193735E+03  5.595731E+00  6.957986E+00 -1.429578E+02 -8.849187E+00  2.141159E+01
       178  10  1.210914E+03  6.207524E+00  8.584751E+00 -1.115593E+02 -7.005614E-14  7.005614E-13
       178  11  1.226273E+03  4.778753E+00  9.807567E+00 -1.129414E+02 -8.757018E-14  4.882037E-13
       178  12  1.241388E+03  2.781719E+00  1.078400E+01 -1.148077E+02  6.129912E-14  5.544287E-13
       178  13  1.190272E+03  8.742102E+00  6.999301E+00 -1.249523E+02 -1.401123E-13  0.000000E+00
       178  14  1.204142E+03  6.764631E+00  8.005494E+00 -1.266720E+02  0.000000E+00 -8.757018E-15
       178  15  1.217770E+03  4.222072E+00  8.772730E+00 -1.288758E+02  5.254211E-14  9.851645E-15
       178  16  1.169185E+03  1.118263E+01  5.546549E+00 -1.383592E+02  8.757018E-14 -4.203368E-13
       178  17  1.181579E+03  8.670138E+00  6.368035E+00 -1.404164E+02 -1.050842E-13 -2.189254E-15
       178  18  1.193735E+03  5.595731E+00  6.957986E+00 -1.429578E+02 -3.853088E-13 -5.473136E-15
       178  19  1.210914E+03  6.207524E+00  8.584751E+00 -1.115593E+02  1.227389E+01 -1.536704E+01
       178  20  1.226273E+03  4.778753E+00  9.807567E+00 -1.129414E+02  1.228546E+01 -1.695802E+01
       178  21  1.241388E+03  2.781719E+00  1.078400E+01 -1.148077E+02  1.229704E+01 -1.857197E+01
       178  22  1.190272E+03  8.742102E+00  6.999301E+00 -1.249523E+02  1.064520E+01 -1.658994E+01
       178  23  1.204142E+03  6.764631E+00  8.005494E+00 -1.266720E+02  1.063378E+01 -1.827939E+01
       178  24  1.217770E+03  4.222072E+00  8.772730E+00 -1.288758E+02  1.062236E+01 -1.999181E+01
       178  25  1.169185E+03  1.118263E+01  5.546549E+00 -1.383592E+02  8.918007E+00 -1.781279E+01
       178  26  1.181579E+03  8.670138E+00  6.368035E+00 -1.404164E+02  8.883597E+00 -1.960071E+01
       178  27  1.193735E+03  5.595731E+00  6.957986E+00 -1.429578E+02  8.849187E+00 -2.141159E+01
       179   1  1.156796E+03  1.285992E+01  4.868818E+00 -1.449928E+02 -7.873863E+00  1.830043E+01
       179   2  1.168397E+03  1.010251E+01  5.632572E+00 -1.473013E+02 -7.822860E+00  2.012259E+01
       179   3  1.179626E+03  6.464738E+00  6.032691E+00 -1.500517E+02 -7.771856E+00  2.197875E+01
       179   4  1.135358E+03  1.647404E+01  4.002486E+00 -1.545880E+02 -6.042340E+00  1.892540E+01
       179   5  1.145607E+03  1.316847E+01  4.641248E+00 -1.573483E+02 -5.957308E+00  2.080038E+01
       179   6  1.155489E+03  8.987245E+00  4.927371E+00 -1.605507E+02 -5.872272E+00  2.270937E+01
       179   7  1.113313E+03  1.987762E+01  3.041353E+00 -1.642235E+02 -4.157993E+00  1.955036E+01
       179   8  1.122218E+03  1.603123E+01  3.572236E+00 -1.674358E+02 -4.038929E+00  2.147818E+01
       179   9  1.130759E+03  1.131388E+01  3.761477E+00 -1.710900E+02 -3.919861E+00  2.343999E+01
       179  10  1.156796E+03  1.285992E+01  4.868818E+00 -1.449928E+02  2.451965E-13  1.313553E-13
       179  11  1.168397E+03  1.010251E+01  5.632572E+00 -1.473013E+02  5.254211E-14 -1.401123E-13
       179  12  1.179626E+03  6.464738E+00  6.032691E+00 -1.500517E+02  1.401123E-13  3.913292E-13
       179  13  1.135358E+03  1.647404E+01  4.002486E+00 -1.545880E+02  2.802246E-13  8.757018E-15
       179  14  1.145607E+03  1.316847E+01  4.641248E+00 -1.573483E+02  1.401123E-13  4.378509E-15
       179  15  1.155489E+03  8.987245E+00  4.927371E+00 -1.605507E+02 -2.451965E-13  6.567763E-15
       179  16  1.113313E+03  1.987762E+01  3.041353E+00 -1.642235E+02  2.451965E-13 -4.378509E-15
       179  17  1.122218E+03  1.603123E+01  3.572236E+00 -1.674358E+02  5.254211E-14  6.567763E-14
       179  18  1.130759E+03  1.131388E+01  3.761477E+00 -1.710900E+02 -7.005614E-14  0.000000E+00
       179  19  1.156796E+03  1.285992E+01  4.868818E+00 -1.449928E+02  7.873863E+00 -1.830043E+01
       179  20  1.168397E+03  1.010251E+01  5.632572E+00 -1.473013E+02  7.822860E+00 -2.012259E+01
       179  21  1.179626E+03  6.464738E+00  6.032691E+00 -1.500517E+02  7.771856E+00 -2.197875E+01
       179  22  1.135358E+03  1.647404E+01  4.002486E+00 -1.545880E+02  6.042340E+00 -1.892540E+01
       179  23  1.145607E+03  1.316847E+01  4.641248E+00 -1.573483E+02  5.957308E+00 -2.080038E+01
       179  24  1.155489E+03  8.987245E+00  4.927371E+00 -1.605507E+02  5.872272E+00 -2.270937E+01
       179  25  1.113313E+03  1.987762E+01  3.041353E+00 -1.642235E+02  4.157993E+00 -1.955036E+01
       179  26  1.122218E+03  1.603123E+01  3.572236E+00 -1.674358E+02  4.038929E+00 -2.147818E+01
       179  27  1.130759E+03  1.131388E+01  3.761477E+00 -1.710900E+02  3.919861E+00 -2.343999E+01
       180   1  1.129635E+03  1.880096E+01  3.371352E+00 -1.354729E+02 -7.773120E+00  1.377523E+01
       180   2  1.140168E+03  1.690926E+01  4.087033E+00 -1.390305E+02 -7.819447E+00  1.548875E+01
       180   3  1.150416E+03  1.436014E+01  4.508706E+00 -1.430737E+02 -7.865774E+00  1.725345E+01
       180   4  1.111911E+03  2.347614E+01  2.835045E+00 -1.440785E+02 -6.064547E+00  1.429027E+01
       180   5  1.121032E+03  2.120426E+01  3.430293E+00 -1.480265E+02 -6.059701E+00  1.604506E+01
       180   6  1.129874E+03  1.828207E+01  3.748116E+00 -1.524602E+02 -6.054855E+00  1.785103E+01
       180   7  1.093543E+03  2.791611E+01  2.158903E+00 -1.526534E+02 -4.314702E+00  1.480531E+01
       180   8  1.101257E+03  2.526979E+01  2.647094E+00 -1.569919E+02 -4.258682E+00  1.660138E+01
       180   9  1.108699E+03  2.198026E+01  2.874444E+00 -1.618161E+02 -4.202663E+00  1.844862E+01
       180  10  1.129635E+03  1.880096E+01  3.371352E+00 -1.354729E+02 -7.706175E-13  0.000000E+00
       180  11  1.140168E+03  1.690926E+01  4.087033E+00 -1.390305E+02  3.502807E-14  1.401123E-13
       180  12  1.150416E+03  1.436014E+01  4.508706E+00 -1.430737E+02  6.742904E-13  7.115077E-15
       180  13  1.111911E+03  2.347614E+01  2.835045E+00 -1.440785E+02 -1.401123E-13  1.050842E-13
       180  14  1.121032E+03  2.120426E+01  3.430293E+00 -1.480265E+02  1.401123E-13  1.488693E-13
       180  15  1.129874E+03  1.828207E+01  3.748116E+00 -1.524602E+02  8.056456E-13  8.100241E-14
       180  16  1.093543E+03  2.791611E+01  2.158903E+00 -1.526534E+02  8.757018E-14  4.247154E-13
       180  17  1.101257E+03  2.526979E+01  2.647094E+00 -1.569919E+02  1.050842E-13  2.802246E-13
       180  18  1.108699E+03  2.198026E+01  2.874444E+00 -1.618161E+02  3.940658E-14  7.334002E-14
       180  19  1.129635E+03  1.880096E+01  3.371352E+00 -1.354729E+02  7.773120E+00 -1.377523E+01
       180  20  1.140168E+03  1.690926E+01  4.087033E+00 -1.390305E+02  7.819447E+00 -1.548875E+01
       180  21  1.150416E+03  1.436014E+01  4.508706E+00 -1.430737E+02  7.865774E+00 -1.725345E+01
       180  22  1.111911E+03  2.347614E+01  2.835045E+00 -1.440785E+02  6.064547E+00 -1.429027E+01
       180  23  1.121032E+03  2.120426E+01  3.430293E+00 -1.480265E+02  6.059701E+00 -1.604506E+01
       180  24  1.129874E+03  1.828207E+01  3.748116E+00 -1.524602E+02  6.054855E+00 -1.785103E+01
       180  25  1.093543E+03  2.791611E+01  2.158903E+00 -1.526534E+02  4.314702E+00 -1.480531E+01
       180  26  1.101257E+03  2.526979E+01  2.647094E+00 -1.569919E+02  4.258682E+00 -1.660138E+01
       180  27  1.108699E+03  2.198026E+01  2.874444E+00 -1.618161E+02  4.202663E+00 -1.844862E+01
       181   1  1.001143E+03  8.380438E+01  5.635999E-01 -9.756490E+01  2.838602E+00 -5.252471E-01
       181   2  1.001202E+03  8.621364E+01  6.325611E-01 -9.005574E+01  2.738268E+00 -1.649345E+00
       181   3  1.001319E+03  8.874180E+01  7.790250E-01 -8.285884E+01  2.637933E+00 -2.725225E+00
       181   4  1.007043E+03  7.659195E+01  2.970196E-01 -9.681757E+01  1.693589E+00 -5.314254E-01
       181   5  1.006205E+03  7.878453E+01  3.020007E-01 -8.925837E+01  1.641473E+00 -1.649093E+00
       181   6  1.005420E+03  8.108933E+01  3.688589E-01 -8.201145E+01  1.589356E+00 -2.718543E+00
       181   7  1.013014E+03  6.940995E+01  6.225420E-02 -9.604281E+01  5.550245E-01 -5.376040E-01
       181   8  1.011279E+03  7.138498E+01  1.166584E-03 -8.843358E+01  5.511267E-01 -1.648841E+00
       181   9  1.009590E+03  7.346553E+01 -1.366932E-02 -8.113663E+01  5.472289E-01 -2.711860E+00
       181  10  1.001143E+03  8.380438E+01  5.635999E-01 -9.756490E+01  5.604491E-13 -1.444908E-13
       181  11  1.001202E+03  8.621364E+01  6.325611E-01 -9.005574E+01 -8.757018E-14 -1.423015E-13
       181  12  1.001319E+03  8.874180E+01  7.790250E-01 -8.285884E+01 -3.327667E-13  1.915598E-14
       181  13  1.007043E+03  7.659195E+01  2.970196E-01 -9.681757E+01  4.203368E-13 -1.444908E-13
       181  14  1.006205E+03  7.878453E+01  3.020007E-01 -8.925837E+01  0.000000E+00 -2.145469E-13
       181  15  1.005420E+03  8.108933E+01  3.688589E-01 -8.201145E+01 -1.926544E-13 -1.450381E-13
       181  16  1.013014E+03  6.940995E+01  6.225420E-02 -9.604281E+01  1.050842E-13  1.357338E-13
       181  17  1.011279E+03  7.138498E+01  1.166584E-03 -8.843358E+01  2.276825E-13 -4.378509E-15
       181  18  1.009590E+03  7.346553E+01 -1.366932E-02 -8.113663E+01  1.751404E-14 -8.784383E-14
       181  19  1.001143E+03  8.380438E+01  5.635999E-01 -9.756490E+01 -2.838602E+00  5.252471E-01
       181  20  1.001202E+03  8.621364E+01  6.325611E-01 -9.005574E+01 -2.738268E+00  1.649345E+00
       181  21  1.001319E+03  8.874180E+01  7.790250E-01 -8.285884E+01 -2.637933E+00  2.725225E+00
       181  22  1.007043E+03  7.659195E+01  2.970196E-01 -9.681757E+01 -1.693589E+00  5.314254E-01
       181  23  1.006205E+03  7.878453E+01  3.020007E-01 -8.925837E+01 -1.641473E+00  1.649093E+00
       181  24  1.005420E+03  8.108933E+01  3.688589E-01 -8.201145E+01 -1.589356E+00  2.718543E+00
       181  25  1.013014E+03  6.940995E+01  6.225420E-02 -9.604281E+01 -5.550245E-01  5.376040E-01
       181  26  1.011279E+03  7.138498E+01  1.166584E-03 -8.843358E+01 -5.511267E-01  1.648841E+00
       181  27  1.009590E+03  7.346553E+01 -1.366932E-02 -8.113663E+01 -5.472289E-01  2.711860E+00
       182   1  1.001272E+03  9.028466E+01  8.624145E-01 -7.841461E+01  2.568886E+00 -3.331526E+00
       182   2  1.001122E+03  9.303939E+01  1.045542E+00 -7.007939E+01  2.399933E+00 -4.330924E+00
       182   3  1.000977E+03  9.577623E+01  1.265696E+00 -6.196856E+01  2.230975E+00 -5.269292E+00
       182   4  1.004894E+03  8.244690E+01  3.980039E-01 -7.749689E+01  1.546805E+00 -3.318419E+00
       182   5  1.004004E+03  8.478996E+01  4.745365E-01 -6.916010E+01  1.438866E+00 -4.302169E+00
       182   6  1.003111E+03  8.710663E+01  5.683068E-01 -6.104770E+01  1.330923E+00 -5.224888E+00
       182   7  1.008560E+03  7.462691E+01 -5.084850E-02 -7.663992E+01  5.403898E-01 -3.305311E+00
       182   8  1.006928E+03  7.655611E+01 -8.598961E-02 -6.830155E+01  4.934640E-01 -4.273412E+00
       182   9  1.005285E+03  7.845044E+01 -1.236832E-01 -6.018759E+01  4.465367E-01 -5.180482E+00
       182  10  1.001272E+03  9.028466E+01  8.624145E-01 -7.841461E+01 -3.677947E-13 -1.379230E-13
       182  11  1.001122E+03  9.303939E+01  1.045542E+00 -7.007939E+01 -2.451965E-13 -7.224539E-14
       182  12  1.000977E+03  9.577623E+01  1.265696E+00 -6.196856E+01  2.364395E-13 -7.251905E-14
       182  13  1.004894E+03  8.244690E+01  3.980039E-01 -7.749689E+01 -4.203368E-13 -6.129912E-14
       182  14  1.004004E+03  8.478996E+01  4.745365E-01 -6.916010E+01  0.000000E+00 -1.401123E-13
       182  15  1.003111E+03  8.710663E+01  5.683068E-01 -6.104770E+01  1.050842E-13 -5.582599E-14
       182  16  1.008560E+03  7.462691E+01 -5.084850E-02 -7.663992E+01 -6.129912E-13 -4.378509E-15
       182  17  1.006928E+03  7.655611E+01 -8.598961E-02 -6.830155E+01 -5.254211E-14 -2.101684E-13
       182  18  1.005285E+03  7.845044E+01 -1.236832E-01 -6.018759E+01  5.254211E-13 -6.868786E-14
       182  19  1.001272E+03  9.028466E+01  8.624145E-01 -7.841461E+01 -2.568886E+00  3.331526E+00
       182  20  1.001122E+03  9.303939E+01  1.045542E+00 -7.007939E+01 -2.399933E+00  4.330924E+00
       182  21  1.000977E+03  9.577623E+01  1.265696E+00 -6.196856E+01 -2.230975E+00  5.269292E+00
       182  22  1.004894E+03  8.244690E+01  3.980039E-01 -7.749689E+01 -1.546805E+00  3.318419E+00
       182  23  1.004004E+03  8.478996E+01  4.745365E-01 -6.916010E+01 -1.438866E+00  4.302169E+00
       182  24  1.003111E+03  8.710663E+01  5.683068E-01 -6.104770E+01 -1.330923E+00  5.224888E+00
       182  25  1.008560E+03  7.462691E+01 -5.084850E-02 -7.663992E+01 -5.403898E-01  3.305311E+00
       182  26  1.006928E+03  7.655611E+01 -8.598961E-02 -6.830155E+01 -4.934640E-01  4.273412E+00
       182  27  1.005285E+03  7.845044E+01 -1.236832E-01 -6.018759E+01 -4.465367E-01  5.180482E+00
       183   1  1.010663E+03  6.996635E+01 -3.565196E-01 -7.549709E+01 -3.921871E-02 -3.277256E+00
       183   2  1.008662E+03  7.181127E+01 -3.926835E-01 -6.719983E+01 -4.844048E-02 -4.231919E+00
       183   3  1.006486E+03  7.324405E+01 -6.030630E-01 -5.913189E+01 -5.766255E-02 -5.118009E+00
       183   4  1.014338E+03  6.228427E+01 -7.760689E-01 -7.251292E+01 -1.005460E+00 -3.223702E+00
       183   5  1.011623E+03  6.381826E+01 -8.956298E-01 -6.437705E+01 -9.461254E-01 -4.132997E+00
       183   6  1.008721E+03  6.493060E+01 -1.211638E+00 -5.647050E+01 -8.867889E-01 -4.973720E+00
       183   7  1.017855E+03  5.453024E+01 -1.277688E+00 -6.955627E+01 -1.926350E+00 -3.170150E+00
       183   8  1.014418E+03  5.574702E+01 -1.495343E+00 -6.158178E+01 -1.798458E+00 -4.034079E+00
       183   9  1.010786E+03  5.653262E+01 -1.931677E+00 -5.383662E+01 -1.670562E+00 -4.829436E+00
       183  10  1.010663E+03  6.996635E+01 -3.565196E-01 -7.549709E+01 -5.779632E-13  2.189254E-15
       183  11  1.008662E+03  7.181127E+01 -3.926835E-01 -6.719983E+01 -1.751404E-14 -4.914876E-13
       183  12  1.006486E+03  7.324405E+01 -6.030630E-01 -5.913189E+01  3.853088E-13 -7.355895E-13
       183  13  1.014338E+03  6.228427E+01 -7.760689E-01 -7.251292E+01 -2.802246E-13  1.401123E-13
       183  14  1.011623E+03  6.381826E+01 -8.956298E-01 -6.437705E+01 -1.401123E-13  2.670890E-13
       183  15  1.008721E+03  6.493060E+01 -1.211638E+00 -5.647050E+01 -3.502807E-13  8.975943E-14
       183  16  1.017855E+03  5.453024E+01 -1.277688E+00 -6.955627E+01  1.926544E-13  4.203368E-13
       183  17  1.014418E+03  5.574702E+01 -1.495343E+00 -6.158178E+01  0.000000E+00  6.305053E-13
       183  18  1.010786E+03  5.653262E+01 -1.931677E+00 -5.383662E+01 -2.802246E-13  7.569347E-13
       183  19  1.010663E+03  6.996635E+01 -3.565196E-01 -7.549709E+01  3.921871E-02  3.277256E+00
       183  20  1.008662E+03  7.181127E+01 -3.926835E-01 -6.719983E+01  4.844048E-02  4.231919E+00
       183  21  1.006486E+03  7.324405E+01 -6.030630E-01 -5.913189E+01  5.766255E-02  5.118009E+00
       183  22  1.014338E+03  6.228427E+01 -7.760689E-01 -7.251292E+01  1.005460E+00  3.223702E+00
       183  23  1.011623E+03  6.381826E+01 -8.956298E-01 -6.437705E+01  9.461254E-01  4.132997E+00
       183  24  1.008721E+03  6.493060E+01 -1.211638E+00 -5.647050E+01  8.867889E-01  4.973720E+00
       183  25  1.017855E+03  5.453024E+01 -1.277688E+00 -6.955627E+01  1.926350E+00  3.170150E+00
       183  26  1.014418E+03  5.574702E+01 -1.495343E+00 -6.158178E+01  1.798458E+00  4.034079E+00
       183  27  1.010786E+03  5.653262E+01 -1.931677E+00 -5.383662E+01  1.670562E+00  4.829436E+00
       184   1  1.016450E+03  6.510378E+01 -1.234066E-01 -9.487987E+01 -1.069745E-01 -5.428895E-01
       184   2  1.014238E+03  6.704288E+01 -1.828836E-01 -8.727924E+01 -7.931673E-02 -1.648411E+00
       184   3  1.011980E+03  6.888029E+01 -2.932571E-01 -7.998355E+01 -5.165900E-02 -2.693709E+00
       184   4  1.022351E+03  5.796429E+01 -3.597323E-01 -9.170328E+01 -1.225668E+00 -5.801579E-01
       184   5  1.019273E+03  5.971523E+01 -4.732433E-01 -8.418777E+01 -1.137789E+00 -1.651798E+00
       184   6  1.016142E+03  6.135613E+01 -6.571664E-01 -7.697719E+01 -1.049909E+00 -2.663217E+00
       184   7  1.028058E+03  5.074472E+01 -6.694737E-01 -8.849302E+01 -2.310499E+00 -6.174251E-01
       184   8  1.024110E+03  5.230279E+01 -8.479945E-01 -8.106262E+01 -2.162398E+00 -1.655185E+00
       184   9  1.020099E+03  5.374246E+01 -1.116443E+00 -7.393715E+01 -2.014296E+00 -2.632725E+00
       184  10  1.016450E+03  6.510378E+01 -1.234066E-01 -9.487987E+01 -7.005614E-14 -2.846031E-13
       184  11  1.014238E+03  6.704288E+01 -1.828836E-01 -8.727924E+01 -1.751404E-14  2.900762E-13
       184  12  1.011980E+03  6.888029E+01 -2.932571E-01 -7.998355E+01  3.502807E-13 -1.756877E-13
       184  13  1.022351E+03  5.796429E+01 -3.597323E-01 -9.170328E+01 -3.502807E-13  9.632719E-14
       184  14  1.019273E+03  5.971523E+01 -4.732433E-01 -8.418777E+01 -1.401123E-13  8.319167E-14
       184  15  1.016142E+03  6.135613E+01 -6.571664E-01 -7.697719E+01 -2.101684E-13  9.632719E-14
       184  16  1.028058E+03  5.074472E+01 -6.694737E-01 -8.849302E+01  4.028228E-13  1.401123E-13
       184  17  1.024110E+03  5.230279E+01 -8.479945E-01 -8.106262E+01  5.254211E-14  2.123577E-13
       184  18  1.020099E+03  5.374246E+01 -1.116443E+00 -7.393715E+01 -2.889816E-13  5.667432E-13
       184  19  1.016450E+03  6.510378E+01 -1.234066E-01 -9.487987E+01  1.069745E-01  5.428895E-01
       184  20  1.014238E+03  6.704288E+01 -1.828836E-01 -8.727924E+01  7.931673E-02  1.648411E+00
       184  21  1.011980E+03  6.888029E+01 -2.932571E-01 -7.998355E+01  5.165900E-02  2.693709E+00
       184  22  1.022351E+03  5.796429E+01 -3.597323E-01 -9.170328E+01  1.225668E+00  5.801579E-01
       184  23  1.019273E+03  5.971523E+01 -4.732433E-01 -8.418777E+01  1.137789E+00  1.651798E+00
       184  24  1.016142E+03  6.135613E+01 -6.571664E-01 -7.697719E+01  1.049909E+00  2.663217E+00
       184  25  1.028058E+03  5.074472E+01 -6.694737E-01 -8.849302E+01  2.310499E+00  6.174251E-01
       184  26  1.024110E+03  5.230279E+01 -8.479945E-01 -8.106262E+01  2.162398E+00  1.655185E+00
       184  27  1.020099E+03  5.374246E+01 -1.116443E+00 -7.393715E+01  2.014296E+00  2.632725E+00
       185   1  1.089491E+03  2.937772E+01  1.987071E+00 -1.496993E+02 -4.313400E+00  1.378596E+01
       185   2  1.082919E+03  3.170822E+01  1.749494E+00 -1.440846E+02 -4.285391E+00  1.208531E+01
       185   3  1.076155E+03  3.359838E+01  1.315691E+00 -1.389569E+02 -4.257380E+00  1.044554E+01
       185   4  1.107015E+03  2.473894E+01  2.593032E+00 -1.413546E+02 -6.026668E+00  1.329327E+01
       185   5  1.099076E+03  2.681457E+01  2.274116E+00 -1.360813E+02 -5.937807E+00  1.162817E+01
       185   6  1.090937E+03  2.844138E+01  1.739220E+00 -1.312949E+02 -5.848944E+00  1.002395E+01
       185   7  1.123848E+03  1.984345E+01  3.033531E+00 -1.329408E+02 -7.704391E+00  1.280059E+01
       185   8  1.114537E+03  2.165927E+01  2.621751E+00 -1.280089E+02 -7.554680E+00  1.117103E+01
       185   9  1.105018E+03  2.301779E+01  1.974236E+00 -1.235640E+02 -7.404964E+00  9.602352E+00
       185  10  1.089491E+03  2.937772E+01  1.987071E+00 -1.496993E+02  2.627105E-13  2.802246E-13
       185  11  1.082919E+03  3.170822E+01  1.749494E+00 -1.440846E+02 -8.757018E-14  3.502807E-13
       185  12  1.076155E+03  3.359838E+01  1.315691E+00 -1.389569E+02 -3.283882E-13  2.025060E-14
       185  13  1.107015E+03  2.473894E+01  2.593032E+00 -1.413546E+02  7.005614E-14  0.000000E+00
       185  14  1.099076E+03  2.681457E+01  2.274116E+00 -1.360813E+02  0.000000E+00  5.692061E-14
       185  15  1.090937E+03  2.844138E+01  1.739220E+00 -1.312949E+02 -3.502807E-14 -2.408180E-14
       185  16  1.123848E+03  1.984345E+01  3.033531E+00 -1.329408E+02  1.751404E-13 -2.846031E-13
       185  17  1.114537E+03  2.165927E+01  2.621751E+00 -1.280089E+02  5.254211E-14 -8.757018E-15
       185  18  1.105018E+03  2.301779E+01  1.974236E+00 -1.235640E+02 -2.758461E-13 -1.860866E-14
       185  19  1.089491E+03  2.937772E+01  1.987071E+00 -1.496993E+02  4.313400E+00 -1.378596E+01
       185  20  1.082919E+03  3.170822E+01  1.749494E+00 -1.440846E+02  4.285391E+00 -1.208531E+01
       185  21  1.076155E+03  3.359838E+01  1.315691E+00 -1.389569E+02  4.257380E+00 -1.044554E+01
       185  22  1.107015E+03  2.473894E+01  2.593032E+00 -1.413546E+02  6.026668E+00 -1.329327E+01
       185  23  1.099076E+03  2.681457E+01  2.274116E+00 -1.360813E+02  5.937807E+00 -1.162817E+01
       185  24  1.090937E+03  2.844138E+01  1.739220E+00 -1.312949E+02  5.848944E+00 -1.002395E+01
       185  25  1.123848E+03  1.984345E+01  3.033531E+00 -1.329408E+02  7.704391E+00 -1.280059E+01
       185  26  1.114537E+03  2.165927E+01  2.621751E+00 -1.280089E+02  7.554680E+00 -1.117103E+01
       185  27  1.105018E+03  2.301779E+01  1.974236E+00 -1.235640E+02  7.404964E+00 -9.602352E+00
       186   1  1.072555E+03  3.467552E+01  1.152706E+00 -1.356250E+02 -4.206161E+00  9.519971E+00
       186   2  1.066676E+03  3.645953E+01  9.236578E-01 -1.294627E+02 -4.097630E+00  7.982435E+00
       186   3  1.060671E+03  3.797040E+01  5.489297E-01 -1.237573E+02 -3.989103E+00  6.511081E+00
       186   4  1.086545E+03  2.937678E+01  1.516507E+00 -1.281531E+02 -5.759471E+00  9.118802E+00
       186   5  1.079400E+03  3.097117E+01  1.216788E+00 -1.222910E+02 -5.584732E+00  7.615919E+00
       186   6  1.072120E+03  3.228325E+01  7.499633E-01 -1.168856E+02 -5.409999E+00  6.179219E+00
       186   7  1.099799E+03  2.379433E+01  1.670889E+00 -1.206000E+02 -7.278127E+00  8.717633E+00
       186   8  1.091383E+03  2.519429E+01  1.289274E+00 -1.150380E+02 -7.037181E+00  7.249403E+00
       186   9  1.082824E+03  2.630277E+01  7.191289E-01 -1.099326E+02 -6.796243E+00  5.847357E+00
       186  10  1.072555E+03  3.467552E+01  1.152706E+00 -1.356250E+02  1.401123E-13  4.290939E-13
       186  11  1.066676E+03  3.645953E+01  9.236578E-01 -1.294627E+02  2.276825E-13  4.247154E-13
       186  12  1.060671E+03  3.797040E+01  5.489297E-01 -1.237573E+02 -1.838974E-13  6.868786E-13
       186  13  1.086545E+03  2.937678E+01  1.516507E+00 -1.281531E+02 -7.005614E-14 -3.502807E-14
       186  14  1.079400E+03  3.097117E+01  1.216788E+00 -1.222910E+02  2.802246E-13 -7.443465E-14
       186  15  1.072120E+03  3.228325E+01  7.499633E-01 -1.168856E+02  2.627105E-13 -2.517643E-14
       186  16  1.099799E+03  2.379433E+01  1.670889E+00 -1.206000E+02 -1.576263E-13 -1.357338E-13
       186  17  1.091383E+03  2.519429E+01  1.289274E+00 -1.150380E+02  3.502807E-14 -4.838252E-13
       186  18  1.082824E+03  2.630277E+01  7.191289E-01 -1.099326E+02  3.765518E-13 -5.248737E-13
       186  19  1.072555E+03  3.467552E+01  1.152706E+00 -1.356250E+02  4.206161E+00 -9.519971E+00
       186  20  1.066676E+03  3.645953E+01  9.236578E-01 -1.294627E+02  4.097630E+00 -7.982435E+00
       186  21  1.060671E+03  3.797040E+01  5.489297E-01 -1.237573E+02  3.989103E+00 -6.511081E+00
       186  22  1.086545E+03  2.937678E+01  1.516507E+00 -1.281531E+02  5.759471E+00 -9.118802E+00
       186  23  1.079400E+03  3.097117E+01  1.216788E+00 -1.222910E+02  5.584732E+00 -7.615919E+00
       186  24  1.072120E+03  3.228325E+01  7.499633E-01 -1.168856E+02  5.409999E+00 -6.179219E+00
       186  25  1.099799E+03  2.379433E+01  1.670889E+00 -1.206000E+02  7.278127E+00 -8.717633E+00
       186  26  1.091383E+03  2.519429E+01  1.289274E+00 -1.150380E+02  7.037181E+00 -7.249403E+00
       186  27  1.082824E+03  2.630277E+01  7.191289E-01 -1.099326E+02  6.796243E+00 -5.847357E+00
       187   1  1.107354E+03  2.082433E+01  1.842855E+00 -1.152410E+02 -8.144661E+00  8.417075E+00
       187   2  1.098165E+03  2.207284E+01  1.388002E+00 -1.098794E+02 -7.865498E+00  6.979737E+00
       187   3  1.088827E+03  2.302269E+01  7.314441E-01 -1.049931E+02 -7.586345E+00  5.607496E+00
       187   4  1.119968E+03  1.658479E+01  2.414839E+00 -1.042400E+02 -9.574690E+00  7.702438E+00
       187   5  1.109448E+03  1.763732E+01  1.838234E+00 -9.932878E+01 -9.230406E+00  6.344887E+00
       187   6  1.098769E+03  1.838218E+01  1.038851E+00 -9.489281E+01 -8.886134E+00  5.052434E+00
       187   7  1.131365E+03  1.188002E+01  2.654179E+00 -9.314654E+01 -1.092491E+01  6.987777E+00
       187   8  1.119502E+03  1.272552E+01  1.929973E+00 -8.868563E+01 -1.051550E+01  5.710016E+00
       187   9  1.107473E+03  1.325433E+01  9.619137E-01 -8.470001E+01 -1.010611E+01  4.497354E+00
       187  10  1.107354E+03  2.082433E+01  1.842855E+00 -1.152410E+02  1.225982E-13 -7.005614E-13
       187  11  1.098165E+03  2.207284E+01  1.388002E+00 -1.098794E+02  1.401123E-13 -5.100963E-13
       187  12  1.088827E+03  2.302269E+01  7.314441E-01 -1.049931E+02  2.846031E-13 -5.308942E-14
       187  13  1.119968E+03  1.658479E+01  2.414839E+00 -1.042400E+02  2.101684E-13 -8.757018E-15
       187  14  1.109448E+03  1.763732E+01  1.838234E+00 -9.932878E+01  7.005614E-14  4.378509E-15
       187  15  1.098769E+03  1.838218E+01  1.038851E+00 -9.489281E+01  4.028228E-13  1.860866E-14
       187  16  1.131365E+03  1.188002E+01  2.654179E+00 -9.314654E+01  0.000000E+00  5.516921E-13
       187  17  1.119502E+03  1.272552E+01  1.929973E+00 -8.868563E+01 -7.005614E-14  5.626384E-13
       187  18  1.107473E+03  1.325433E+01  9.619137E-01 -8.470001E+01  4.290939E-13  3.064956E-14
       187  19  1.107354E+03  2.082433E+01  1.842855E+00 -1.152410E+02  8.144661E+00 -8.417075E+00
       187  20  1.098165E+03  2.207284E+01  1.388002E+00 -1.098794E+02  7.865498E+00 -6.979737E+00
       187  21  1.088827E+03  2.302269E+01  7.314441E-01 -1.049931E+02  7.586345E+00 -5.607496E+00
       187  22  1.119968E+03  1.658479E+01  2.414839E+00 -1.042400E+02  9.574690E+00 -7.702438E+00
       187  23  1.109448E+03  1.763732E+01  1.838234E+00 -9.932878E+01  9.230406E+00 -6.344887E+00
       187  24  1.098769E+03  1.838218E+01  1.038851E+00 -9.489281E+01  8.886134E+00 -5.052434E+00
       187  25  1.131365E+03  1.188002E+01  2.654179E+00 -9.314654E+01  1.092491E+01 -6.987777E+00
       187  26  1.119502E+03  1.272552E+01  1.929973E+00 -8.868563E+01  1.051550E+01 -5.710016E+00
       187  27  1.107473E+03  1.325433E+01  9.619137E-01 -8.470001E+01  1.010611E+01 -4.497354E+00
       188   1  1.133551E+03  1.735451E+01  3.426347E+00 -1.270190E+02 -8.662211E+00  1.242030E+01
       188   2  1.123374E+03  1.892619E+01  2.908009E+00 -1.222895E+02 -8.478315E+00  1.082426E+01
       188   3  1.113020E+03  2.011807E+01  2.178095E+00 -1.180789E+02 -8.294414E+00  9.284873E+00
       188   4  1.149907E+03  1.376125E+01  4.377238E+00 -1.149016E+02 -1.024398E+01  1.148733E+01
       188   5  1.138261E+03  1.507630E+01  3.715332E+00 -1.106008E+02 -1.000346E+01  9.976457E+00
       188   6  1.126430E+03  1.600364E+01  2.823463E+00 -1.068189E+02 -9.762933E+00  8.522235E+00
       188   7  1.165245E+03  9.805657E+00  5.138836E+00 -1.026965E+02 -1.174055E+01  1.055432E+01
       188   8  1.152119E+03  1.085224E+01  4.305749E+00 -9.882452E+01 -1.144341E+01  9.128621E+00
       188   9  1.138799E+03  1.150323E+01  3.224310E+00 -9.547132E+01 -1.114626E+01  7.759571E+00
       188  10  1.133551E+03  1.735451E+01  3.426347E+00 -1.270190E+02 -3.502807E-14 -7.049399E-13
       188  11  1.123374E+03  1.892619E+01  2.908009E+00 -1.222895E+02  0.000000E+00 -7.574820E-13
       188  12  1.113020E+03  2.011807E+01  2.178095E+00 -1.180789E+02 -2.276825E-13 -5.642803E-13
       188  13  1.149907E+03  1.376125E+01  4.377238E+00 -1.149016E+02  0.000000E+00 -3.502807E-14
       188  14  1.138261E+03  1.507630E+01  3.715332E+00 -1.106008E+02  7.005614E-14 -8.757018E-15
       188  15  1.126430E+03  1.600364E+01  2.823463E+00 -1.068189E+02 -8.757018E-14 -2.408180E-14
       188  16  1.165245E+03  9.805657E+00  5.138836E+00 -1.026965E+02 -8.757018E-14  5.692061E-13
       188  17  1.152119E+03  1.085224E+01  4.305749E+00 -9.882452E+01 -1.751404E-14  7.093184E-13
       188  18  1.138799E+03  1.150323E+01  3.224310E+00 -9.547132E+01  1.751404E-13  5.303469E-13
       188  19  1.133551E+03  1.735451E+01  3.426347E+00 -1.270190E+02  8.662211E+00 -1.242030E+01
       188  20  1.123374E+03  1.892619E+01  2.908009E+00 -1.222895E+02  8.478315E+00 -1.082426E+01
       188  21  1.113020E+03  2.011807E+01  2.178095E+00 -1.180789E+02  8.294414E+00 -9.284873E+00
       188  22  1.149907E+03  1.376125E+01  4.377238E+00 -1.149016E+02  1.024398E+01 -1.148733E+01
       188  23  1.138261E+03  1.507630E+01  3.715332E+00 -1.106008E+02  1.000346E+01 -9.976457E+00
       188  24  1.126430E+03  1.600364E+01  2.823463E+00 -1.068189E+02  9.762933E+00 -8.522235E+00
       188  25  1.165245E+03  9.805657E+00  5.138836E+00 -1.026965E+02  1.174055E+01 -1.055432E+01
       188  26  1.152119E+03  1.085224E+01  4.305749E+00 -9.882452E+01  1.144341E+01 -9.128621E+00
       188  27  1.138799E+03  1.150323E+01  3.224310E+00 -9.547132E+01  1.114626E+01 -7.759571E+00
       189   1  1.231607E+03 -3.884645E-01  1.404605E+01 -7.660343E+00 -1.656332E+01  9.193471E-01
       189   2  1.221478E+03  9.594643E-01  1.192249E+01 -2.932257E+01 -1.621671E+01  3.323786E+00
       189   3  1.209332E+03  1.633605E+00  9.570531E+00 -5.071216E+01 -1.552581E+01  5.728144E+00
       189   4  1.208903E+03 -1.883389E-01  1.122394E+01 -6.976535E+00 -1.607732E+01  7.558345E-01
       189   5  1.200820E+03  1.232574E+00  9.655337E+00 -2.788683E+01 -1.575263E+01  2.815984E+00
       189   6  1.190673E+03  1.931894E+00  7.746761E+00 -4.852450E+01 -1.508364E+01  4.876065E+00
       189   7  1.186010E+03 -3.373885E-01  8.123303E+00 -7.007442E+00 -1.559130E+01  6.142470E-01
       189   8  1.179977E+03  1.159593E+00  7.116797E+00 -2.716579E+01 -1.528853E+01  2.330107E+00
       189   9  1.171831E+03  1.887180E+00  5.658743E+00 -4.705153E+01 -1.464146E+01  4.045910E+00
       189  10  1.231607E+03 -3.884645E-01  1.404605E+01 -7.660343E+00  3.853088E-13  4.553649E-13
       189  11  1.221478E+03  9.594643E-01  1.192249E+01 -2.932257E+01  5.604491E-13  6.567763E-14
       189  12  1.209332E+03  1.633605E+00  9.570531E+00 -5.071216E+01 -2.539535E-13 -5.303469E-13
       189  13  1.208903E+03 -1.883389E-01  1.122394E+01 -6.976535E+00 -5.254211E-14 -8.757018E-14
       189  14  1.200820E+03  1.232574E+00  9.655337E+00 -2.788683E+01  1.401123E-13  1.401123E-13
       189  15  1.190673E+03  1.931894E+00  7.746761E+00 -4.852450E+01  7.005614E-14 -1.247875E-13
       189  16  1.186010E+03 -3.373885E-01  8.123303E+00 -7.007442E+00 -2.802246E-13 -1.401123E-13
       189  17  1.179977E+03  1.159593E+00  7.116797E+00 -2.716579E+01  2.101684E-13  6.129912E-14
       189  18  1.171831E+03  1.887180E+00  5.658743E+00 -4.705153E+01  2.889816E-13  3.721732E-14
       189  19  1.231607E+03 -3.884645E-01  1.404605E+01 -7.660343E+00  1.656332E+01 -9.193471E-01
       189  20  1.221478E+03  9.594643E-01  1.192249E+01 -2.932257E+01  1.621671E+01 -3.323786E+00
       189  21  1.209332E+03  1.633605E+00  9.570531E+00 -5.071216E+01  1.552581E+01 -5.728144E+00
       189  22  1.208903E+03 -1.883389E-01  1.122394E+01 -6.976535E+00  1.607732E+01 -7.558345E-01
       189  23  1.200820E+03  1.232574E+00  9.655337E+00 -2.788683E+01  1.575263E+01 -2.815984E+00
       189  24  1.190673E+03  1.931894E+00  7.746761E+00 -4.852450E+01  1.508364E+01 -4.876065E+00
       189  25  1.186010E+03 -3.373885E-01  8.123303E+00 -7.007442E+00  1.559130E+01 -6.142470E-01
       189  26  1.179977E+03  1.159593E+00  7.116797E+00 -2.716579E+01  1.528853E+01 -2.330107E+00
       189  27  1.171831E+03  1.887180E+00  5.658743E+00 -4.705153E+01  1.464146E+01 -4.045910E+00
       190   1  1.201915E+03  2.787780E+00  8.578349E+00 -6.160871E+01 -1.496941E+01  6.804585E+00
       190   2  1.188687E+03  5.599426E+00  7.277118E+00 -7.812356E+01 -1.385682E+01  8.345086E+00
       190   3  1.174018E+03  7.915519E+00  5.765610E+00 -9.448345E+01 -1.256812E+01  9.885588E+00
       190   4  1.184369E+03  3.220165E+00  6.997282E+00 -5.910511E+01 -1.454739E+01  5.803682E+00
       190   5  1.172884E+03  6.249537E+00  6.022051E+00 -7.505273E+01 -1.348211E+01  7.168077E+00
       190   6  1.159933E+03  8.758883E+00  4.779459E+00 -9.084538E+01 -1.224074E+01  8.532472E+00
       190   7  1.166622E+03  3.263656E+00  5.137643E+00 -5.720926E+01 -1.412535E+01  4.850118E+00
       190   8  1.156887E+03  6.517358E+00  4.503784E+00 -7.258962E+01 -1.310740E+01  6.038407E+00
       190   9  1.145661E+03  9.226563E+00  3.545481E+00 -8.781503E+01 -1.191334E+01  7.226695E+00
       190  10  1.201915E+03  2.787780E+00  8.578349E+00 -6.160871E+01  0.000000E+00 -3.502807E-14
       190  11  1.188687E+03  5.599426E+00  7.277118E+00 -7.812356E+01  7.005614E-14 -1.094627E-14
       190  12  1.174018E+03  7.915519E+00  5.765610E+00 -9.448345E+01 -5.692061E-14 -1.477747E-14
       190  13  1.184369E+03  3.220165E+00  6.997282E+00 -5.910511E+01  5.254211E-14 -1.751404E-14
       190  14  1.172884E+03  6.249537E+00  6.022051E+00 -7.505273E+01  7.005614E-14 -9.632719E-14
       190  15  1.159933E+03  8.758883E+00  4.779459E+00 -9.084538E+01  8.003972E-14  1.565317E-13
       190  16  1.166622E+03  3.263656E+00  5.137643E+00 -5.720926E+01  1.751404E-13 -3.021171E-13
       190  17  1.156887E+03  6.517358E+00  4.503784E+00 -7.258962E+01  3.502807E-13  2.408180E-14
       190  18  1.145661E+03  9.226563E+00  3.545481E+00 -8.781503E+01 -8.757018E-14  4.000862E-13
       190  19  1.201915E+03  2.787780E+00  8.578349E+00 -6.160871E+01  1.496941E+01 -6.804585E+00
       190  20  1.188687E+03  5.599426E+00  7.277118E+00 -7.812356E+01  1.385682E+01 -8.345086E+00
       190  21  1.174018E+03  7.915519E+00  5.765610E+00 -9.448345E+01  1.256812E+01 -9.885588E+00
       190  22  1.184369E+03  3.220165E+00  6.997282E+00 -5.910511E+01  1.454739E+01 -5.803682E+00
       190  23  1.172884E+03  6.249537E+00  6.022051E+00 -7.505273E+01  1.348211E+01 -7.168077E+00
       190  24  1.159933E+03  8.758883E+00  4.779459E+00 -9.084538E+01  1.224074E+01 -8.532472E+00
       190  25  1.166622E+03  3.263656E+00  5.137643E+00 -5.720926E+01  1.412535E+01 -4.850118E+00
       190  26  1.156887E+03  6.517358E+00  4.503784E+00 -7.258962E+01  1.310740E+01 -6.038407E+00
       190  27  1.145661E+03  9.226563E+00  3.545481E+00 -8.781503E+01  1.191334E+01 -7.226695E+00
       191   1  1.156774E+03  3.350693E+00  4.168934E+00 -5.575581E+01 -1.382680E+01  4.311650E+00
       191   2  1.148172E+03  6.795980E+00  3.791090E+00 -7.078056E+01 -1.282783E+01  5.402384E+00
       191   3  1.137741E+03  9.544123E+00  2.918088E+00 -8.566271E+01 -1.166972E+01  6.493118E+00
       191   4  1.141023E+03  3.749986E+00  2.825080E+00 -5.289104E+01 -1.327187E+01  3.419868E+00
       191   5  1.133958E+03  7.369660E+00  2.726935E+00 -6.725759E+01 -1.232814E+01  4.351464E+00
       191   6  1.125042E+03  1.027010E+01  2.082074E+00 -8.148155E+01 -1.122528E+01  5.283061E+00
       191   7  1.125056E+03  3.749101E+00  1.163144E+00 -5.056512E+01 -1.271695E+01  2.583320E+00
       191   8  1.119536E+03  7.550805E+00  1.362570E+00 -6.427348E+01 -1.182847E+01  3.355779E+00
       191   9  1.112143E+03  1.061119E+01  9.637223E-01 -7.783924E+01 -1.078087E+01  4.128238E+00
       191  10  1.156774E+03  3.350693E+00  4.168934E+00 -5.575581E+01 -4.553649E-13 -4.203368E-13
       191  11  1.148172E+03  6.795980E+00  3.791090E+00 -7.078056E+01 -4.553649E-13 -3.064956E-14
       191  12  1.137741E+03  9.544123E+00  2.918088E+00 -8.566271E+01 -1.707618E-13 -6.677226E-14
       191  13  1.141023E+03  3.749986E+00  2.825080E+00 -5.289104E+01 -1.751404E-14 -5.604491E-13
       191  14  1.133958E+03  7.369660E+00  2.726935E+00 -6.725759E+01 -1.401123E-13 -1.050842E-13
       191  15  1.125042E+03  1.027010E+01  2.082074E+00 -8.148155E+01  3.299828E-14  1.882759E-13
       191  16  1.125056E+03  3.749101E+00  1.163144E+00 -5.056512E+01  5.254211E-13  1.751404E-14
       191  17  1.119536E+03  7.550805E+00  1.362570E+00 -6.427348E+01  2.802246E-13 -4.816360E-14
       191  18  1.112143E+03  1.061119E+01  9.637223E-01 -7.783924E+01  1.620048E-13 -1.964856E-13
       191  19  1.156774E+03  3.350693E+00  4.168934E+00 -5.575581E+01  1.382680E+01 -4.311650E+00
       191  20  1.148172E+03  6.795980E+00  3.791090E+00 -7.078056E+01  1.282783E+01 -5.402384E+00
       191  21  1.137741E+03  9.544123E+00  2.918088E+00 -8.566271E+01  1.166972E+01 -6.493118E+00
       191  22  1.141023E+03  3.749986E+00  2.825080E+00 -5.289104E+01  1.327187E+01 -3.419868E+00
       191  23  1.133958E+03  7.369660E+00  2.726935E+00 -6.725759E+01  1.232814E+01 -4.351464E+00
       191  24  1.125042E+03  1.027010E+01  2.082074E+00 -8.148155E+01  1.122528E+01 -5.283061E+00
       191  25  1.125056E+03  3.749101E+00  1.163144E+00 -5.056512E+01  1.271695E+01 -2.583320E+00
       191  26  1.119536E+03  7.550805E+00  1.362570E+00 -6.427348E+01  1.182847E+01 -3.355779E+00
       191  27  1.112143E+03  1.061119E+01  9.637223E-01 -7.783924E+01  1.078087E+01 -4.128238E+00
       192   1  1.173032E+03 -4.903792E-01  6.345977E+00 -6.907485E+00 -1.525070E+01  5.298357E-01
       192   2  1.168488E+03  1.207154E+00  5.803510E+00 -2.649965E+01 -1.493951E+01  2.056931E+00
       192   3  1.161372E+03  1.923323E+00  4.562560E+00 -4.585372E+01 -1.432392E+01  3.583975E+00
       192   4  1.152798E+03 -2.635447E-01  3.939705E+00 -6.217192E+00 -1.462198E+01  3.834454E-01
       192   5  1.150033E+03  1.493725E+00  3.876804E+00 -2.492237E+01 -1.433598E+01  1.606140E+00
       192   6  1.144653E+03  2.227400E+00  3.016803E+00 -4.338948E+01 -1.374558E+01  2.828793E+00
       192   7  1.132341E+03 -4.436317E-01  1.192993E+00 -6.148646E+00 -1.399328E+01  2.622342E-01
       192   8  1.131358E+03  1.376846E+00  1.617790E+00 -2.396683E+01 -1.373247E+01  1.180528E+00
       192   9  1.127718E+03  2.131497E+00  1.146869E+00 -4.154698E+01 -1.316725E+01  2.098790E+00
       192  10  1.173032E+03 -4.903792E-01  6.345977E+00 -6.907485E+00  7.005614E-13  1.576263E-13
       192  11  1.168488E+03  1.207154E+00  5.803510E+00 -2.649965E+01 -3.502807E-14  1.313553E-13
       192  12  1.161372E+03  1.923323E+00  4.562560E+00 -4.585372E+01 -6.173697E-13  2.025060E-13
       192  13  1.152798E+03 -2.635447E-01  3.939705E+00 -6.217192E+00 -1.751404E-14  4.903930E-13
       192  14  1.150033E+03  1.493725E+00  3.876804E+00 -2.492237E+01 -1.401123E-13  3.590377E-13
       192  15  1.144653E+03  2.227400E+00  3.016803E+00 -4.338948E+01  3.502807E-14  1.357338E-13
       192  16  1.132341E+03 -4.436317E-01  1.192993E+00 -6.148646E+00 -2.101684E-13  3.677947E-13
       192  17  1.131358E+03  1.376846E+00  1.617790E+00 -2.396683E+01 -2.101684E-13  1.379230E-13
       192  18  1.127718E+03  2.131497E+00  1.146869E+00 -4.154698E+01  1.488693E-13  3.776464E-14
       192  19  1.173032E+03 -4.903792E-01  6.345977E+00 -6.907485E+00  1.525070E+01 -5.298357E-01
       192  20  1.168488E+03  1.207154E+00  5.803510E+00 -2.649965E+01  1.493951E+01 -2.056931E+00
       192  21  1.161372E+03  1.923323E+00  4.562560E+00 -4.585372E+01  1.432392E+01 -3.583975E+00
       192  22  1.152798E+03 -2.635447E-01  3.939705E+00 -6.217192E+00  1.462198E+01 -3.834454E-01
       192  23  1.150033E+03  1.493725E+00  3.876804E+00 -2.492237E+01  1.433598E+01 -1.606140E+00
       192  24  1.144653E+03  2.227400E+00  3.016803E+00 -4.338948E+01  1.374558E+01 -2.828793E+00
       192  25  1.132341E+03 -4.436317E-01  1.192993E+00 -6.148646E+00  1.399328E+01 -2.622342E-01
       192  26  1.131358E+03  1.376846E+00  1.617790E+00 -2.396683E+01  1.373247E+01 -1.180528E+00
       192  27  1.127718E+03  2.131497E+00  1.146869E+00 -4.154698E+01  1.316725E+01 -2.098790E+00
       193   1  9.993700E+02 -7.057339E-01 -1.320996E+01 -8.322543E-01 -5.047073E-01 -3.835912E+00
       193   2  9.996067E+02 -2.293994E+00 -1.278313E+01 -2.666280E-01 -4.975332E-01 -3.078647E+00
       193   3  9.990646E+02 -4.276130E+00 -1.289041E+01  6.344979E-01 -4.401013E-01 -2.321382E+00
       193   4  1.002278E+03  7.199772E+00 -1.021306E+01 -4.853295E+00 -1.547351E+00 -3.821784E+00
       193   5  1.002475E+03  4.636937E+00 -1.008777E+01 -3.038031E+00 -1.532524E+00 -3.114776E+00
       193   6  1.001900E+03  1.687211E+00 -1.048030E+01 -8.872742E-01 -1.467440E+00 -2.407769E+00
       193   7  1.003455E+03  1.126049E+01 -9.139752E+00 -9.006311E+00 -2.589960E+00 -3.815309E+00
       193   8  1.003614E+03  7.724139E+00 -9.313532E+00 -5.941447E+00 -2.567480E+00 -3.158558E+00
       193   9  1.003008E+03  3.807880E+00 -9.988837E+00 -2.541093E+00 -2.494745E+00 -2.501808E+00
       193  10  9.993700E+02 -7.057339E-01 -1.320996E+01 -8.322543E-01  0.000000E+00 -5.079070E-13
       193  11  9.996067E+02 -2.293994E+00 -1.278313E+01 -2.666280E-01 -1.751404E-13  3.721732E-14
       193  12  9.990646E+02 -4.276130E+00 -1.289041E+01  6.344979E-01  3.502807E-14  6.655333E-13
       193  13  1.002278E+03  7.199772E+00 -1.021306E+01 -4.853295E+00 -3.677947E-13 -2.014114E-13
       193  14  1.002475E+03  4.636937E+00 -1.008777E+01 -3.038031E+00 -2.101684E-13 -4.378509E-15
       193  15  1.001900E+03  1.687211E+00 -1.048030E+01 -8.872742E-01 -1.926544E-13  1.346391E-13
       193  16  1.003455E+03  1.126049E+01 -9.139752E+00 -9.006311E+00  0.000000E+00 -8.757018E-14
       193  17  1.003614E+03  7.724139E+00 -9.313532E+00 -5.941447E+00 -5.254211E-13  3.502807E-14
       193  18  1.003008E+03  3.807880E+00 -9.988837E+00 -2.541093E+00 -2.627105E-14  1.050842E-13
       193  19  9.993700E+02 -7.057339E-01 -1.320996E+01 -8.322543E-01  5.047073E-01  3.835912E+00
       193  20  9.996067E+02 -2.293994E+00 -1.278313E+01 -2.666280E-01  4.975332E-01  3.078647E+00
       193  21  9.990646E+02 -4.276130E+00 -1.289041E+01  6.344979E-01  4.401013E-01  2.321382E+00
       193  22  1.002278E+03  7.199772E+00 -1.021306E+01 -4.853295E+00  1.547351E+00  3.821784E+00
       193  23  1.002475E+03  4.636937E+00 -1.008777E+01 -3.038031E+00  1.532524E+00  3.114776E+00
       193  24  1.001900E+03  1.687211E+00 -1.048030E+01 -8.872742E-01  1.467440E+00  2.407769E+00
       193  25  1.003455E+03  1.126049E+01 -9.139752E+00 -9.006311E+00  2.589960E+00  3.815309E+00
       193  26  1.003614E+03  7.724139E+00 -9.313532E+00 -5.941447E+00  2.567480E+00  3.158558E+00
       193  27  1.003008E+03  3.807880E+00 -9.988837E+00 -2.541093E+00  2.494745E+00  2.501808E+00
       194   1  9.998366E+02 -2.609100E+00 -1.186653E+01  1.063589E+00 -3.892223E-01 -1.844003E+00
       194   2  1.000058E+03 -1.447863E+00 -1.110328E+01  7.577458E-01 -3.268858E-01 -1.051429E+00
       194   3  9.991819E+02 -8.196621E-01 -1.101986E+01  6.601479E-01 -2.996165E-01 -2.588287E-01
       194   4  1.001326E+03  3.627724E-01 -1.074415E+01  3.714832E-02 -1.403940E+00 -1.941732E+00
       194   5  1.000491E+03  4.832193E-01 -1.059041E+01  2.936655E-01 -1.305883E+00 -1.114092E+00
       194   6  9.985554E+02  6.574296E-02 -1.112788E+01  7.584340E-01 -1.242892E+00 -2.864257E-01
       194   7  1.002253E+03  2.212477E+00 -1.037114E+01 -7.737909E-01 -2.418625E+00 -2.075181E+00
       194   8  1.000368E+03  1.297090E+00 -1.081534E+01  4.508104E-02 -2.284848E+00 -1.212478E+00
       194   9  9.973773E+02 -1.611077E-01 -1.196212E+01  1.072210E+00 -2.186136E+00 -3.497453E-01
       194  10  9.998366E+02 -2.609100E+00 -1.186653E+01  1.063589E+00  0.000000E+00 -5.385566E-13
       194  11  1.000058E+03 -1.447863E+00 -1.110328E+01  7.577458E-01  3.152526E-13 -4.378509E-15
       194  12  9.991819E+02 -8.196621E-01 -1.101986E+01  6.601479E-01 -2.451965E-13  3.831195E-13
       194  13  1.001326E+03  3.627724E-01 -1.074415E+01  3.714832E-02 -3.502807E-14 -3.502807E-13
       194  14  1.000491E+03  4.832193E-01 -1.059041E+01  2.936655E-01  1.401123E-13 -8.757018E-15
       194  15  9.985554E+02  6.574296E-02 -1.112788E+01  7.584340E-01 -7.127131E-14  1.258821E-13
       194  16  1.002253E+03  2.212477E+00 -1.037114E+01 -7.737909E-01  2.101684E-13 -5.692061E-14
       194  17  1.000368E+03  1.297090E+00 -1.081534E+01  4.508104E-02  2.802246E-13  1.751404E-14
       194  18  9.973773E+02 -1.611077E-01 -1.196212E+01  1.072210E+00 -9.632719E-14  3.623216E-13
       194  19  9.998366E+02 -2.609100E+00 -1.186653E+01  1.063589E+00  3.892223E-01  1.844003E+00
       194  20  1.000058E+03 -1.447863E+00 -1.110328E+01  7.577458E-01  3.268858E-01  1.051429E+00
       194  21  9.991819E+02 -8.196621E-01 -1.101986E+01  6.601479E-01  2.996165E-01  2.588287E-01
       194  22  1.001326E+03  3.627724E-01 -1.074415E+01  3.714832E-02  1.403940E+00  1.941732E+00
       194  23  1.000491E+03  4.832193E-01 -1.059041E+01  2.936655E-01  1.305883E+00  1.114092E+00
       194  24  9.985554E+02  6.574296E-02 -1.112788E+01  7.584340E-01  1.242892E+00  2.864257E-01
       194  25  1.002253E+03  2.212477E+00 -1.037114E+01 -7.737909E-01  2.418625E+00  2.075181E+00
       194  26  1.000368E+03  1.297090E+00 -1.081534E+01  4.508104E-02  2.284848E+00  1.212478E+00
       194  27  9.973773E+02 -1.611077E-01 -1.196212E+01  1.072210E+00  2.186136E+00  3.497453E-01
       195   1  1.003847E+03  2.951999E+00 -1.004808E+01 -2.508682E+00 -2.940192E+00 -2.152019E+00
       195   2  1.001701E+03  1.869011E+00 -1.060408E+01 -8.571834E-01 -2.844001E+00 -1.276471E+00
       195   3  9.956920E+02 -9.391160E-01 -1.304736E+01  6.596327E-01 -2.756888E+00 -4.008943E-01
       195   4  1.007819E+03  3.584074E+00 -9.477262E+00 -5.905935E+00 -3.793149E+00 -2.229310E+00
       195   5  1.004652E+03  2.453914E+00 -1.033642E+01 -3.002760E+00 -3.743832E+00 -1.344686E+00
       195   6  9.976196E+02 -4.026303E-01 -1.308578E+01 -2.342325E-01 -3.703591E+00 -4.600326E-01
       195   7  1.011399E+03  3.458354E+00 -9.456860E+00 -8.950647E+00 -4.646107E+00 -2.259729E+00
       195   8  1.007203E+03  2.274500E+00 -1.063436E+01 -4.795790E+00 -4.643662E+00 -1.366028E+00
       195   9  9.991417E+02 -6.369826E-01 -1.370502E+01 -7.755454E-01 -4.650295E+00 -4.722977E-01
       195  10  1.003847E+03  2.951999E+00 -1.004808E+01 -2.508682E+00  2.101684E-13 -1.926544E-13
       195  11  1.001701E+03  1.869011E+00 -1.060408E+01 -8.571834E-01 -3.502807E-14  3.721732E-14
       195  12  9.956920E+02 -9.391160E-01 -1.304736E+01  6.596327E-01 -3.940658E-13  2.506696E-13
       195  13  1.007819E+03  3.584074E+00 -9.477262E+00 -5.905935E+00 -1.751404E-14 -2.977386E-13
       195  14  1.004652E+03  2.453914E+00 -1.033642E+01 -3.002760E+00 -2.101684E-13  1.576263E-13
       195  15  9.976196E+02 -4.026303E-01 -1.308578E+01 -2.342325E-01 -2.256000E-15  4.783521E-13
       195  16  1.011399E+03  3.458354E+00 -9.456860E+00 -8.950647E+00  0.000000E+00 -2.627105E-14
       195  17  1.007203E+03  2.274500E+00 -1.063436E+01 -4.795790E+00  3.152526E-13  1.050842E-13
       195  18  9.991417E+02 -6.369826E-01 -1.370502E+01 -7.755454E-01  4.553649E-13  1.970329E-14
       195  19  1.003847E+03  2.951999E+00 -1.004808E+01 -2.508682E+00  2.940192E+00  2.152019E+00
       195  20  1.001701E+03  1.869011E+00 -1.060408E+01 -8.571834E-01  2.844001E+00  1.276471E+00
       195  21  9.956920E+02 -9.391160E-01 -1.304736E+01  6.596327E-01  2.756888E+00  4.008943E-01
       195  22  1.007819E+03  3.584074E+00 -9.477262E+00 -5.905935E+00  3.793149E+00  2.229310E+00
       195  23  1.004652E+03  2.453914E+00 -1.033642E+01 -3.002760E+00  3.743832E+00  1.344686E+00
       195  24  9.976196E+02 -4.026303E-01 -1.308578E+01 -2.342325E-01  3.703591E+00  4.600326E-01
       195  25  1.011399E+03  3.458354E+00 -9.456860E+00 -8.950647E+00  4.646107E+00  2.259729E+00
       195  26  1.007203E+03  2.274500E+00 -1.063436E+01 -4.795790E+00  4.643662E+00  1.366028E+00
       195  27  9.991417E+02 -6.369826E-01 -1.370502E+01 -7.755454E-01  4.650295E+00  4.722977E-01
       196   1  1.006017E+03  1.300362E+01 -8.245343E+00 -1.193017E+01 -3.026527E+00 -3.798356E+00
       196   2  1.006094E+03  9.105875E+00 -8.551813E+00 -8.299864E+00 -3.053901E+00 -3.179717E+00
       196   3  1.004519E+03  4.451637E+00 -9.729340E+00 -4.612765E+00 -3.000567E+00 -2.561077E+00
       196   4  1.011036E+03  1.504144E+01 -6.937235E+00 -1.730652E+01 -3.692511E+00 -3.692798E+00
       196   5  1.010938E+03  1.090149E+01 -7.384399E+00 -1.282699E+01 -3.795544E+00 -3.154867E+00
       196   6  1.009200E+03  6.016254E+00 -8.676465E+00 -8.290669E+00 -3.817869E+00 -2.616936E+00
       196   7  1.015358E+03  1.557915E+01 -6.448218E+00 -2.265997E+01 -4.358494E+00 -3.511581E+00
       196   8  1.015075E+03  1.118648E+01 -7.060595E+00 -1.733121E+01 -4.537187E+00 -3.054358E+00
       196   9  1.013164E+03  6.059738E+00 -8.491720E+00 -1.194566E+01 -4.635171E+00 -2.597135E+00
       196  10  1.006017E+03  1.300362E+01 -8.245343E+00 -1.193017E+01  7.005614E-13  1.050842E-13
       196  11  1.006094E+03  9.105875E+00 -8.551813E+00 -8.299864E+00  5.604491E-13  1.028950E-13
       196  12  1.004519E+03  4.451637E+00 -9.729340E+00 -4.612765E+00  5.604491E-13  2.298717E-14
       196  13  1.011036E+03  1.504144E+01 -6.937235E+00 -1.730652E+01 -8.757018E-14  7.005614E-14
       196  14  1.010938E+03  1.090149E+01 -7.384399E+00 -1.282699E+01  3.502807E-13  2.189254E-13
       196  15  1.009200E+03  6.016254E+00 -8.676465E+00 -8.290669E+00 -3.502807E-14  4.269046E-13
       196  16  1.015358E+03  1.557915E+01 -6.448218E+00 -2.265997E+01 -7.706175E-13 -7.881316E-14
       196  17  1.015075E+03  1.118648E+01 -7.060595E+00 -1.733121E+01 -6.305053E-13  1.116520E-13
       196  18  1.013164E+03  6.059738E+00 -8.491720E+00 -1.194566E+01  1.225982E-13  1.899178E-13
       196  19  1.006017E+03  1.300362E+01 -8.245343E+00 -1.193017E+01  3.026527E+00  3.798356E+00
       196  20  1.006094E+03  9.105875E+00 -8.551813E+00 -8.299864E+00  3.053901E+00  3.179717E+00
       196  21  1.004519E+03  4.451637E+00 -9.729340E+00 -4.612765E+00  3.000567E+00  2.561077E+00
       196  22  1.011036E+03  1.504144E+01 -6.937235E+00 -1.730652E+01  3.692511E+00  3.692798E+00
       196  23  1.010938E+03  1.090149E+01 -7.384399E+00 -1.282699E+01  3.795544E+00  3.154867E+00
       196  24  1.009200E+03  6.016254E+00 -8.676465E+00 -8.290669E+00  3.817869E+00  2.616936E+00
       196  25  1.015358E+03  1.557915E+01 -6.448218E+00 -2.265997E+01  4.358494E+00  3.511581E+00
       196  26  1.015075E+03  1.118648E+01 -7.060595E+00 -1.733121E+01  4.537187E+00  3.054358E+00
       196  27  1.013164E+03  6.059738E+00 -8.491720E+00 -1.194566E+01  4.635171E+00  2.597135E+00
       197   1  9.998379E+02  1.010440E+02  1.765527E+00 -6.197384E+01  2.762551E+00 -5.260765E+00
       197   2  9.994321E+02  9.775745E+01  1.347249E+00 -7.004076E+01  2.965050E+00 -4.318945E+00
       197   3  9.992298E+02  9.490820E+01  1.169976E+00 -7.831425E+01  3.167541E+00 -3.322864E+00
       197   4  9.977196E+02  1.094804E+02  2.403516E+00 -6.108529E+01  3.670715E+00 -5.185787E+00
       197   5  9.965968E+02  1.057257E+02  1.854819E+00 -6.897765E+01  3.927459E+00 -4.257028E+00
       197   6  9.956849E+02  1.024158E+02  1.564723E+00 -7.707659E+01  4.184195E+00 -3.274009E+00
       197   7  9.958135E+02  1.180136E+02  3.152235E+00 -6.027902E+01  4.565817E+00 -5.110809E+00
       197   8  9.939717E+02  1.137889E+02  2.468886E+00 -6.799681E+01  4.876807E+00 -4.195112E+00
       197   9  9.923485E+02  1.100166E+02  2.061732E+00 -7.592119E+01  5.187787E+00 -3.225153E+00
       197  10  9.998379E+02  1.010440E+02  1.765527E+00 -6.197384E+01  3.327667E-13 -7.038453E-13
       197  11  9.994321E+02  9.775745E+01  1.347249E+00 -7.004076E+01  1.751404E-13  2.101684E-13
       197  12  9.992298E+02  9.490820E+01  1.169976E+00 -7.831425E+01 -6.129912E-14  4.882037E-13
       197  13  9.977196E+02  1.094804E+02  2.403516E+00 -6.108529E+01  9.107298E-13  0.000000E+00
       197  14  9.965968E+02  1.057257E+02  1.854819E+00 -6.897765E+01  6.305053E-13 -7.224539E-14
       197  15  9.956849E+02  1.024158E+02  1.564723E+00 -7.707659E+01  3.327667E-13 -8.634267E-15
       197  16  9.958135E+02  1.180136E+02  3.152235E+00 -6.027902E+01  3.327667E-13  5.626384E-13
       197  17  9.939717E+02  1.137889E+02  2.468886E+00 -6.799681E+01  2.276825E-13 -2.824138E-13
       197  18  9.923485E+02  1.100166E+02  2.061732E+00 -7.592119E+01  1.926544E-13 -8.587350E-13
       197  19  9.998379E+02  1.010440E+02  1.765527E+00 -6.197384E+01 -2.762551E+00  5.260765E+00
       197  20  9.994321E+02  9.775745E+01  1.347249E+00 -7.004076E+01 -2.965050E+00  4.318945E+00
       197  21  9.992298E+02  9.490820E+01  1.169976E+00 -7.831425E+01 -3.167541E+00  3.322864E+00
       197  22  9.977196E+02  1.094804E+02  2.403516E+00 -6.108529E+01 -3.670715E+00  5.185787E+00
       197  23  9.965968E+02  1.057257E+02  1.854819E+00 -6.897765E+01 -3.927459E+00  4.257028E+00
       197  24  9.956849E+02  1.024158E+02  1.564723E+00 -7.707659E+01 -4.184195E+00  3.274009E+00
       197  25  9.958135E+02  1.180136E+02  3.152235E+00 -6.027902E+01 -4.565817E+00  5.110809E+00
       197  26  9.939717E+02  1.137889E+02  2.468886E+00 -6.799681E+01 -4.876807E+00  4.195112E+00
       197  27  9.923485E+02  1.100166E+02  2.061732E+00 -7.592119E+01 -5.187787E+00  3.225153E+00
       198   1  9.989927E+02  9.327641E+01  1.059848E+00 -8.272067E+01  3.252679E+00 -2.716937E+00
       198   2  9.982902E+02  9.045598E+01  8.011448E-01 -8.985254E+01  3.378317E+00 -1.640774E+00
       198   3  9.977646E+02  8.802497E+01  7.425738E-01 -9.728537E+01  3.503956E+00 -5.258717E-01
       198   4  9.949330E+02  1.005597E+02  1.377543E+00 -8.142543E+01  4.299042E+00 -2.677953E+00
       198   5  9.933558E+02  9.750728E+01  1.043384E+00 -8.837233E+01  4.463419E+00 -1.622651E+00
       198   6  9.919608E+02  9.484968E+01  9.219110E-01 -9.562019E+01  4.627796E+00 -5.286112E-01
       198   7  9.911541E+02  1.079664E+02  1.825909E+00 -8.010977E+01  5.324543E+00 -2.638969E+00
       198   8  9.886992E+02  1.046791E+02  1.409533E+00 -8.687169E+01  5.527659E+00 -1.604529E+00
       198   9  9.864320E+02  1.017921E+02  1.218398E+00 -9.393459E+01  5.730775E+00 -5.313506E-01
       198  10  9.989927E+02  9.327641E+01  1.059848E+00 -8.272067E+01 -4.903930E-13  8.384844E-13
       198  11  9.982902E+02  9.045598E+01  8.011448E-01 -8.985254E+01 -5.254211E-14  6.272214E-13
       198  12  9.977646E+02  8.802497E+01  7.425738E-01 -9.728537E+01  2.889816E-13 -2.974649E-13
       198  13  9.949330E+02  1.005597E+02  1.377543E+00 -8.142543E+01 -6.305053E-13  1.269768E-13
       198  14  9.933558E+02  9.750728E+01  1.043384E+00 -8.837233E+01 -4.903930E-13  2.145469E-13
       198  15  9.919608E+02  9.484968E+01  9.219110E-01 -9.562019E+01 -2.101684E-13  1.225982E-13
       198  16  9.911541E+02  1.079664E+02  1.825909E+00 -8.010977E+01 -8.757018E-14 -6.961829E-13
       198  17  9.886992E+02  1.046791E+02  1.409533E+00 -8.687169E+01 -1.926544E-13  6.348838E-14
       198  18  9.864320E+02  1.017921E+02  1.218398E+00 -9.393459E+01 -5.692061E-13  3.004752E-13
       198  19  9.989927E+02  9.327641E+01  1.059848E+00 -8.272067E+01 -3.252679E+00  2.716937E+00
       198  20  9.982902E+02  9.045598E+01  8.011448E-01 -8.985254E+01 -3.378317E+00  1.640774E+00
       198  21  9.977646E+02  8.802497E+01  7.425738E-01 -9.728537E+01 -3.503956E+00  5.258717E-01
       198  22  9.949330E+02  1.005597E+02  1.377543E+00 -8.142543E+01 -4.299042E+00  2.677953E+00
       198  23  9.933558E+02  9.750728E+01  1.043384E+00 -8.837233E+01 -4.463419E+00  1.622651E+00
       198  24  9.919608E+02  9.484968E+01  9.219110E-01 -9.562019E+01 -4.627796E+00  5.286112E-01
       198  25  9.911541E+02  1.079664E+02  1.825909E+00 -8.010977E+01 -5.324543E+00  2.638969E+00
       198  26  9.886992E+02  1.046791E+02  1.409533E+00 -8.687169E+01 -5.527659E+00  1.604529E+00
       198  27  9.864320E+02  1.017921E+02  1.218398E+00 -9.393459E+01 -5.730775E+00  5.313506E-01
       199   1  9.890226E+02  1.122254E+02  2.096969E+00 -7.872174E+01  5.912815E+00 -2.593894E+00
       199   2  9.860057E+02  1.086309E+02  1.563876E+00 -8.534879E+01  6.136246E+00 -1.575525E+00
       199   3  9.833073E+02  1.057382E+02  1.390672E+00 -9.224963E+01  6.359677E+00 -5.260823E-01
       199   4  9.852926E+02  1.188034E+02  2.338639E+00 -7.538934E+01  6.892513E+00 -2.496557E+00
       199   5  9.814786E+02  1.149900E+02  1.740350E+00 -8.169609E+01  7.147017E+00 -1.524461E+00
       199   6  9.779874E+02  1.118827E+02  1.512016E+00 -8.827661E+01  7.401521E+00 -5.212917E-01
       199   7  9.820261E+02  1.255876E+02  2.804614E+00 -7.204180E+01  7.825955E+00 -2.399223E+00
       199   8  9.774086E+02  1.215488E+02  2.126137E+00 -7.802825E+01  8.111532E+00 -1.473399E+00
       199   9  9.731182E+02  1.182205E+02  1.827681E+00 -8.428847E+01  8.397110E+00 -5.165014E-01
       199  10  9.890226E+02  1.122254E+02  2.096969E+00 -7.872174E+01 -5.254211E-14 -1.423015E-13
       199  11  9.860057E+02  1.086309E+02  1.563876E+00 -8.534879E+01 -1.225982E-13 -5.599018E-13
       199  12  9.833073E+02  1.057382E+02  1.390672E+00 -9.224963E+01 -3.590377E-13 -8.758386E-13
       199  13  9.852926E+02  1.188034E+02  2.338639E+00 -7.538934E+01 -4.903930E-13 -1.444908E-13
       199  14  9.814786E+02  1.149900E+02  1.740350E+00 -8.169609E+01 -2.802246E-13 -3.524700E-13
       199  15  9.779874E+02  1.118827E+02  1.512016E+00 -8.827661E+01 -1.926544E-13 -1.428488E-13
       199  16  9.820261E+02  1.255876E+02  2.804614E+00 -7.204180E+01 -9.983000E-13 -1.423015E-13
       199  17  9.774086E+02  1.215488E+02  2.126137E+00 -7.802825E+01 -3.327667E-13 -2.139996E-13
       199  18  9.731182E+02  1.182205E+02  1.827681E+00 -8.428847E+01  3.415237E-13  4.196527E-13
       199  19  9.890226E+02  1.122254E+02  2.096969E+00 -7.872174E+01 -5.912815E+00  2.593894E+00
       199  20  9.860057E+02  1.086309E+02  1.563876E+00 -8.534879E+01 -6.136246E+00  1.575525E+00
       199  21  9.833073E+02  1.057382E+02  1.390672E+00 -9.224963E+01 -6.359677E+00  5.260823E-01
       199  22  9.852926E+02  1.188034E+02  2.338639E+00 -7.538934E+01 -6.892513E+00  2.496557E+00
       199  23  9.814786E+02  1.149900E+02  1.740350E+00 -8.169609E+01 -7.147017E+00  1.524461E+00
       199  24  9.779874E+02  1.118827E+02  1.512016E+00 -8.827661E+01 -7.401521E+00  5.212917E-01
       199  25  9.820261E+02  1.255876E+02  2.804614E+00 -7.204180E+01 -7.825955E+00  2.399223E+00
       199  26  9.774086E+02  1.215488E+02  2.126137E+00 -7.802825E+01 -8.111532E+00  1.473399E+00
       199  27  9.731182E+02  1.182205E+02  1.827681E+00 -8.428847E+01 -8.397110E+00  5.165014E-01
       200   1  9.947878E+02  1.230258E+02  3.636916E+00 -5.928594E+01  5.081551E+00 -5.024055E+00
       200   2  9.924233E+02  1.182356E+02  2.754844E+00 -6.686295E+01  5.422027E+00 -4.120513E+00
       200   3  9.904821E+02  1.143700E+02  2.359092E+00 -7.462088E+01  5.762492E+00 -3.169874E+00
       200   4  9.928298E+02  1.307442E+02  4.179600E+00 -5.678758E+01  5.942119E+00 -4.824207E+00
       200   5  9.898208E+02  1.254938E+02  3.178938E+00 -6.401788E+01  6.329676E+00 -3.959532E+00
       200   6  9.872417E+02  1.211744E+02  2.679862E+00 -7.142910E+01  6.717220E+00 -3.047761E+00
       200   7  9.912354E+02  1.386341E+02  4.930923E+00 -5.437839E+01  6.763834E+00 -4.624366E+00
       200   8  9.875766E+02  1.329180E+02  3.799082E+00 -6.126196E+01  7.198473E+00 -3.798557E+00
       200   9  9.843541E+02  1.281395E+02  3.184093E+00 -6.832648E+01  7.633097E+00 -2.925653E+00
       200  10  9.947878E+02  1.230258E+02  3.636916E+00 -5.928594E+01  2.101684E-13 -5.604491E-13
       200  11  9.924233E+02  1.182356E+02  2.754844E+00 -6.686295E+01 -5.254211E-14 -1.373757E-13
       200  12  9.904821E+02  1.143700E+02  2.359092E+00 -7.462088E+01  8.757018E-14  1.417542E-13
       200  13  9.928298E+02  1.307442E+02  4.179600E+00 -5.678758E+01  4.903930E-13  2.189254E-15
       200  14  9.898208E+02  1.254938E+02  3.178938E+00 -6.401788E+01  2.802246E-13  6.567763E-15
       200  15  9.872417E+02  1.211744E+02  2.679862E+00 -7.142910E+01  3.502807E-14  3.961950E-15
       200  16  9.912354E+02  1.386341E+02  4.930923E+00 -5.437839E+01  5.079070E-13  2.813192E-13
       200  17  9.875766E+02  1.329180E+02  3.799082E+00 -6.126196E+01  1.576263E-13  3.491861E-13
       200  18  9.843541E+02  1.281395E+02  3.184093E+00 -6.832648E+01 -7.005614E-14 -1.725406E-13
       200  19  9.947878E+02  1.230258E+02  3.636916E+00 -5.928594E+01 -5.081551E+00  5.024055E+00
       200  20  9.924233E+02  1.182356E+02  2.754844E+00 -6.686295E+01 -5.422027E+00  4.120513E+00
       200  21  9.904821E+02  1.143700E+02  2.359092E+00 -7.462088E+01 -5.762492E+00  3.169874E+00
       200  22  9.928298E+02  1.307442E+02  4.179600E+00 -5.678758E+01 -5.942119E+00  4.824207E+00
       200  23  9.898208E+02  1.254938E+02  3.178938E+00 -6.401788E+01 -6.329676E+00  3.959532E+00
       200  24  9.872417E+02  1.211744E+02  2.679862E+00 -7.142910E+01 -6.717220E+00  3.047761E+00
       200  25  9.912354E+02  1.386341E+02  4.930923E+00 -5.437839E+01 -6.763834E+00  4.624366E+00
       200  26  9.875766E+02  1.329180E+02  3.799082E+00 -6.126196E+01 -7.198473E+00  3.798557E+00
       200  27  9.843541E+02  1.281395E+02  3.184093E+00 -6.832648E+01 -7.633097E+00  2.925653E+00
       201   1  1.015298E+03  1.908303E+01 -5.924813E+00 -2.592296E+01 -4.215115E+00 -3.745369E+00
       201   2  1.014828E+03  2.574503E+01 -5.008544E+00 -3.108407E+01 -3.892067E+00 -4.075081E+00
       201   3  1.013576E+03  3.204538E+01 -4.514826E+00 -3.619582E+01 -3.474341E+00 -4.404782E+00
       201   4  1.011006E+03  1.847776E+01 -6.453875E+00 -2.011689E+01 -3.594902E+00 -3.980263E+00
       201   5  1.010795E+03  2.508769E+01 -5.543505E+00 -2.457843E+01 -3.353487E+00 -4.404648E+00
       201   6  1.009789E+03  3.132283E+01 -5.086365E+00 -2.899061E+01 -3.017394E+00 -4.829019E+00
       201   7  1.005894E+03  1.607406E+01 -7.917769E+00 -1.441708E+01 -2.974690E+00 -4.133523E+00
       201   8  1.005953E+03  2.264329E+01 -6.986830E+00 -1.817904E+01 -2.814907E+00 -4.652583E+00
       201   9  1.005204E+03  2.882459E+01 -6.539802E+00 -2.189165E+01 -2.560446E+00 -5.171626E+00
       201  10  1.015298E+03  1.908303E+01 -5.924813E+00 -2.592296E+01 -7.005614E-13 -6.480193E-13
       201  11  1.014828E+03  2.574503E+01 -5.008544E+00 -3.108407E+01 -1.401123E-13 -1.554371E-13
       201  12  1.013576E+03  3.204538E+01 -4.514826E+00 -3.619582E+01 -7.881316E-14  3.081376E-13
       201  13  1.011006E+03  1.847776E+01 -6.453875E+00 -2.011689E+01  1.751404E-14 -9.194868E-13
       201  14  1.010795E+03  2.508769E+01 -5.543505E+00 -2.457843E+01  1.401123E-13 -3.415237E-13
       201  15  1.009789E+03  3.132283E+01 -5.086365E+00 -2.899061E+01  1.751404E-14  2.145469E-13
       201  16  1.005894E+03  1.607406E+01 -7.917769E+00 -1.441708E+01  7.005614E-13 -4.378509E-13
       201  17  1.005953E+03  2.264329E+01 -6.986830E+00 -1.817904E+01  1.401123E-13 -1.510586E-13
       201  18  1.005204E+03  2.882459E+01 -6.539802E+00 -2.189165E+01  1.751404E-14  3.037590E-13
       201  19  1.015298E+03  1.908303E+01 -5.924813E+00 -2.592296E+01  4.215115E+00  3.745369E+00
       201  20  1.014828E+03  2.574503E+01 -5.008544E+00 -3.108407E+01  3.892067E+00  4.075081E+00
       201  21  1.013576E+03  3.204538E+01 -4.514826E+00 -3.619582E+01  3.474341E+00  4.404782E+00
       201  22  1.011006E+03  1.847776E+01 -6.453875E+00 -2.011689E+01  3.594902E+00  3.980263E+00
       201  23  1.010795E+03  2.508769E+01 -5.543505E+00 -2.457843E+01  3.353487E+00  4.404648E+00
       201  24  1.009789E+03  3.132283E+01 -5.086365E+00 -2.899061E+01  3.017394E+00  4.829019E+00
       201  25  1.005894E+03  1.607406E+01 -7.917769E+00 -1.441708E+01  2.974690E+00  4.133523E+00
       201  26  1.005953E+03  2.264329E+01 -6.986830E+00 -1.817904E+01  2.814907E+00  4.652583E+00
       201  27  1.005204E+03  2.882459E+01 -6.539802E+00 -2.189165E+01  2.560446E+00  5.171626E+00
       202   1  1.012829E+03  3.631312E+01 -4.089741E+00 -3.899871E+01 -3.186878E+00 -4.596509E+00
       202   2  1.011488E+03  4.417725E+01 -3.270691E+00 -4.301481E+01 -2.628847E+00 -4.856121E+00
       202   3  1.009722E+03  5.183877E+01 -2.702329E+00 -4.708287E+01 -1.994895E+00 -5.115733E+00
       202   4  1.009241E+03  3.564970E+01 -4.646887E+00 -3.144052E+01 -2.780367E+00 -5.070734E+00
       202   5  1.008355E+03  4.381656E+01 -3.723874E+00 -3.489915E+01 -2.314027E+00 -5.406267E+00
       202   6  1.007033E+03  5.177026E+01 -3.076154E+00 -3.840974E+01 -1.771767E+00 -5.741800E+00
       202   7  1.004927E+03  3.336730E+01 -6.005423E+00 -2.401035E+01 -2.373856E+00 -5.453267E+00
       202   8  1.004508E+03  4.184962E+01 -4.948733E+00 -2.691150E+01 -1.999208E+00 -5.864721E+00
       202   9  1.003644E+03  5.010824E+01 -4.191940E+00 -2.986462E+01 -1.548639E+00 -6.276175E+00
       202  10  1.012829E+03  3.631312E+01 -4.089741E+00 -3.899871E+01  4.203368E-13  3.743625E-13
       202  11  1.011488E+03  4.417725E+01 -3.270691E+00 -4.301481E+01  2.451965E-13  2.189254E-14
       202  12  1.009722E+03  5.183877E+01 -2.702329E+00 -4.708287E+01 -6.129912E-14 -4.184212E-13
       202  13  1.009241E+03  3.564970E+01 -4.646887E+00 -3.144052E+01  1.225982E-13 -2.014114E-13
       202  14  1.008355E+03  4.381656E+01 -3.723874E+00 -3.489915E+01  2.802246E-13  4.378509E-15
       202  15  1.007033E+03  5.177026E+01 -3.076154E+00 -3.840974E+01  7.005614E-14 -7.443465E-14
       202  16  1.004927E+03  3.336730E+01 -6.005423E+00 -2.401035E+01  0.000000E+00 -4.159583E-13
       202  17  1.004508E+03  4.184962E+01 -4.948733E+00 -2.691150E+01  1.751404E-13 -1.751404E-14
       202  18  1.003644E+03  5.010824E+01 -4.191940E+00 -2.986462E+01 -1.313553E-13  7.008351E-13
       202  19  1.012829E+03  3.631312E+01 -4.089741E+00 -3.899871E+01  3.186878E+00  4.596509E+00
       202  20  1.011488E+03  4.417725E+01 -3.270691E+00 -4.301481E+01  2.628847E+00  4.856121E+00
       202  21  1.009722E+03  5.183877E+01 -2.702329E+00 -4.708287E+01  1.994895E+00  5.115733E+00
       202  22  1.009241E+03  3.564970E+01 -4.646887E+00 -3.144052E+01  2.780367E+00  5.070734E+00
       202  23  1.008355E+03  4.381656E+01 -3.723874E+00 -3.489915E+01  2.314027E+00  5.406267E+00
       202  24  1.007033E+03  5.177026E+01 -3.076154E+00 -3.840974E+01  1.771767E+00  5.741800E+00
       202  25  1.004927E+03  3.336730E+01 -6.005423E+00 -2.401035E+01  2.373856E+00  5.453267E+00
       202  26  1.004508E+03  4.184962E+01 -4.948733E+00 -2.691150E+01  1.999208E+00  5.864721E+00
       202  27  1.003644E+03  5.010824E+01 -4.191940E+00 -2.986462E+01  1.548639E+00  6.276175E+00
       203   1  1.002780E+03  3.142411E+01 -6.916478E+00 -1.952097E+01 -2.078332E+00 -5.644465E+00
       203   2  1.002629E+03  4.024420E+01 -5.728086E+00 -2.192144E+01 -1.745327E+00 -6.089798E+00
       203   3  1.002036E+03  4.883938E+01 -4.847065E+00 -2.455779E+01 -1.371822E+00 -6.535130E+00
       203   4  1.001844E+03  2.708184E+01 -8.098333E+00 -1.117103E+01 -1.257358E+00 -5.885261E+00
       203   5  1.001863E+03  3.662768E+01 -6.704288E+00 -1.256175E+01 -1.068280E+00 -6.371095E+00
       203   6  1.001434E+03  4.594300E+01 -5.630742E+00 -1.418835E+01 -8.387016E-01 -6.856929E+00
       203   7  9.994431E+02  1.947188E+01 -1.089781E+01 -2.778495E+00 -4.363562E-01 -5.982122E+00
       203   8  9.996509E+02  2.976347E+01 -9.251473E+00 -3.159428E+00 -3.912107E-01 -6.508458E+00
       203   9  9.994052E+02  3.981891E+01 -7.938760E+00 -3.776244E+00 -3.055632E-01 -7.034794E+00
       203  10  1.002780E+03  3.142411E+01 -6.916478E+00 -1.952097E+01 -1.401123E-13 -6.151805E-13
       203  11  1.002629E+03  4.024420E+01 -5.728086E+00 -2.192144E+01  2.451965E-13 -1.970329E-14
       203  12  1.002036E+03  4.883938E+01 -4.847065E+00 -2.455779E+01  1.576263E-13  3.984443E-13
       203  13  1.001844E+03  2.708184E+01 -8.098333E+00 -1.117103E+01 -3.327667E-13  1.401123E-13
       203  14  1.001863E+03  3.662768E+01 -6.704288E+00 -1.256175E+01 -5.604491E-13 -1.313553E-14
       203  15  1.001434E+03  4.594300E+01 -5.630742E+00 -1.418835E+01 -8.757018E-14 -3.393344E-13
       203  16  9.994431E+02  1.947188E+01 -1.089781E+01 -2.778495E+00 -2.101684E-13  5.560706E-13
       203  17  9.996509E+02  2.976347E+01 -9.251473E+00 -3.159428E+00 -6.655333E-13 -1.860866E-14
       203  18  9.994052E+02  3.981891E+01 -7.938760E+00 -3.776244E+00 -3.064956E-13 -4.780784E-13
       203  19  1.002780E+03  3.142411E+01 -6.916478E+00 -1.952097E+01  2.078332E+00  5.644465E+00
       203  20  1.002629E+03  4.024420E+01 -5.728086E+00 -2.192144E+01  1.745327E+00  6.089798E+00
       203  21  1.002036E+03  4.883938E+01 -4.847065E+00 -2.455779E+01  1.371822E+00  6.535130E+00
       203  22  1.001844E+03  2.708184E+01 -8.098333E+00 -1.117103E+01  1.257358E+00  5.885261E+00
       203  23  1.001863E+03  3.662768E+01 -6.704288E+00 -1.256175E+01  1.068280E+00  6.371095E+00
       203  24  1.001434E+03  4.594300E+01 -5.630742E+00 -1.418835E+01  8.387016E-01  6.856929E+00
       203  25  9.994431E+02  1.947188E+01 -1.089781E+01 -2.778495E+00  4.363562E-01  5.982122E+00
       203  26  9.996509E+02  2.976347E+01 -9.251473E+00 -3.159428E+00  3.912107E-01  6.508458E+00
       203  27  9.994052E+02  3.981891E+01 -7.938760E+00 -3.776244E+00  3.055632E-01  7.034794E+00
       204   1  1.003406E+03  1.420550E+01 -8.833086E+00 -1.117266E+01 -2.557853E+00 -4.197275E+00
       204   2  1.003460E+03  2.070602E+01 -7.944975E+00 -1.444996E+01 -2.422502E+00 -4.759654E+00
       204   3  1.002937E+03  2.691474E+01 -7.452650E+00 -1.770465E+01 -2.232961E+00 -5.322013E+00
       204   4  1.002287E+03  9.944469E+00 -9.954576E+00 -6.157928E+00 -1.533527E+00 -4.270293E+00
       204   5  1.002445E+03  1.641741E+01 -9.067671E+00 -8.143908E+00 -1.468657E+00 -4.886861E+00
       204   6  1.002019E+03  2.259103E+01 -8.594116E+00 -1.010728E+01 -1.349596E+00 -5.503408E+00
       204   7  9.993024E+02  1.519383E+00 -1.313165E+01 -1.186351E+00 -5.091671E-01 -4.272826E+00
       204   8  9.995737E+02  7.974607E+00 -1.222308E+01 -1.880966E+00 -5.147798E-01 -4.943585E+00
       204   9  9.992537E+02  1.412299E+01 -1.174542E+01 -2.552976E+00 -4.662009E-01 -5.614322E+00
       204  10  1.003406E+03  1.420550E+01 -8.833086E+00 -1.117266E+01  7.005614E-14 -5.998557E-13
       204  11  1.003460E+03  2.070602E+01 -7.944975E+00 -1.444996E+01 -3.502807E-14 -5.254211E-14
       204  12  1.002937E+03  2.691474E+01 -7.452650E+00 -1.770465E+01 -8.757018E-15  3.021171E-13
       204  13  1.002287E+03  9.944469E+00 -9.954576E+00 -6.157928E+00 -2.101684E-13 -4.378509E-13
       204  14  1.002445E+03  1.641741E+01 -9.067671E+00 -8.143908E+00  7.005614E-14 -7.005614E-14
       204  15  1.002019E+03  2.259103E+01 -8.594116E+00 -1.010728E+01  1.751404E-14  2.003168E-13
       204  16  9.993024E+02  1.519383E+00 -1.313165E+01 -1.186351E+00  2.101684E-13 -1.225982E-13
       204  17  9.995737E+02  7.974607E+00 -1.222308E+01 -1.880966E+00 -1.050842E-13  8.757018E-15
       204  18  9.992537E+02  1.412299E+01 -1.174542E+01 -2.552976E+00 -2.627105E-14  2.145469E-13
       204  19  1.003406E+03  1.420550E+01 -8.833086E+00 -1.117266E+01  2.557853E+00  4.197275E+00
       204  20  1.003460E+03  2.070602E+01 -7.944975E+00 -1.444996E+01  2.422502E+00  4.759654E+00
       204  21  1.002937E+03  2.691474E+01 -7.452650E+00 -1.770465E+01  2.232961E+00  5.322013E+00
       204  22  1.002287E+03  9.944469E+00 -9.954576E+00 -6.157928E+00  1.533527E+00  4.270293E+00
       204  23  1.002445E+03  1.641741E+01 -9.067671E+00 -8.143908E+00  1.468657E+00  4.886861E+00
       204  24  1.002019E+03  2.259103E+01 -8.594116E+00 -1.010728E+01  1.349596E+00  5.503408E+00
       204  25  9.993024E+02  1.519383E+00 -1.313165E+01 -1.186351E+00  5.091671E-01  4.272826E+00
       204  26  9.995737E+02  7.974607E+00 -1.222308E+01 -1.880966E+00  5.147798E-01  4.943585E+00
       204  27  9.992537E+02  1.412299E+01 -1.174542E+01 -2.552976E+00  4.662009E-01  5.614322E+00
       205   1  1.105094E+03  1.090240E+01  4.263679E-01 -7.538514E+01 -1.047557E+01  3.486574E+00
       205   2  1.093916E+03  1.162314E+01 -2.528922E-01 -7.076186E+01 -9.944064E+00  2.441416E+00
       205   3  1.082528E+03  1.195105E+01 -1.241116E+00 -6.658005E+01 -9.412556E+00  1.459386E+00
       205   4  1.111780E+03  7.796339E+00  7.433600E-01 -6.219646E+01 -1.148229E+01  2.801165E+00
       205   5  1.099357E+03  8.374910E+00 -1.172512E-01 -5.829920E+01 -1.088765E+01  1.896017E+00
       205   6  1.086715E+03  8.551888E+00 -1.307284E+00 -5.484340E+01 -1.029302E+01  1.053997E+00
       205   7  1.116338E+03  3.833167E+00  3.301717E-01 -4.889791E+01 -1.234900E+01  2.115756E+00
       205   8  1.102651E+03  4.250129E+00 -7.571638E-01 -4.572666E+01 -1.169123E+01  1.350618E+00
       205   9  1.088736E+03  4.256729E+00 -2.194379E+00 -4.299687E+01 -1.103347E+01  6.486082E-01
       205  10  1.105094E+03  1.090240E+01  4.263679E-01 -7.538514E+01 -1.926544E-13 -4.378509E-15
       205  11  1.093916E+03  1.162314E+01 -2.528922E-01 -7.076186E+01 -3.502807E-14 -2.145469E-13
       205  12  1.082528E+03  1.195105E+01 -1.241116E+00 -6.658005E+01 -7.005614E-14 -4.444186E-13
       205  13  1.111780E+03  7.796339E+00  7.433600E-01 -6.219646E+01 -2.101684E-13  8.757018E-14
       205  14  1.099357E+03  8.374910E+00 -1.172512E-01 -5.829920E+01 -2.101684E-13  8.757018E-15
       205  15  1.086715E+03  8.551888E+00 -1.307284E+00 -5.484340E+01 -3.502807E-14  8.334765E-14
       205  16  1.116338E+03  3.833167E+00  3.301717E-01 -4.889791E+01  7.005614E-14  0.000000E+00
       205  17  1.102651E+03  4.250129E+00 -7.571638E-01 -4.572666E+01 -7.005614E-14  2.101684E-13
       205  18  1.088736E+03  4.256729E+00 -2.194379E+00 -4.299687E+01 -2.889816E-13  3.305774E-13
       205  19  1.105094E+03  1.090240E+01  4.263679E-01 -7.538514E+01  1.047557E+01 -3.486574E+00
       205  20  1.093916E+03  1.162314E+01 -2.528922E-01 -7.076186E+01  9.944064E+00 -2.441416E+00
       205  21  1.082528E+03  1.195105E+01 -1.241116E+00 -6.658005E+01  9.412556E+00 -1.459386E+00
       205  22  1.111780E+03  7.796339E+00  7.433600E-01 -6.219646E+01  1.148229E+01 -2.801165E+00
       205  23  1.099357E+03  8.374910E+00 -1.172512E-01 -5.829920E+01  1.088765E+01 -1.896017E+00
       205  24  1.086715E+03  8.551888E+00 -1.307284E+00 -5.484340E+01  1.029302E+01 -1.053997E+00
       205  25  1.116338E+03  3.833167E+00  3.301717E-01 -4.889791E+01  1.234900E+01 -2.115756E+00
       205  26  1.102651E+03  4.250129E+00 -7.571638E-01 -4.572666E+01  1.169123E+01 -1.350618E+00
       205  27  1.088736E+03  4.256729E+00 -2.194379E+00 -4.299687E+01  1.103347E+01 -6.486082E-01
       206   1  1.076417E+03  1.227256E+01 -1.683004E+00 -6.384677E+01 -9.064221E+00  9.219650E-01
       206   2  1.066841E+03  1.305607E+01 -2.208952E+00 -5.881432E+01 -8.479349E+00  6.352932E-02
       206   3  1.057043E+03  1.342815E+01 -3.065810E+00 -5.409840E+01 -7.894497E+00 -7.218958E-01
       206   4  1.080013E+03  8.802437E+00 -1.827642E+00 -5.251116E+01 -9.899118E+00  5.922658E-01
       206   5  1.069533E+03  9.439048E+00 -2.476578E+00 -4.825304E+01 -9.241222E+00 -1.460720E-01
       206   6  1.058821E+03  9.654102E+00 -3.480068E+00 -4.431143E+01 -8.583349E+00 -8.113993E-01
       206   7  1.081274E+03  4.358253E+00 -2.885283E+00 -4.111358E+01 -1.061392E+01  2.625666E-01
       206   8  1.069874E+03  4.831302E+00 -3.696109E+00 -3.762978E+01 -9.882999E+00 -3.556733E-01
       206   9  1.058232E+03  4.872670E+00 -4.885135E+00 -3.446250E+01 -9.152106E+00 -9.009027E-01
       206  10  1.076417E+03  1.227256E+01 -1.683004E+00 -6.384677E+01  5.254211E-14 -2.758461E-13
       206  11  1.066841E+03  1.305607E+01 -2.208952E+00 -5.881432E+01  1.050842E-13 -3.656055E-13
       206  12  1.057043E+03  1.342815E+01 -3.065810E+00 -5.409840E+01 -9.632719E-14 -1.718565E-13
       206  13  1.080013E+03  8.802437E+00 -1.827642E+00 -5.251116E+01  7.005614E-14  7.005614E-14
       206  14  1.069533E+03  9.439048E+00 -2.476578E+00 -4.825304E+01  1.401123E-13  1.576263E-13
       206  15  1.058821E+03  9.654102E+00 -3.480068E+00 -4.431143E+01 -2.802246E-13  4.331023E-14
       206  16  1.081274E+03  4.358253E+00 -2.885283E+00 -4.111358E+01  7.005614E-13  2.802246E-13
       206  17  1.069874E+03  4.831302E+00 -3.696109E+00 -3.762978E+01  3.502807E-14  5.692061E-13
       206  18  1.058232E+03  4.872670E+00 -4.885135E+00 -3.446250E+01 -5.166640E-13  3.185365E-13
       206  19  1.076417E+03  1.227256E+01 -1.683004E+00 -6.384677E+01  9.064221E+00 -9.219650E-01
       206  20  1.066841E+03  1.305607E+01 -2.208952E+00 -5.881432E+01  8.479349E+00 -6.352932E-02
       206  21  1.057043E+03  1.342815E+01 -3.065810E+00 -5.409840E+01  7.894497E+00  7.218958E-01
       206  22  1.080013E+03  8.802437E+00 -1.827642E+00 -5.251116E+01  9.899118E+00 -5.922658E-01
       206  23  1.069533E+03  9.439048E+00 -2.476578E+00 -4.825304E+01  9.241222E+00  1.460720E-01
       206  24  1.058821E+03  9.654102E+00 -3.480068E+00 -4.431143E+01  8.583349E+00  8.113993E-01
       206  25  1.081274E+03  4.358253E+00 -2.885283E+00 -4.111358E+01  1.061392E+01 -2.625666E-01
       206  26  1.069874E+03  4.831302E+00 -3.696109E+00 -3.762978E+01  9.882999E+00  3.556733E-01
       206  27  1.058232E+03  4.872670E+00 -4.885135E+00 -3.446250E+01  9.152106E+00  9.009027E-01
       207   1  1.081434E+03  2.449519E+00 -3.433644E+00 -3.371808E+01 -1.096266E+01  1.103262E-01
       207   2  1.069446E+03  2.835650E+00 -4.367088E+00 -3.075072E+01 -1.020041E+01 -4.037419E-01
       207   3  1.057180E+03  2.717062E+00 -5.718315E+00 -2.816253E+01 -9.438180E+00 -8.831625E-01
       207   4  1.080640E+03  1.651754E+00 -3.925496E+00 -1.945173E+01 -1.139180E+01  7.001173E-03
       207   5  1.067584E+03  1.998519E+00 -5.091796E+00 -1.762351E+01 -1.059490E+01 -3.025497E-01
       207   6  1.054246E+03  1.835767E+00 -6.687092E+00 -1.617447E+01 -9.798016E+00 -5.774525E-01
       207   7  1.076272E+03 -6.693394E-01 -5.921531E+00 -5.050108E+00 -1.161642E+01 -9.632734E-02
       207   8  1.062120E+03 -3.903039E-01 -7.386936E+00 -4.361075E+00 -1.078486E+01 -2.013542E-01
       207   9  1.047682E+03 -6.255862E-01 -9.292550E+00 -4.051223E+00 -9.953329E+00 -2.717324E-01
       207  10  1.081434E+03  2.449519E+00 -3.433644E+00 -3.371808E+01  2.451965E-13 -2.802246E-13
       207  11  1.069446E+03  2.835650E+00 -4.367088E+00 -3.075072E+01  7.005614E-14 -2.145469E-13
       207  12  1.057180E+03  2.717062E+00 -5.718315E+00 -2.816253E+01 -1.225982E-13  2.364395E-13
       207  13  1.080640E+03  1.651754E+00 -3.925496E+00 -1.945173E+01  4.903930E-13 -7.005614E-14
       207  14  1.067584E+03  1.998519E+00 -5.091797E+00 -1.762351E+01  0.000000E+00 -2.189254E-13
       207  15  1.054246E+03  1.835767E+00 -6.687092E+00 -1.617447E+01 -3.502807E-13 -3.799508E-14
       207  16  1.076272E+03 -6.693394E-01 -5.921531E+00 -5.050108E+00 -1.576263E-13  1.488693E-13
       207  17  1.062120E+03 -3.903039E-01 -7.386936E+00 -4.361075E+00  0.000000E+00 -2.036007E-13
       207  18  1.047682E+03 -6.255862E-01 -9.292550E+00 -4.051223E+00  3.327667E-13 -1.784242E-13
       207  19  1.081434E+03  2.449519E+00 -3.433644E+00 -3.371808E+01  1.096266E+01 -1.103262E-01
       207  20  1.069446E+03  2.835650E+00 -4.367088E+00 -3.075072E+01  1.020041E+01  4.037419E-01
       207  21  1.057180E+03  2.717062E+00 -5.718315E+00 -2.816253E+01  9.438180E+00  8.831625E-01
       207  22  1.080640E+03  1.651754E+00 -3.925496E+00 -1.945173E+01  1.139180E+01 -7.001173E-03
       207  23  1.067584E+03  1.998519E+00 -5.091797E+00 -1.762351E+01  1.059490E+01  3.025497E-01
       207  24  1.054246E+03  1.835767E+00 -6.687092E+00 -1.617447E+01  9.798016E+00  5.774525E-01
       207  25  1.076272E+03 -6.693394E-01 -5.921531E+00 -5.050108E+00  1.161642E+01  9.632734E-02
       207  26  1.062120E+03 -3.903039E-01 -7.386936E+00 -4.361075E+00  1.078486E+01  2.013542E-01
       207  27  1.047682E+03 -6.255862E-01 -9.292550E+00 -4.051223E+00  9.953329E+00  2.717324E-01
       208   1  1.118489E+03  2.171674E+00  2.090120E-01 -4.017418E+01 -1.277738E+01  1.698334E+00
       208   2  1.104006E+03  2.507241E+00 -1.041636E+00 -3.746716E+01 -1.209281E+01  1.054620E+00
       208   3  1.089275E+03  2.391182E+00 -2.666939E+00 -3.527371E+01 -1.140825E+01  4.398723E-01
       208   4  1.121250E+03  1.423425E+00  4.948656E-01 -2.320362E+01 -1.330645E+01  9.438026E-01
       208   5  1.105330E+03  1.734941E+00 -1.070171E+00 -2.150553E+01 -1.259292E+01  5.583571E-01
       208   6  1.089159E+03  1.590802E+00 -3.019252E+00 -2.032103E+01 -1.187939E+01  2.018790E-01
       208   7  1.120942E+03 -5.807386E-01 -3.354187E-01 -6.039772E+00 -1.357724E+01  1.892456E-01
       208   8  1.103549E+03 -3.291230E-01 -2.298536E+00 -5.350654E+00 -1.283474E+01  6.207765E-02
       208   9  1.085900E+03 -5.371926E-01 -4.655089E+00 -5.175122E+00 -1.209225E+01 -3.612239E-02
       208  10  1.118489E+03  2.171674E+00  2.090120E-01 -4.017418E+01  6.480193E-13 -1.313553E-14
       208  11  1.104006E+03  2.507241E+00 -1.041636E+00 -3.746716E+01 -5.254211E-14 -2.758461E-13
       208  12  1.089275E+03  2.391182E+00 -2.666939E+00 -3.527371E+01 -7.005614E-14 -8.647555E-14
       208  13  1.121250E+03  1.423425E+00  4.948656E-01 -2.320362E+01  7.005614E-13  5.254211E-14
       208  14  1.105330E+03  1.734941E+00 -1.070171E+00 -2.150553E+01 -1.401123E-13  9.632719E-14
       208  15  1.089159E+03  1.590802E+00 -3.019252E+00 -2.032103E+01 -4.903930E-13  5.650998E-14
       208  16  1.120942E+03 -5.807386E-01 -3.354187E-01 -6.039772E+00  5.254211E-13  4.203368E-13
       208  17  1.103549E+03 -3.291230E-01 -2.298536E+00 -5.350654E+00 -3.502807E-14  2.758461E-13
       208  18  1.085900E+03 -5.371926E-01 -4.655089E+00 -5.175122E+00 -5.910987E-13  4.000862E-13
       208  19  1.118489E+03  2.171674E+00  2.090120E-01 -4.017418E+01  1.277738E+01 -1.698334E+00
       208  20  1.104006E+03  2.507241E+00 -1.041636E+00 -3.746716E+01  1.209281E+01 -1.054620E+00
       208  21  1.089275E+03  2.391182E+00 -2.666939E+00 -3.527371E+01  1.140825E+01 -4.398723E-01
       208  22  1.121250E+03  1.423425E+00  4.948656E-01 -2.320362E+01  1.330645E+01 -9.438026E-01
       208  23  1.105330E+03  1.734941E+00 -1.070171E+00 -2.150553E+01  1.259292E+01 -5.583571E-01
       208  24  1.089159E+03  1.590802E+00 -3.019252E+00 -2.032103E+01  1.187939E+01 -2.018790E-01
       208  25  1.120942E+03 -5.807386E-01 -3.354187E-01 -6.039772E+00  1.357724E+01 -1.892456E-01
       208  26  1.103549E+03 -3.291230E-01 -2.298536E+00 -5.350654E+00  1.283474E+01 -6.207765E-02
       208  27  1.085900E+03 -5.371926E-01 -4.655089E+00 -5.175122E+00  1.209225E+01  3.612239E-02
       209   1  1.001210E+03 -7.511622E-01 -1.380992E+01 -1.102170E+00 -5.215687E+00 -4.801817E-01
       209   2  1.007659E+03 -4.646556E-01 -1.315771E+01 -1.827207E+00 -6.150960E+00 -4.919376E-01
       209   3  1.013763E+03 -8.055045E-01 -1.302188E+01 -2.498051E+00 -7.086201E+00 -4.520610E-01
       209   4  1.009994E+03  2.327430E+00 -1.047244E+01 -6.097944E+00 -5.220577E+00 -1.357533E+00
       209   5  1.016579E+03  2.570016E+00 -9.787209E+00 -8.206123E+00 -6.104218E+00 -1.303925E+00
       209   6  1.022829E+03  2.192422E+00 -9.601635E+00 -1.026011E+01 -6.987829E+00 -1.198686E+00
       209   7  1.014312E+03  3.422649E+00 -9.280810E+00 -1.113011E+01 -5.160102E+00 -2.234855E+00
       209   8  1.021044E+03  3.630427E+00 -8.541358E+00 -1.462139E+01 -5.992113E+00 -2.115886E+00
       209   9  1.027447E+03  3.225202E+00 -8.284825E+00 -1.805847E+01 -6.824095E+00 -1.945286E+00
       209  10  1.001210E+03 -7.511622E-01 -1.380992E+01 -1.102170E+00  5.254211E-14  2.758461E-13
       209  11  1.007659E+03 -4.646556E-01 -1.315771E+01 -1.827207E+00  1.225982E-13  6.808581E-13
       209  12  1.013763E+03 -8.055045E-01 -1.302188E+01 -2.498051E+00  7.881316E-14  9.802387E-13
       209  13  1.009994E+03  2.327430E+00 -1.047244E+01 -6.097944E+00  6.305053E-13  7.881316E-14
       209  14  1.016579E+03  2.570016E+00 -9.787209E+00 -8.206123E+00  4.903930E-13  1.050842E-13
       209  15  1.022829E+03  2.192422E+00 -9.601635E+00 -1.026011E+01  1.576263E-13  4.492591E-14
       209  16  1.014312E+03  3.422649E+00 -9.280810E+00 -1.113011E+01  4.728789E-13 -1.357338E-13
       209  17  1.021044E+03  3.630427E+00 -8.541358E+00 -1.462139E+01  1.926544E-13 -1.313553E-13
       209  18  1.027447E+03  3.225202E+00 -8.284825E+00 -1.805847E+01 -3.853088E-13 -6.277687E-13
       209  19  1.001210E+03 -7.511622E-01 -1.380992E+01 -1.102170E+00  5.215687E+00  4.801817E-01
       209  20  1.007659E+03 -4.646556E-01 -1.315771E+01 -1.827207E+00  6.150960E+00  4.919376E-01
       209  21  1.013763E+03 -8.055045E-01 -1.302188E+01 -2.498051E+00  7.086201E+00  4.520610E-01
       209  22  1.009994E+03  2.327430E+00 -1.047244E+01 -6.097944E+00  5.220577E+00  1.357533E+00
       209  23  1.016579E+03  2.570016E+00 -9.787209E+00 -8.206123E+00  6.104218E+00  1.303925E+00
       209  24  1.022829E+03  2.192422E+00 -9.601635E+00 -1.026011E+01  6.987829E+00  1.198686E+00
       209  25  1.014312E+03  3.422649E+00 -9.280810E+00 -1.113011E+01  5.160102E+00  2.234855E+00
       209  26  1.021044E+03  3.630427E+00 -8.541358E+00 -1.462139E+01  5.992113E+00  2.115886E+00
       209  27  1.027447E+03  3.225202E+00 -8.284825E+00 -1.805847E+01  6.824095E+00  1.945286E+00
       210   1  1.018939E+03 -7.152424E-01 -1.247395E+01 -2.712683E+00 -7.638771E+00 -4.287254E-01
       210   2  1.029670E+03 -4.463498E-01 -1.112112E+01 -3.204837E+00 -8.535321E+00 -3.940180E-01
       210   3  1.040082E+03 -7.538292E-01 -1.025249E+01 -3.894258E+00 -9.431872E+00 -3.163664E-01
       210   4  1.027557E+03  2.112038E+00 -9.226503E+00 -1.142794E+01 -7.555362E+00 -1.115490E+00
       210   5  1.037697E+03  2.299665E+00 -8.049838E+00 -1.320002E+01 -8.408968E+00 -9.404376E-01
       210   6  1.047524E+03  1.916891E+00 -7.343451E+00 -1.516937E+01 -9.262575E+00 -7.224415E-01
       210   7  1.032051E+03  3.117777E+00 -7.927795E+00 -2.008580E+01 -7.331605E+00 -1.802232E+00
       210   8  1.041620E+03  3.243624E+00 -6.881817E+00 -2.313778E+01 -8.142268E+00 -1.486839E+00
       210   9  1.050883E+03  2.805043E+00 -6.292197E+00 -2.638702E+01 -8.952931E+00 -1.128503E+00
       210  10  1.018939E+03 -7.152424E-01 -1.247395E+01 -2.712683E+00  1.751404E-14  8.362952E-13
       210  11  1.029670E+03 -4.463498E-01 -1.112112E+01 -3.204837E+00 -2.451965E-13  3.459022E-13
       210  12  1.040082E+03 -7.538292E-01 -1.025249E+01 -3.894258E+00 -1.576263E-13  7.224539E-14
       210  13  1.027557E+03  2.112038E+00 -9.226503E+00 -1.142794E+01 -7.005614E-13  7.881316E-14
       210  14  1.037697E+03  2.299665E+00 -8.049838E+00 -1.320002E+01 -5.604491E-13  2.627105E-13
       210  15  1.047524E+03  1.916891E+00 -7.343451E+00 -1.516937E+01 -6.655333E-13  7.881316E-14
       210  16  1.032051E+03  3.117777E+00 -7.927795E+00 -2.008580E+01  1.751404E-13 -5.604491E-13
       210  17  1.041620E+03  3.243624E+00 -6.881817E+00 -2.313778E+01 -3.502807E-14 -8.757018E-15
       210  18  1.050883E+03  2.805043E+00 -6.292197E+00 -2.638702E+01 -7.268325E-13  2.112630E-13
       210  19  1.018939E+03 -7.152424E-01 -1.247395E+01 -2.712683E+00  7.638771E+00  4.287254E-01
       210  20  1.029670E+03 -4.463498E-01 -1.112112E+01 -3.204837E+00  8.535321E+00  3.940180E-01
       210  21  1.040082E+03 -7.538292E-01 -1.025249E+01 -3.894258E+00  9.431872E+00  3.163664E-01
       210  22  1.027557E+03  2.112038E+00 -9.226503E+00 -1.142794E+01  7.555362E+00  1.115490E+00
       210  23  1.037697E+03  2.299665E+00 -8.049838E+00 -1.320002E+01  8.408968E+00  9.404376E-01
       210  24  1.047524E+03  1.916891E+00 -7.343451E+00 -1.516937E+01  9.262575E+00  7.224415E-01
       210  25  1.032051E+03  3.117777E+00 -7.927795E+00 -2.008580E+01  7.331605E+00  1.802232E+00
       210  26  1.041620E+03  3.243624E+00 -6.881817E+00 -2.313778E+01  8.142268E+00  1.486839E+00
       210  27  1.050883E+03  2.805043E+00 -6.292197E+00 -2.638702E+01  8.952931E+00  1.128503E+00
       211   1  1.033990E+03  5.573193E+00 -6.880320E+00 -2.488327E+01 -7.152310E+00 -1.993642E+00
       211   2  1.043203E+03  5.539954E+00 -5.941510E+00 -2.852304E+01 -7.925807E+00 -1.634660E+00
       211   3  1.052139E+03  5.005717E+00 -5.422041E+00 -3.233173E+01 -8.699304E+00 -1.190903E+00
       211   4  1.036097E+03  1.078971E+01 -5.184888E+00 -3.266788E+01 -6.784869E+00 -2.172066E+00
       211   5  1.044790E+03  1.059543E+01 -4.351464E+00 -3.710584E+01 -7.473590E+00 -1.711391E+00
       211   6  1.053219E+03  9.911938E+00 -3.909908E+00 -4.171273E+01 -8.162311E+00 -1.165939E+00
       211   7  1.035778E+03  1.495283E+01 -4.575892E+00 -4.044237E+01 -6.315735E+00 -2.350490E+00
       211   8  1.043967E+03  1.461164E+01 -3.814898E+00 -4.567852E+01 -6.919680E+00 -1.788121E+00
       211   9  1.051902E+03  1.379301E+01 -3.418299E+00 -5.108360E+01 -7.523625E+00 -1.140976E+00
       211  10  1.033990E+03  5.573193E+00 -6.880320E+00 -2.488327E+01  5.079070E-13 -2.846031E-13
       211  11  1.043203E+03  5.539954E+00 -5.941510E+00 -2.852304E+01  3.502807E-14 -4.378509E-15
       211  12  1.052139E+03  5.005717E+00 -5.422041E+00 -3.233173E+01 -2.014114E-13  1.893705E-13
       211  13  1.036097E+03  1.078971E+01 -5.184888E+00 -3.266788E+01 -7.005614E-14 -5.254211E-14
       211  14  1.044790E+03  1.059543E+01 -4.351464E+00 -3.710584E+01 -2.101684E-13 -1.182197E-13
       211  15  1.053219E+03  9.911938E+00 -3.909908E+00 -4.171273E+01 -2.802246E-13 -5.254211E-14
       211  16  1.035778E+03  1.495283E+01 -4.575892E+00 -4.044237E+01  3.502807E-14  8.757018E-15
       211  17  1.043967E+03  1.461164E+01 -3.814898E+00 -4.567852E+01  1.050842E-13 -2.211147E-13
       211  18  1.051902E+03  1.379301E+01 -3.418299E+00 -5.108360E+01  3.502807E-14  1.001584E-13
       211  19  1.033990E+03  5.573193E+00 -6.880320E+00 -2.488327E+01  7.152310E+00  1.993642E+00
       211  20  1.043203E+03  5.539954E+00 -5.941510E+00 -2.852304E+01  7.925807E+00  1.634660E+00
       211  21  1.052139E+03  5.005717E+00 -5.422041E+00 -3.233173E+01  8.699304E+00  1.190903E+00
       211  22  1.036097E+03  1.078971E+01 -5.184888E+00 -3.266788E+01  6.784869E+00  2.172066E+00
       211  23  1.044790E+03  1.059543E+01 -4.351464E+00 -3.710584E+01  7.473590E+00  1.711391E+00
       211  24  1.053219E+03  9.911938E+00 -3.909908E+00 -4.171273E+01  8.162311E+00  1.165939E+00
       211  25  1.035778E+03  1.495283E+01 -4.575892E+00 -4.044237E+01  6.315735E+00  2.350490E+00
       211  26  1.043967E+03  1.461164E+01 -3.814898E+00 -4.567852E+01  6.919680E+00  1.788121E+00
       211  27  1.051902E+03  1.379301E+01 -3.418299E+00 -5.108360E+01  7.523625E+00  1.140976E+00
       212   1  1.016204E+03  5.986263E+00 -8.284299E+00 -1.446601E+01 -5.105047E+00 -2.552195E+00
       212   2  1.022980E+03  6.227786E+00 -7.503336E+00 -1.846353E+01 -5.895130E+00 -2.406717E+00
       212   3  1.029376E+03  5.732173E+00 -7.247401E+00 -2.248714E+01 -6.685186E+00 -2.168784E+00
       212   4  1.018561E+03  1.134435E+01 -6.633472E+00 -2.022193E+01 -4.962085E+00 -2.960493E+00
       212   5  1.025249E+03  1.152136E+01 -5.852589E+00 -2.501109E+01 -5.659716E+00 -2.727594E+00
       212   6  1.031570E+03  1.097408E+01 -5.566770E+00 -2.982633E+01 -6.357323E+00 -2.402239E+00
       212   7  1.018717E+03  1.572708E+01 -6.033618E+00 -2.599254E+01 -4.731701E+00 -3.368791E+00
       212   8  1.025329E+03  1.585173E+01 -5.224469E+00 -3.157335E+01 -5.336881E+00 -3.048470E+00
       212   9  1.031589E+03  1.526494E+01 -4.880420E+00 -3.718022E+01 -5.942041E+00 -2.635694E+00
       212  10  1.016204E+03  5.986263E+00 -8.284299E+00 -1.446601E+01  5.604491E-13  2.802246E-13
       212  11  1.022980E+03  6.227786E+00 -7.503336E+00 -1.846353E+01 -1.751404E-14  2.014114E-13
       212  12  1.029376E+03  5.732173E+00 -7.247401E+00 -2.248714E+01 -3.940658E-13  6.348838E-14
       212  13  1.018561E+03  1.134435E+01 -6.633472E+00 -2.022193E+01  2.101684E-13  1.751404E-14
       212  14  1.025249E+03  1.152136E+01 -5.852589E+00 -2.501109E+01  0.000000E+00  1.401123E-13
       212  15  1.031570E+03  1.097408E+01 -5.566770E+00 -2.982633E+01 -2.276825E-13  9.179891E-15
       212  16  1.018717E+03  1.572708E+01 -6.033618E+00 -2.599254E+01  2.451965E-13 -4.290939E-13
       212  17  1.025329E+03  1.585173E+01 -5.224469E+00 -3.157335E+01  1.926544E-13 -2.758461E-13
       212  18  1.031589E+03  1.526494E+01 -4.880420E+00 -3.718022E+01 -3.064956E-13 -1.023476E-13
       212  19  1.016204E+03  5.986263E+00 -8.284299E+00 -1.446601E+01  5.105047E+00  2.552195E+00
       212  20  1.022980E+03  6.227786E+00 -7.503336E+00 -1.846353E+01  5.895130E+00  2.406717E+00
       212  21  1.029376E+03  5.732173E+00 -7.247401E+00 -2.248714E+01  6.685186E+00  2.168784E+00
       212  22  1.018561E+03  1.134435E+01 -6.633472E+00 -2.022193E+01  4.962085E+00  2.960493E+00
       212  23  1.025249E+03  1.152136E+01 -5.852589E+00 -2.501109E+01  5.659716E+00  2.727594E+00
       212  24  1.031570E+03  1.097408E+01 -5.566770E+00 -2.982633E+01  6.357323E+00  2.402239E+00
       212  25  1.018717E+03  1.572708E+01 -6.033618E+00 -2.599254E+01  4.731701E+00  3.368791E+00
       212  26  1.025329E+03  1.585173E+01 -5.224469E+00 -3.157335E+01  5.336881E+00  3.048470E+00
       212  27  1.031589E+03  1.526494E+01 -4.880420E+00 -3.718022E+01  5.942041E+00  2.635694E+00
       213   1  1.250691E+03  1.707954E+00  1.153042E+01 -1.153533E+02 -1.226790E+01  1.951898E+01
       213   2  1.266641E+03 -4.113021E-01  1.274311E+01 -1.151245E+02 -1.212850E+01  2.113784E+01
       213   3  1.282330E+03 -3.165886E+00  1.372039E+01 -1.152786E+02 -1.198910E+01  2.274623E+01
       213   4  1.225939E+03  2.625380E+00  9.256964E+00 -1.295446E+02 -1.059086E+01  2.099828E+01
       213   5  1.240597E+03 -2.665594E-01  1.025269E+01 -1.295769E+02 -1.046193E+01  2.272303E+01
       213   6  1.254992E+03 -3.795271E+00  1.100962E+01 -1.299919E+02 -1.033300E+01  2.443731E+01
       213   7  1.201132E+03  3.636669E+00  7.351606E+00 -1.438586E+02 -8.807898E+00  2.247753E+01
       213   8  1.214513E+03 -1.322992E-02  8.164704E+00 -1.441519E+02 -8.689438E+00  2.430817E+01
       213   9  1.227629E+03 -4.301343E+00  8.735618E+00 -1.448280E+02 -8.570978E+00  2.612833E+01
       213  10  1.250691E+03  1.707954E+00  1.153042E+01 -1.153533E+02  1.576263E-13  1.401123E-13
       213  11  1.266641E+03 -4.113021E-01  1.274311E+01 -1.151245E+02  3.502807E-14  3.546592E-13
       213  12  1.282330E+03 -3.165886E+00  1.372039E+01 -1.152786E+02 -1.751404E-14 -5.308942E-14
       213  13  1.225939E+03  2.625380E+00  9.256964E+00 -1.295446E+02  2.802246E-13 -1.751404E-14
       213  14  1.240597E+03 -2.665594E-01  1.025269E+01 -1.295769E+02 -1.401123E-13 -9.632719E-14
       213  15  1.254992E+03 -3.795271E+00  1.100962E+01 -1.299919E+02 -3.502807E-14 -1.970329E-14
       213  16  1.201132E+03  3.636669E+00  7.351606E+00 -1.438586E+02  4.028228E-13 -1.401123E-13
       213  17  1.214513E+03 -1.322992E-02  8.164704E+00 -1.441519E+02  1.050842E-13 -7.662390E-14
       213  18  1.227629E+03 -4.301343E+00  8.735618E+00 -1.448280E+02 -1.182197E-13 -1.412069E-13
       213  19  1.250691E+03  1.707954E+00  1.153042E+01 -1.153533E+02  1.226790E+01 -1.951898E+01
       213  20  1.266641E+03 -4.113021E-01  1.274311E+01 -1.151245E+02  1.212850E+01 -2.113784E+01
       213  21  1.282330E+03 -3.165886E+00  1.372039E+01 -1.152786E+02  1.198910E+01 -2.274623E+01
       213  22  1.225939E+03  2.625380E+00  9.256964E+00 -1.295446E+02  1.059086E+01 -2.099828E+01
       213  23  1.240597E+03 -2.665594E-01  1.025269E+01 -1.295769E+02  1.046193E+01 -2.272303E+01
       213  24  1.254992E+03 -3.795271E+00  1.100962E+01 -1.299919E+02  1.033300E+01 -2.443731E+01
       213  25  1.201132E+03  3.636669E+00  7.351606E+00 -1.438586E+02  8.807898E+00 -2.247753E+01
       213  26  1.214513E+03 -1.322992E-02  8.164704E+00 -1.441519E+02  8.689438E+00 -2.430817E+01
       213  27  1.227629E+03 -4.301343E+00  8.735618E+00 -1.448280E+02  8.570978E+00 -2.612833E+01
       214   1  1.291927E+03 -4.692181E+00  1.446849E+01 -1.146752E+02 -1.187251E+01  2.367455E+01
       214   2  1.308032E+03 -7.699984E+00  1.557188E+01 -1.122458E+02 -1.160246E+01  2.522322E+01
       214   3  1.323881E+03 -1.135577E+01  1.646925E+01 -1.100208E+02 -1.133239E+01  2.671015E+01
       214   4  1.263549E+03 -6.019458E+00  1.146767E+01 -1.294399E+02 -1.023697E+01  2.542906E+01
       214   5  1.278751E+03 -1.006477E+01  1.237519E+01 -1.271614E+02 -1.002862E+01  2.708982E+01
       214   6  1.293689E+03 -1.476664E+01  1.305667E+01 -1.250874E+02 -9.820269E+00  2.868884E+01
       214   7  1.235572E+03 -7.036045E+00  9.102732E+00 -1.444765E+02 -8.489308E+00  2.718351E+01
       214   8  1.249887E+03 -1.210326E+01  9.850731E+00 -1.423490E+02 -8.342672E+00  2.895635E+01
       214   9  1.263928E+03 -1.783560E+01  1.035268E+01 -1.404260E+02 -8.196032E+00  3.066746E+01
       214  10  1.291927E+03 -4.692181E+00  1.446849E+01 -1.146752E+02 -5.954772E-13  4.159583E-13
       214  11  1.308032E+03 -7.699984E+00  1.557188E+01 -1.122458E+02 -7.005614E-14  3.524700E-13
       214  12  1.323881E+03 -1.135577E+01  1.646925E+01 -1.100208E+02  5.692061E-13  5.965718E-14
       214  13  1.263549E+03 -6.019458E+00  1.146767E+01 -1.294399E+02 -2.802246E-13  2.627105E-14
       214  14  1.278751E+03 -1.006477E+01  1.237519E+01 -1.271614E+02  7.005614E-14  1.401123E-13
       214  15  1.293689E+03 -1.476664E+01  1.305667E+01 -1.250874E+02  1.926544E-13  4.925822E-14
       214  16  1.235572E+03 -7.036045E+00  9.102732E+00 -1.444765E+02 -1.050842E-13  0.000000E+00
       214  17  1.249887E+03 -1.210326E+01  9.850731E+00 -1.423490E+02 -1.751404E-14  2.254932E-13
       214  18  1.263928E+03 -1.783560E+01  1.035268E+01 -1.404260E+02  2.627105E-13  2.156416E-13
       214  19  1.291927E+03 -4.692181E+00  1.446849E+01 -1.146752E+02  1.187251E+01 -2.367455E+01
       214  20  1.308032E+03 -7.699984E+00  1.557188E+01 -1.122458E+02  1.160246E+01 -2.522322E+01
       214  21  1.323881E+03 -1.135577E+01  1.646925E+01 -1.100208E+02  1.133239E+01 -2.671015E+01
       214  22  1.263549E+03 -6.019458E+00  1.146767E+01 -1.294399E+02  1.023697E+01 -2.542906E+01
       214  23  1.278751E+03 -1.006477E+01  1.237519E+01 -1.271614E+02  1.002862E+01 -2.708982E+01
       214  24  1.293689E+03 -1.476664E+01  1.305667E+01 -1.250874E+02  9.820269E+00 -2.868884E+01
       214  25  1.235572E+03 -7.036045E+00  9.102732E+00 -1.444765E+02  8.489308E+00 -2.718351E+01
       214  26  1.249887E+03 -1.210326E+01  9.850731E+00 -1.423490E+02  8.342672E+00 -2.895635E+01
       214  27  1.263928E+03 -1.783560E+01  1.035268E+01 -1.404260E+02  8.196032E+00 -3.066746E+01
       215   1  1.219270E+03 -7.781779E+00  7.855223E+00 -1.523107E+02 -7.427711E+00  2.789829E+01
       215   2  1.233158E+03 -1.329349E+01  8.593951E+00 -1.504380E+02 -7.310760E+00  2.972097E+01
       215   3  1.246506E+03 -2.008822E+01  8.813954E+00 -1.487433E+02 -7.193804E+00  3.150331E+01
       215   4  1.191308E+03 -7.813493E+00  6.289004E+00 -1.643577E+02 -5.534561E+00  2.886061E+01
       215   5  1.204378E+03 -1.438821E+01  6.914558E+00 -1.630967E+02 -5.457909E+00  3.078401E+01
       215   6  1.216903E+03 -2.225155E+01  7.008307E+00 -1.620137E+02 -5.381255E+00  3.266707E+01
       215   7  1.162638E+03 -8.072003E+00  4.674197E+00 -1.767062E+02 -3.540698E+00  2.982294E+01
       215   8  1.174905E+03 -1.569574E+01  5.219208E+00 -1.760568E+02 -3.504345E+00  3.184705E+01
       215   9  1.186621E+03 -2.461372E+01  5.219335E+00 -1.755855E+02 -3.467990E+00  3.383083E+01
       215  10  1.219270E+03 -7.781779E+00  7.855223E+00 -1.523107E+02 -3.327667E-13  0.000000E+00
       215  11  1.233158E+03 -1.329349E+01  8.593951E+00 -1.504380E+02 -5.254211E-14 -3.459022E-13
       215  12  1.246506E+03 -2.008822E+01  8.813954E+00 -1.487433E+02 -1.882759E-13 -3.103268E-13
       215  13  1.191308E+03 -7.813493E+00  6.289004E+00 -1.643577E+02 -2.101684E-13 -1.751404E-14
       215  14  1.204378E+03 -1.438821E+01  6.914558E+00 -1.630967E+02  7.005614E-14 -6.129912E-14
       215  15  1.216903E+03 -2.225155E+01  7.008307E+00 -1.620137E+02  0.000000E+00 -1.094627E-14
       215  16  1.162638E+03 -8.072003E+00  4.674197E+00 -1.767062E+02 -7.005614E-14  4.378509E-15
       215  17  1.174905E+03 -1.569574E+01  5.219208E+00 -1.760568E+02 -8.757018E-14 -7.881316E-14
       215  18  1.186621E+03 -2.461372E+01  5.219335E+00 -1.755855E+02 -1.576263E-13  5.133802E-13
       215  19  1.219270E+03 -7.781779E+00  7.855223E+00 -1.523107E+02  7.427711E+00 -2.789829E+01
       215  20  1.233158E+03 -1.329349E+01  8.593951E+00 -1.504380E+02  7.310760E+00 -2.972097E+01
       215  21  1.246506E+03 -2.008822E+01  8.813954E+00 -1.487433E+02  7.193804E+00 -3.150331E+01
       215  22  1.191308E+03 -7.813493E+00  6.289004E+00 -1.643577E+02  5.534561E+00 -2.886061E+01
       215  23  1.204378E+03 -1.438821E+01  6.914558E+00 -1.630967E+02  5.457909E+00 -3.078401E+01
       215  24  1.216903E+03 -2.225155E+01  7.008307E+00 -1.620137E+02  5.381255E+00 -3.266707E+01
       215  25  1.162638E+03 -8.072003E+00  4.674197E+00 -1.767062E+02  3.540698E+00 -2.982294E+01
       215  26  1.174905E+03 -1.569574E+01  5.219208E+00 -1.760568E+02  3.504345E+00 -3.184705E+01
       215  27  1.186621E+03 -2.461372E+01  5.219335E+00 -1.755855E+02  3.467990E+00 -3.383083E+01
       216   1  1.186627E+03  4.298345E+00  6.396575E+00 -1.510872E+02 -7.728855E+00  2.306843E+01
       216   2  1.199351E+03  3.261784E-01  7.175486E+00 -1.516340E+02 -7.611906E+00  2.493840E+01
       216   3  1.211610E+03 -4.750127E+00  7.512132E+00 -1.525250E+02 -7.494957E+00  2.681364E+01
       216   4  1.161663E+03  6.395613E+00  5.182237E+00 -1.618172E+02 -5.825304E+00  2.383550E+01
       216   5  1.173221E+03  1.645429E+00  5.836933E+00 -1.628916E+02 -5.703080E+00  2.577790E+01
       216   6  1.184315E+03 -4.208161E+00  6.051074E+00 -1.643103E+02 -5.580856E+00  2.772559E+01
       216   7  1.136078E+03  8.288130E+00  3.905197E+00 -1.726976E+02 -3.849316E+00  2.460257E+01
       216   8  1.146481E+03  2.769989E+00  4.459152E+00 -1.742996E+02 -3.721817E+00  2.661741E+01
       216   9  1.156421E+03 -3.850825E+00  4.574263E+00 -1.762459E+02 -3.594318E+00  2.863753E+01
       216  10  1.186627E+03  4.298345E+00  6.396575E+00 -1.510872E+02  3.152526E-13  1.357338E-13
       216  11  1.199351E+03  3.261784E-01  7.175486E+00 -1.516340E+02 -1.751404E-14  7.443465E-14
       216  12  1.211610E+03 -4.750127E+00  7.512132E+00 -1.525250E+02 -3.283882E-13 -9.085406E-14
       216  13  1.161663E+03  6.395613E+00  5.182237E+00 -1.618172E+02 -7.005614E-14 -3.502807E-14
       216  14  1.173221E+03  1.645429E+00  5.836933E+00 -1.628916E+02 -7.005614E-14 -4.816360E-14
       216  15  1.184315E+03 -4.208161E+00  6.051074E+00 -1.643103E+02 -4.553649E-13 -3.721732E-14
       216  16  1.136078E+03  8.288130E+00  3.905197E+00 -1.726976E+02  2.627105E-13 -2.714675E-13
       216  17  1.146481E+03  2.769989E+00  4.459152E+00 -1.742996E+02 -5.254211E-14 -2.802246E-13
       216  18  1.156421E+03 -3.850825E+00  4.574263E+00 -1.762459E+02 -1.707618E-13 -2.484804E-13
       216  19  1.186627E+03  4.298345E+00  6.396575E+00 -1.510872E+02  7.728855E+00 -2.306843E+01
       216  20  1.199351E+03  3.261784E-01  7.175486E+00 -1.516340E+02  7.611906E+00 -2.493840E+01
       216  21  1.211610E+03 -4.750127E+00  7.512132E+00 -1.525250E+02  7.494957E+00 -2.681364E+01
       216  22  1.161663E+03  6.395613E+00  5.182237E+00 -1.618172E+02  5.825304E+00 -2.383550E+01
       216  23  1.173221E+03  1.645429E+00  5.836933E+00 -1.628916E+02  5.703080E+00 -2.577790E+01
       216  24  1.184315E+03 -4.208161E+00  6.051074E+00 -1.643103E+02  5.580856E+00 -2.772559E+01
       216  25  1.136078E+03  8.288130E+00  3.905197E+00 -1.726976E+02  3.849316E+00 -2.460257E+01
       216  26  1.146481E+03  2.769989E+00  4.459152E+00 -1.742996E+02  3.721817E+00 -2.661741E+01
       216  27  1.156421E+03 -3.850825E+00  4.574263E+00 -1.762459E+02  3.594318E+00 -2.863753E+01
       217   1  1.033990E+03  4.566442E+01 -7.451065E-01 -9.000279E+01 -3.052933E+00 -1.967297E-02
       217   2  1.039918E+03  3.910551E+01 -9.156677E-01 -8.441845E+01 -4.114938E+00 -1.356392E-01
       217   3  1.045131E+03  3.224936E+01 -1.361989E+00 -7.877794E+01 -5.130285E+00 -2.516054E-01
       217   4  1.038913E+03  4.424871E+01 -4.512792E-01 -9.660646E+01 -3.247161E+00  1.101641E+00
       217   5  1.045799E+03  3.785298E+01 -5.496436E-01 -9.078556E+01 -4.381085E+00  9.390167E-01
       217   6  1.051978E+03  3.116648E+01 -9.086528E-01 -8.490850E+01 -5.468351E+00  7.763923E-01
       217   7  1.043768E+03  4.270941E+01 -2.617319E-01 -1.035517E+02 -3.441395E+00  2.294857E+00
       217   8  1.051603E+03  3.646689E+01 -3.111838E-01 -9.749426E+01 -4.647240E+00  2.085575E+00
       217   9  1.058736E+03  2.994008E+01 -6.061651E-01 -9.138064E+01 -5.806427E+00  1.876292E+00
       217  10  1.033990E+03  4.566442E+01 -7.451065E-01 -9.000279E+01 -7.005614E-14  1.576263E-13
       217  11  1.039918E+03  3.910551E+01 -9.156677E-01 -8.441845E+01  1.401123E-13  3.502807E-14
       217  12  1.045131E+03  3.224936E+01 -1.361989E+00 -7.877794E+01 -4.203368E-13  7.908681E-14
       217  13  1.038913E+03  4.424871E+01 -4.512792E-01 -9.660646E+01 -1.225982E-13  0.000000E+00
       217  14  1.045799E+03  3.785298E+01 -5.496436E-01 -9.078556E+01  2.101684E-13  6.129912E-14
       217  15  1.051978E+03  3.116648E+01 -9.086528E-01 -8.490850E+01  0.000000E+00  3.524700E-13
       217  16  1.043768E+03  4.270941E+01 -2.617319E-01 -1.035517E+02  4.903930E-13 -2.561428E-13
       217  17  1.051603E+03  3.646689E+01 -3.111838E-01 -9.749426E+01  4.903930E-13  6.567763E-14
       217  18  1.058736E+03  2.994008E+01 -6.061651E-01 -9.138064E+01  2.451965E-13  2.383551E-13
       217  19  1.033990E+03  4.566442E+01 -7.451065E-01 -9.000279E+01  3.052933E+00  1.967297E-02
       217  20  1.039918E+03  3.910551E+01 -9.156677E-01 -8.441845E+01  4.114938E+00  1.356392E-01
       217  21  1.045131E+03  3.224936E+01 -1.361989E+00 -7.877794E+01  5.130285E+00  2.516054E-01
       217  22  1.038913E+03  4.424871E+01 -4.512792E-01 -9.660646E+01  3.247161E+00 -1.101641E+00
       217  23  1.045799E+03  3.785298E+01 -5.496436E-01 -9.078556E+01  4.381085E+00 -9.390167E-01
       217  24  1.051978E+03  3.116648E+01 -9.086528E-01 -8.490850E+01  5.468351E+00 -7.763923E-01
       217  25  1.043768E+03  4.270941E+01 -2.617319E-01 -1.035517E+02  3.441395E+00 -2.294857E+00
       217  26  1.051603E+03  3.646689E+01 -3.111838E-01 -9.749426E+01  4.647240E+00 -2.085575E+00
       217  27  1.058736E+03  2.994008E+01 -6.061651E-01 -9.138064E+01  5.806427E+00 -1.876292E+00
       218   1  1.047965E+03  2.839375E+01 -1.628767E+00 -7.483395E+01 -5.696470E+00 -3.231153E-01
       218   2  1.052491E+03  2.283635E+01 -1.840965E+00 -6.706233E+01 -6.607739E+00 -4.833115E-01
       218   3  1.055628E+03  1.669566E+01 -2.606605E+00 -5.924286E+01 -7.442802E+00 -6.435131E-01
       218   4  1.055374E+03  2.745845E+01 -1.103858E+00 -8.079405E+01 -6.078524E+00  6.658706E-01
       218   5  1.060802E+03  2.207577E+01 -1.222125E+00 -7.256847E+01 -7.069038E+00  4.294843E-01
       218   6  1.064851E+03  1.612037E+01 -1.869150E+00 -6.429502E+01 -7.983346E+00  1.930901E-01
       218   7  1.062655E+03  2.629352E+01 -7.783288E-01 -8.706992E+01 -6.460590E+00  1.734086E+00
       218   8  1.068974E+03  2.107457E+01 -8.283267E-01 -7.839039E+01 -7.530353E+00  1.421511E+00
       218   9  1.073923E+03  1.529347E+01 -1.382399E+00 -6.966297E+01 -8.523908E+00  1.108925E+00
       218  10  1.047965E+03  2.839375E+01 -1.628767E+00 -7.483395E+01 -3.502807E-13 -1.444908E-13
       218  11  1.052491E+03  2.283635E+01 -1.840965E+00 -6.706233E+01 -2.802246E-13 -5.035285E-14
       218  12  1.055628E+03  1.669566E+01 -2.606605E+00 -5.924286E+01 -6.129912E-14  9.140137E-14
       218  13  1.055374E+03  2.745845E+01 -1.103858E+00 -8.079405E+01  3.677947E-13 -2.014114E-13
       218  14  1.060802E+03  2.207577E+01 -1.222125E+00 -7.256847E+01  1.401123E-13 -7.443465E-14
       218  15  1.064851E+03  1.612037E+01 -1.869150E+00 -6.429502E+01  1.123497E-13  1.423015E-13
       218  16  1.062655E+03  2.629352E+01 -7.783288E-01 -8.706992E+01  2.802246E-13 -5.779632E-13
       218  17  1.068974E+03  2.107457E+01 -8.283267E-01 -7.839039E+01  5.604491E-13 -3.283882E-14
       218  18  1.073923E+03  1.529347E+01 -1.382399E+00 -6.966297E+01  2.802246E-13  5.965718E-13
       218  19  1.047965E+03  2.839375E+01 -1.628767E+00 -7.483395E+01  5.696470E+00  3.231153E-01
       218  20  1.052491E+03  2.283635E+01 -1.840965E+00 -6.706233E+01  6.607739E+00  4.833115E-01
       218  21  1.055628E+03  1.669566E+01 -2.606605E+00 -5.924286E+01  7.442802E+00  6.435131E-01
       218  22  1.055374E+03  2.745845E+01 -1.103858E+00 -8.079405E+01  6.078524E+00 -6.658706E-01
       218  23  1.060802E+03  2.207577E+01 -1.222125E+00 -7.256847E+01  7.069038E+00 -4.294843E-01
       218  24  1.064851E+03  1.612037E+01 -1.869150E+00 -6.429502E+01  7.983346E+00 -1.930901E-01
       218  25  1.062655E+03  2.629352E+01 -7.783288E-01 -8.706992E+01  6.460590E+00 -1.734086E+00
       218  26  1.068974E+03  2.107457E+01 -8.283267E-01 -7.839039E+01  7.530353E+00 -1.421511E+00
       218  27  1.073923E+03  1.529347E+01 -1.382399E+00 -6.966297E+01  8.523908E+00 -1.108925E+00
       219   1  1.067175E+03  2.568087E+01 -5.280464E-01 -9.052390E+01 -6.691253E+00  2.391969E+00
       219   2  1.074120E+03  2.057736E+01 -5.083686E-01 -8.159586E+01 -7.805055E+00  2.035010E+00
       219   3  1.079703E+03  1.491813E+01 -9.781244E-01 -7.259161E+01 -8.842500E+00  1.678039E+00
       219   4  1.075524E+03  2.477736E+01  5.314671E-02 -9.597122E+01 -7.039103E+00  3.579990E+00
       219   5  1.083612E+03  1.985505E+01  1.930517E-01 -8.658507E+01 -8.225052E+00  3.146695E+00
       219   6  1.090348E+03  1.438761E+01 -1.317355E-01 -7.712269E+01 -9.334644E+00  2.713385E+00
       219   7  1.083744E+03  2.363355E+01  4.393337E-01 -1.018231E+02 -7.386954E+00  4.840156E+00
       219   8  1.092964E+03  1.888243E+01  6.760838E-01 -9.197884E+01 -8.645049E+00  4.330525E+00
       219   9  1.100843E+03  1.359676E+01  4.728833E-01 -8.205834E+01 -9.826787E+00  3.820877E+00
       219  10  1.067175E+03  2.568087E+01 -5.280464E-01 -9.052390E+01 -2.101684E-13 -5.035285E-13
       219  11  1.074120E+03  2.057736E+01 -5.083686E-01 -8.159586E+01 -1.751404E-13 -8.100241E-14
       219  12  1.079703E+03  1.491813E+01 -9.781244E-01 -7.259161E+01  2.451965E-13  5.188533E-13
       219  13  1.075524E+03  2.477736E+01  5.314671E-02 -9.597122E+01 -5.254211E-14 -5.516921E-13
       219  14  1.083612E+03  1.985505E+01  1.930517E-01 -8.658507E+01 -7.005614E-14 -1.576263E-13
       219  15  1.090348E+03  1.438761E+01 -1.317355E-01 -7.712269E+01  3.987722E-14  5.692061E-14
       219  16  1.083744E+03  2.363355E+01  4.393337E-01 -1.018231E+02  2.101684E-13  1.401123E-13
       219  17  1.092964E+03  1.888243E+01  6.760838E-01 -9.197884E+01 -1.050842E-13 -8.975943E-14
       219  18  1.100843E+03  1.359676E+01  4.728833E-01 -8.205834E+01 -2.539535E-13 -1.275241E-13
       219  19  1.067175E+03  2.568087E+01 -5.280464E-01 -9.052390E+01  6.691253E+00 -2.391969E+00
       219  20  1.074120E+03  2.057736E+01 -5.083686E-01 -8.159586E+01  7.805055E+00 -2.035010E+00
       219  21  1.079703E+03  1.491813E+01 -9.781244E-01 -7.259161E+01  8.842500E+00 -1.678039E+00
       219  22  1.075524E+03  2.477736E+01  5.314671E-02 -9.597122E+01  7.039103E+00 -3.579990E+00
       219  23  1.083612E+03  1.985505E+01  1.930517E-01 -8.658507E+01  8.225052E+00 -3.146695E+00
       219  24  1.090348E+03  1.438761E+01 -1.317355E-01 -7.712269E+01  9.334644E+00 -2.713385E+00
       219  25  1.083744E+03  2.363355E+01  4.393337E-01 -1.018231E+02  7.386954E+00 -4.840156E+00
       219  26  1.092964E+03  1.888243E+01  6.760838E-01 -9.197884E+01  8.645049E+00 -4.330525E+00
       219  27  1.100843E+03  1.359676E+01  4.728833E-01 -8.205834E+01  9.826787E+00 -3.820877E+00
       220   1  1.046714E+03  4.184125E+01 -1.291145E-01 -1.073962E+02 -3.560352E+00  3.020100E+00
       220   2  1.055192E+03  3.570898E+01 -1.242881E-01 -1.012092E+02 -4.803962E+00  2.786092E+00
       220   3  1.062912E+03  2.927072E+01 -3.821244E-01 -9.494769E+01 -6.009261E+00  2.552083E+00
       220   4  1.052115E+03  4.043540E+01  1.922230E-01 -1.135686E+02 -3.728090E+00  4.317592E+00
       220   5  1.061722E+03  3.447281E+01  2.789278E-01 -1.071177E+02 -5.041154E+00  4.045273E+00
       220   6  1.070577E+03  2.820954E+01  1.153856E-01 -1.005923E+02 -6.315907E+00  3.772954E+00
       220   7  1.057436E+03  3.887242E+01  4.018441E-01 -1.201462E+02 -3.895829E+00  5.684538E+00
       220   8  1.068162E+03  3.306986E+01  5.479196E-01 -1.134314E+02 -5.278346E+00  5.373908E+00
       220   9  1.078142E+03  2.697194E+01  4.561635E-01 -1.066421E+02 -6.622552E+00  5.063278E+00
       220  10  1.046714E+03  4.184125E+01 -1.291145E-01 -1.073962E+02  7.005614E-14 -7.443465E-14
       220  11  1.055192E+03  3.570898E+01 -1.242881E-01 -1.012092E+02 -3.502807E-14  9.851645E-14
       220  12  1.062912E+03  2.927072E+01 -3.821244E-01 -9.494769E+01 -4.553649E-13  5.098226E-13
       220  13  1.052115E+03  4.043540E+01  1.922230E-01 -1.135686E+02 -2.627105E-13  3.590377E-13
       220  14  1.061722E+03  3.447281E+01  2.789278E-01 -1.071177E+02 -5.604491E-13  2.714675E-13
       220  15  1.070577E+03  2.820954E+01  1.153856E-01 -1.005923E+02 -7.005614E-14 -9.851645E-15
       220  16  1.057436E+03  3.887242E+01  4.018441E-01 -1.201462E+02 -4.203368E-13  8.757018E-13
       220  17  1.068162E+03  3.306986E+01  5.479196E-01 -1.134314E+02 -3.502807E-14  1.028950E-13
       220  18  1.078142E+03  2.697194E+01  4.561635E-01 -1.066421E+02 -3.502807E-14 -6.236638E-13
       220  19  1.046714E+03  4.184125E+01 -1.291145E-01 -1.073962E+02  3.560352E+00 -3.020100E+00
       220  20  1.055192E+03  3.570898E+01 -1.242881E-01 -1.012092E+02  4.803962E+00 -2.786092E+00
       220  21  1.062912E+03  2.927072E+01 -3.821244E-01 -9.494769E+01  6.009261E+00 -2.552083E+00
       220  22  1.052115E+03  4.043540E+01  1.922230E-01 -1.135686E+02  3.728090E+00 -4.317592E+00
       220  23  1.061722E+03  3.447281E+01  2.789278E-01 -1.071177E+02  5.041154E+00 -4.045273E+00
       220  24  1.070577E+03  2.820954E+01  1.153856E-01 -1.005923E+02  6.315907E+00 -3.772954E+00
       220  25  1.057436E+03  3.887242E+01  4.018441E-01 -1.201462E+02  3.895829E+00 -5.684538E+00
       220  26  1.068162E+03  3.306986E+01  5.479196E-01 -1.134314E+02  5.278346E+00 -5.373908E+00
       220  27  1.078142E+03  2.697194E+01  4.561635E-01 -1.066421E+02  6.622552E+00 -5.063278E+00
       221   1  9.855914E+02  1.883299E+02  1.003013E+01 -1.683237E+00  1.093591E+01 -1.808386E-01
       221   2  9.896067E+02  1.992820E+02  1.205266E+01 -1.400518E+00  9.564792E+00 -2.086249E-01
       221   3  9.950305E+02  2.132667E+02  1.573764E+01 -1.122349E+00  8.193674E+00 -2.229102E-01
       221   4  9.854455E+02  1.870254E+02  9.707126E+00 -7.296352E+00  1.086235E+01 -7.505604E-01
       221   5  9.893977E+02  1.978481E+02  1.168799E+01 -6.035555E+00  9.504731E+00 -8.563965E-01
       221   6  9.947564E+02  2.117015E+02  1.532690E+01 -4.779309E+00  8.147113E+00 -9.487318E-01
       221   7  9.859599E+02  1.860491E+02  9.817800E+00 -1.294678E+01  1.071073E+01 -1.320263E+00
       221   8  9.898597E+02  1.967532E+02  1.178229E+01 -1.070791E+01  9.366619E+00 -1.504146E+00
       221   9  9.951643E+02  2.104862E+02  1.540043E+01 -8.473596E+00  8.022502E+00 -1.674529E+00
       221  10  9.855914E+02  1.883299E+02  1.003013E+01 -1.683237E+00  7.005614E-14 -1.401123E-13
       221  11  9.896067E+02  1.992820E+02  1.205266E+01 -1.400518E+00 -7.005614E-14  6.991931E-14
       221  12  9.950305E+02  2.132667E+02  1.573764E+01 -1.122349E+00 -9.632719E-14 -4.376798E-13
       221  13  9.854455E+02  1.870254E+02  9.707126E+00 -7.296352E+00 -2.101684E-13 -2.736568E-16
       221  14  9.893977E+02  1.978481E+02  1.168799E+01 -6.035555E+00 -2.101684E-13  2.736568E-16
       221  15  9.947564E+02  2.117015E+02  1.532690E+01 -4.779309E+00  2.627105E-13 -3.971647E-14
       221  16  9.859599E+02  1.860491E+02  9.817800E+00 -1.294678E+01 -2.101684E-13  1.401123E-13
       221  17  9.898597E+02  1.967532E+02  1.178229E+01 -1.070791E+01  3.152526E-13  2.807719E-13
       221  18  9.951643E+02  2.104862E+02  1.540043E+01 -8.473596E+00  9.632719E-14  1.576434E-13
       221  19  9.855914E+02  1.883299E+02  1.003013E+01 -1.683237E+00 -1.093591E+01  1.808386E-01
       221  20  9.896067E+02  1.992820E+02  1.205266E+01 -1.400518E+00 -9.564792E+00  2.086249E-01
       221  21  9.950305E+02  2.132667E+02  1.573764E+01 -1.122349E+00 -8.193674E+00  2.229102E-01
       221  22  9.854455E+02  1.870254E+02  9.707126E+00 -7.296352E+00 -1.086235E+01  7.505604E-01
       221  23  9.893977E+02  1.978481E+02  1.168799E+01 -6.035555E+00 -9.504731E+00  8.563965E-01
       221  24  9.947564E+02  2.117015E+02  1.532690E+01 -4.779309E+00 -8.147113E+00  9.487318E-01
       221  25  9.859599E+02  1.860491E+02  9.817800E+00 -1.294678E+01 -1.071073E+01  1.320263E+00
       221  26  9.898597E+02  1.967532E+02  1.178229E+01 -1.070791E+01 -9.366619E+00  1.504146E+00
       221  27  9.951643E+02  2.104862E+02  1.540043E+01 -8.473596E+00 -8.022502E+00  1.674529E+00
       222   1  9.972293E+02  2.221564E+02  1.797768E+01 -9.240468E-01  7.097541E+00 -2.371372E-01
       222   2  9.979741E+02  2.387731E+02  2.182327E+01 -5.125591E-01  4.224668E+00 -2.610281E-01
       222   3  1.000799E+03  2.597120E+02  2.828121E+01 -7.929643E-02  1.351700E+00 -2.548184E-01
       222   4  9.969804E+02  2.205172E+02  1.755968E+01 -3.941320E+00  7.040772E+00 -9.960470E-01
       222   5  9.977064E+02  2.369371E+02  2.135061E+01 -2.274380E+00  4.197999E+00 -1.055596E+00
       222   6  1.000508E+03  2.576749E+02  2.774411E+01 -5.856276E-01  1.355130E+00 -1.085044E+00
       222   7  9.973075E+02  2.191852E+02  1.758933E+01 -7.025433E+00  6.948346E+00 -1.754931E+00
       222   8  9.980196E+02  2.354132E+02  2.133717E+01 -4.103047E+00  4.135671E+00 -1.850136E+00
       222   9  1.000803E+03  2.559549E+02  2.767780E+01 -1.158811E+00  1.322903E+00 -1.915242E+00
       222  10  9.972293E+02  2.221564E+02  1.797768E+01 -9.240468E-01 -2.977386E-13 -1.400439E-13
       222  11  9.979741E+02  2.387731E+02  2.182327E+01 -5.125591E-01  1.751404E-14  3.502123E-13
       222  12  1.000799E+03  2.597120E+02  2.828121E+01 -7.929643E-02  2.539535E-13  5.255921E-14
       222  13  9.969804E+02  2.205172E+02  1.755968E+01 -3.941320E+00  3.502807E-13  8.757018E-14
       222  14  9.977064E+02  2.369371E+02  2.135061E+01 -2.274380E+00  3.502807E-13  2.803614E-13
       222  15  1.000508E+03  2.576749E+02  2.774411E+01 -5.856276E-01 -1.751404E-13  8.753597E-14
       222  16  9.973075E+02  2.191852E+02  1.758933E+01 -7.025433E+00  8.231596E-13  2.800193E-13
       222  17  9.980196E+02  2.354132E+02  2.133717E+01 -4.103047E+00  1.751404E-13  3.498018E-13
       222  18  1.000803E+03  2.559549E+02  2.767780E+01 -1.158811E+00 -3.502807E-13  3.504517E-14
       222  19  9.972293E+02  2.221564E+02  1.797768E+01 -9.240468E-01 -7.097541E+00  2.371372E-01
       222  20  9.979741E+02  2.387731E+02  2.182327E+01 -5.125591E-01 -4.224668E+00  2.610281E-01
       222  21  1.000799E+03  2.597120E+02  2.828121E+01 -7.929643E-02 -1.351700E+00  2.548184E-01
       222  22  9.969804E+02  2.205172E+02  1.755968E+01 -3.941320E+00 -7.040772E+00  9.960470E-01
       222  23  9.977064E+02  2.369371E+02  2.135061E+01 -2.274380E+00 -4.197999E+00  1.055596E+00
       222  24  1.000508E+03  2.576749E+02  2.774411E+01 -5.856276E-01 -1.355130E+00  1.085044E+00
       222  25  9.973075E+02  2.191852E+02  1.758933E+01 -7.025433E+00 -6.948346E+00  1.754931E+00
       222  26  9.980196E+02  2.354132E+02  2.133717E+01 -4.103047E+00 -4.135671E+00  1.850136E+00
       222  27  1.000803E+03  2.559549E+02  2.767780E+01 -1.158811E+00 -1.322903E+00  1.915242E+00
       223   1  9.973306E+02  2.174108E+02  1.734248E+01 -8.814199E+00  6.862142E+00 -2.213262E+00
       223   2  9.980584E+02  2.334966E+02  2.106895E+01 -5.095439E+00  4.083943E+00 -2.354733E+00
       223   3  1.000744E+03  2.536361E+02  2.726768E+01 -1.312760E+00  1.305651E+00 -2.407823E+00
       223   4  9.971767E+02  2.129072E+02  1.656322E+01 -1.156835E+01  6.659790E+00 -2.920833E+00
       223   5  9.978537E+02  2.284198E+02  2.014059E+01 -6.675678E+00  3.969967E+00 -3.095696E+00
       223   6  1.000476E+03  2.479739E+02  2.616159E+01 -1.719052E+00  1.280055E+00 -3.182178E+00
       223   7  9.975616E+02  2.086906E+02  1.620203E+01 -1.451989E+01  6.424047E+00 -3.628404E+00
       223   8  9.981925E+02  2.236347E+02  1.964111E+01 -8.453306E+00  3.822601E+00 -3.836659E+00
       223   9  1.000757E+03  2.426080E+02  2.549520E+01 -2.322737E+00  1.221067E+00 -3.956533E+00
       223  10  9.973306E+02  2.174108E+02  1.734248E+01 -8.814199E+00  5.429351E-13 -4.203368E-13
       223  11  9.980584E+02  2.334966E+02  2.106895E+01 -5.095439E+00 -1.401123E-13 -9.107298E-13
       223  12  1.000744E+03  2.536361E+02  2.726768E+01 -1.312760E+00 -5.516921E-13 -4.028570E-13
       223  13  9.971767E+02  2.129072E+02  1.656322E+01 -1.156835E+01 -7.005614E-14 -1.751404E-13
       223  14  9.978537E+02  2.284198E+02  2.014059E+01 -6.675678E+00  1.401123E-13 -4.909403E-13
       223  15  1.000476E+03  2.479739E+02  2.616159E+01 -1.719052E+00 -1.225982E-13 -1.404544E-13
       223  16  9.975616E+02  2.086906E+02  1.620203E+01 -1.451989E+01 -6.305053E-13 -1.403859E-13
       223  17  9.981925E+02  2.236347E+02  1.964111E+01 -8.453306E+00  8.757018E-14  0.000000E+00
       223  18  1.000757E+03  2.426080E+02  2.549520E+01 -2.322737E+00  3.853088E-13  1.747983E-14
       223  19  9.973306E+02  2.174108E+02  1.734248E+01 -8.814199E+00 -6.862142E+00  2.213262E+00
       223  20  9.980584E+02  2.334966E+02  2.106895E+01 -5.095439E+00 -4.083943E+00  2.354733E+00
       223  21  1.000744E+03  2.536361E+02  2.726768E+01 -1.312760E+00 -1.305651E+00  2.407823E+00
       223  22  9.971767E+02  2.129072E+02  1.656322E+01 -1.156835E+01 -6.659790E+00  2.920833E+00
       223  23  9.978537E+02  2.284198E+02  2.014059E+01 -6.675678E+00 -3.969967E+00  3.095696E+00
       223  24  1.000476E+03  2.479739E+02  2.616159E+01 -1.719052E+00 -1.280055E+00  3.182178E+00
       223  25  9.975616E+02  2.086906E+02  1.620203E+01 -1.451989E+01 -6.424047E+00  3.628404E+00
       223  26  9.981925E+02  2.236347E+02  1.964111E+01 -8.453306E+00 -3.822601E+00  3.836659E+00
       223  27  1.000757E+03  2.426080E+02  2.549520E+01 -2.322737E+00 -1.221067E+00  3.956533E+00
       224   1  9.861558E+02  1.846809E+02  9.675965E+00 -1.620474E+01  1.058011E+01 -1.669549E+00
       224   2  9.900257E+02  1.953278E+02  1.164390E+01 -1.341855E+01  9.251460E+00 -1.907254E+00
       224   3  9.952183E+02  2.088151E+02  1.518060E+01 -1.064609E+01  7.922810E+00 -2.105309E+00
       224   4  9.863899E+02  1.811790E+02  9.161419E+00 -2.141594E+01  1.028605E+01 -2.200007E+00
       224   5  9.900844E+02  1.914577E+02  1.103228E+01 -1.771502E+01  8.997046E+00 -2.510779E+00
       224   6  9.950962E+02  2.045711E+02  1.445906E+01 -1.402783E+01  7.708048E+00 -2.781901E+00
       224   7  9.872434E+02  1.779848E+02  9.052684E+00 -2.673738E+01  9.918914E+00 -2.730465E+00
       224   8  9.907728E+02  1.879052E+02  1.085015E+01 -2.212172E+01  8.669566E+00 -3.114305E+00
       224   9  9.956139E+02  2.006550E+02  1.419069E+01 -1.751980E+01  7.420218E+00 -3.458493E+00
       224  10  9.861558E+02  1.846809E+02  9.675965E+00 -1.620474E+01 -3.502807E-14  0.000000E+00
       224  11  9.900257E+02  1.953278E+02  1.164390E+01 -1.341855E+01  1.576263E-13 -4.199264E-13
       224  12  9.952183E+02  2.088151E+02  1.518060E+01 -1.064609E+01  1.488693E-13 -1.572842E-13
       224  13  9.863899E+02  1.811790E+02  9.161419E+00 -2.141594E+01  1.401123E-13 -3.502807E-14
       224  14  9.900844E+02  1.914577E+02  1.103228E+01 -1.771502E+01  2.101684E-13 -7.005614E-14
       224  15  9.950962E+02  2.045711E+02  1.445906E+01 -1.402783E+01  3.152526E-13 -3.892841E-14
       224  16  9.872434E+02  1.779848E+02  9.052684E+00 -2.673738E+01 -3.327667E-13  2.807719E-13
       224  17  9.907728E+02  1.879052E+02  1.085015E+01 -2.212172E+01  8.757018E-14  0.000000E+00
       224  18  9.956139E+02  2.006550E+02  1.419069E+01 -1.751980E+01  5.341781E-13  1.927570E-13
       224  19  9.861558E+02  1.846809E+02  9.675965E+00 -1.620474E+01 -1.058011E+01  1.669549E+00
       224  20  9.900257E+02  1.953278E+02  1.164390E+01 -1.341855E+01 -9.251460E+00  1.907254E+00
       224  21  9.952183E+02  2.088151E+02  1.518060E+01 -1.064609E+01 -7.922810E+00  2.105309E+00
       224  22  9.863899E+02  1.811790E+02  9.161419E+00 -2.141594E+01 -1.028605E+01  2.200007E+00
       224  23  9.900844E+02  1.914577E+02  1.103228E+01 -1.771502E+01 -8.997046E+00  2.510779E+00
       224  24  9.950962E+02  2.045711E+02  1.445906E+01 -1.402783E+01 -7.708048E+00  2.781901E+00
       224  25  9.872434E+02  1.779848E+02  9.052684E+00 -2.673738E+01 -9.918914E+00  2.730465E+00
       224  26  9.907728E+02  1.879052E+02  1.085015E+01 -2.212172E+01 -8.669566E+00  3.114305E+00
       224  27  9.956139E+02  2.006550E+02  1.419069E+01 -1.751980E+01 -7.420218E+00  3.458493E+00
       225   1  6.366197E+02  7.793636E+01 -4.706594E+00 -1.383948E+02  3.807857E+01  1.873009E+01
       225   2  6.140494E+02  8.371030E+01 -5.672570E+00 -1.123200E+02  3.984001E+01  1.510692E+01
       225   3  5.970620E+02  9.158940E+01 -5.204332E+00 -8.583002E+01  4.127247E+01  1.148375E+01
       225   4  6.597354E+02  8.738311E+01 -3.819210E+00 -1.303781E+02  3.570531E+01  1.688464E+01
       225   5  6.389968E+02  9.262257E+01 -4.800695E+00 -1.056524E+02  3.730578E+01  1.359045E+01
       225   6  6.238867E+02  1.000129E+02 -4.241392E+00 -8.051153E+01  3.857727E+01  1.029627E+01
       225   7  6.825951E+02  9.579468E+01 -2.748019E+00 -1.231292E+02  3.333213E+01  1.520013E+01
       225   8  6.637104E+02  1.005220E+02 -3.692891E+00 -9.975255E+01  3.477163E+01  1.223493E+01
       225   9  6.504999E+02  1.074457E+02 -2.990405E+00 -7.596082E+01  3.588215E+01  9.269731E+00
       225  10  6.366197E+02  7.793636E+01 -4.706594E+00 -1.383948E+02  3.152526E-13 -1.579000E-13
       225  11  6.140494E+02  8.371030E+01 -5.672570E+00 -1.123200E+02  0.000000E+00  5.281576E-14
       225  12  5.970620E+02  9.158940E+01 -5.204332E+00 -8.583002E+01  1.313553E-14  2.447518E-13
       225  13  6.597354E+02  8.738311E+01 -3.819210E+00 -1.303781E+02  3.502807E-14  0.000000E+00
       225  14  6.389968E+02  9.262257E+01 -4.800695E+00 -1.056524E+02  0.000000E+00  1.045369E-13
       225  15  6.238867E+02  1.000129E+02 -4.241392E+00 -8.051153E+01  8.757018E-14  4.557754E-13
       225  16  6.825951E+02  9.579468E+01 -2.748019E+00 -1.231292E+02 -3.152526E-13 -2.971913E-13
       225  17  6.637104E+02  1.005220E+02 -3.692891E+00 -9.975255E+01  7.005614E-14  5.226845E-14
       225  18  6.504999E+02  1.074457E+02 -2.990405E+00 -7.596082E+01  1.269768E-13  7.536508E-13
       225  19  6.366197E+02  7.793636E+01 -4.706594E+00 -1.383948E+02 -3.807857E+01 -1.873009E+01
       225  20  6.140494E+02  8.371030E+01 -5.672570E+00 -1.123200E+02 -3.984001E+01 -1.510692E+01
       225  21  5.970620E+02  9.158940E+01 -5.204332E+00 -8.583002E+01 -4.127247E+01 -1.148375E+01
       225  22  6.597354E+02  8.738311E+01 -3.819210E+00 -1.303781E+02 -3.570531E+01 -1.688464E+01
       225  23  6.389968E+02  9.262257E+01 -4.800695E+00 -1.056524E+02 -3.730578E+01 -1.359045E+01
       225  24  6.238867E+02  1.000129E+02 -4.241392E+00 -8.051153E+01 -3.857727E+01 -1.029627E+01
       225  25  6.825951E+02  9.579468E+01 -2.748019E+00 -1.231292E+02 -3.333213E+01 -1.520013E+01
       225  26  6.637104E+02  1.005220E+02 -3.692891E+00 -9.975255E+01 -3.477163E+01 -1.223493E+01
       225  27  6.504999E+02  1.074457E+02 -2.990405E+00 -7.596082E+01 -3.588215E+01 -9.269731E+00
       226   1  5.891587E+02  9.466153E+01 -5.196478E+00 -6.892352E+01  4.192133E+01  9.256860E+00
       226   2  5.789070E+02  9.587768E+01 -6.164954E+00 -3.905133E+01  4.267973E+01  5.216363E+00
       226   3  5.752602E+02  9.960395E+01 -5.371700E+00 -9.024576E+00  4.304884E+01  1.175731E+00
       226   4  6.166438E+02  1.027110E+02 -4.296101E+00 -6.478742E+01  3.916219E+01  8.333200E+00
       226   5  6.070337E+02  1.037056E+02 -5.314109E+00 -3.664826E+01  3.986186E+01  4.681975E+00
       226   6  6.040824E+02  1.072642E+02 -4.444288E+00 -8.354613E+00  4.017224E+01  1.030628E+00
       226   7  6.440395E+02  1.100433E+02 -2.973650E+00 -6.092926E+01  3.640315E+01  7.468264E+00
       226   8  6.350791E+02  1.108243E+02 -4.022180E+00 -3.452315E+01  3.704408E+01  4.206312E+00
       226   9  6.328314E+02  1.142234E+02 -3.056781E+00 -7.962630E+00  3.729573E+01  9.442506E-01
       226  10  5.891587E+02  9.466153E+01 -5.196478E+00 -6.892352E+01  3.502807E-14 -1.737721E-14
       226  11  5.789070E+02  9.587768E+01 -6.164954E+00 -3.905133E+01  3.853088E-13 -1.052895E-13
       226  12  5.752602E+02  9.960395E+01 -5.371700E+00 -9.024576E+00  3.196311E-13 -2.100829E-13
       226  13  6.166438E+02  1.027110E+02 -4.296101E+00 -6.478742E+01  5.254211E-14 -1.398386E-13
       226  14  6.070337E+02  1.037056E+02 -5.314109E+00 -3.664826E+01  2.101684E-13 -2.796772E-13
       226  15  6.040824E+02  1.072642E+02 -4.444288E+00 -8.354613E+00  1.751404E-13 -4.202684E-13
       226  16  6.440395E+02  1.100433E+02 -2.973650E+00 -6.092926E+01  1.751404E-13 -1.402491E-13
       226  17  6.350791E+02  1.108243E+02 -4.022180E+00 -3.452315E+01  7.005614E-14 -1.049474E-13
       226  18  6.328314E+02  1.142234E+02 -3.056781E+00 -7.962630E+00 -5.648276E-13 -3.853259E-13
       226  19  5.891587E+02  9.466153E+01 -5.196478E+00 -6.892352E+01 -4.192133E+01 -9.256860E+00
       226  20  5.789070E+02  9.587768E+01 -6.164954E+00 -3.905133E+01 -4.267973E+01 -5.216363E+00
       226  21  5.752602E+02  9.960395E+01 -5.371700E+00 -9.024576E+00 -4.304884E+01 -1.175731E+00
       226  22  6.166438E+02  1.027110E+02 -4.296101E+00 -6.478742E+01 -3.916219E+01 -8.333200E+00
       226  23  6.070337E+02  1.037056E+02 -5.314109E+00 -3.664826E+01 -3.986186E+01 -4.681975E+00
       226  24  6.040824E+02  1.072642E+02 -4.444288E+00 -8.354613E+00 -4.017224E+01 -1.030628E+00
       226  25  6.440395E+02  1.100433E+02 -2.973650E+00 -6.092926E+01 -3.640315E+01 -7.468264E+00
       226  26  6.350791E+02  1.108243E+02 -4.022180E+00 -3.452315E+01 -3.704408E+01 -4.206312E+00
       226  27  6.328314E+02  1.142234E+02 -3.056781E+00 -7.962630E+00 -3.729573E+01 -9.442506E-01
       227   1  6.584957E+02  1.133486E+02 -2.637525E+00 -5.882269E+01  3.493051E+01  7.018870E+00
       227   2  6.506392E+02  1.143526E+02 -3.372315E+00 -3.331361E+01  3.549632E+01  3.955055E+00
       227   3  6.478614E+02  1.172902E+02 -2.741056E+00 -7.689940E+00  3.577049E+01  8.911369E-01
       227   4  6.820819E+02  1.181517E+02 -2.255966E+00 -5.550544E+01  3.265483E+01  6.326863E+00
       227   5  6.747026E+02  1.189918E+02 -3.028260E+00 -3.138629E+01  3.318144E+01  3.554670E+00
       227   6  6.724425E+02  1.218060E+02 -2.339998E+00 -7.152600E+00  3.341642E+01  7.823836E-01
       227   7  7.057102E+02  1.226318E+02 -1.410831E+00 -5.239497E+01  3.037915E+01  5.674051E+00
       227   8  6.988136E+02  1.233134E+02 -2.207929E+00 -2.966575E+01  3.086657E+01  3.193480E+00
       227   9  6.970766E+02  1.260095E+02 -1.449967E+00 -6.822045E+00  3.106234E+01  7.128269E-01
       227  10  6.584957E+02  1.133486E+02 -2.637525E+00 -5.882269E+01 -2.101684E-13 -2.451965E-13
       227  11  6.506392E+02  1.143526E+02 -3.372315E+00 -3.331361E+01  1.401123E-13 -8.763859E-14
       227  12  6.478614E+02  1.172902E+02 -2.741056E+00 -7.689940E+00  2.101684E-13  3.501097E-14
       227  13  6.820819E+02  1.181517E+02 -2.255966E+00 -5.550544E+01 -3.502807E-14 -2.101684E-13
       227  14  6.747026E+02  1.189918E+02 -3.028260E+00 -3.138629E+01 -3.502807E-14 -1.401123E-13
       227  15  6.724425E+02  1.218060E+02 -2.339998E+00 -7.152600E+00 -1.751404E-13 -7.019297E-14
       227  16  7.057102E+02  1.226318E+02 -1.410831E+00 -5.239497E+01  1.751404E-13  3.502807E-13
       227  17  6.988136E+02  1.233134E+02 -2.207929E+00 -2.966575E+01 -7.005614E-14 -8.743335E-14
       227  18  6.970766E+02  1.260095E+02 -1.449967E+00 -6.822045E+00 -4.290939E-13 -2.101342E-13
       227  19  6.584957E+02  1.133486E+02 -2.637525E+00 -5.882269E+01 -3.493051E+01 -7.018870E+00
       227  20  6.506392E+02  1.143526E+02 -3.372315E+00 -3.331361E+01 -3.549632E+01 -3.955055E+00
       227  21  6.478614E+02  1.172902E+02 -2.741056E+00 -7.689940E+00 -3.577049E+01 -8.911369E-01
       227  22  6.820819E+02  1.181517E+02 -2.255966E+00 -5.550544E+01 -3.265483E+01 -6.326863E+00
       227  23  6.747026E+02  1.189918E+02 -3.028260E+00 -3.138629E+01 -3.318144E+01 -3.554670E+00
       227  24  6.724425E+02  1.218060E+02 -2.339998E+00 -7.152600E+00 -3.341642E+01 -7.823836E-01
       227  25  7.057102E+02  1.226318E+02 -1.410831E+00 -5.239497E+01 -3.037915E+01 -5.674051E+00
       227  26  6.988136E+02  1.233134E+02 -2.207929E+00 -2.966575E+01 -3.086657E+01 -3.193480E+00
       227  27  6.970766E+02  1.260095E+02 -1.449967E+00 -6.822045E+00 -3.106234E+01 -7.128269E-01
       228   1  6.950094E+02  9.982131E+01 -2.391834E+00 -1.190794E+02  3.204193E+01  1.431164E+01
       228   2  6.775736E+02  1.045016E+02 -3.109617E+00 -9.637914E+01  3.337142E+01  1.151630E+01
       228   3  6.645270E+02  1.108411E+02 -2.685803E+00 -7.336729E+01  3.444619E+01  8.720954E+00
       228   4  7.153358E+02  1.057217E+02 -1.994998E+00 -1.125535E+02  3.002681E+01  1.290916E+01
       228   5  6.992751E+02  1.099998E+02 -2.727859E+00 -9.097385E+01  3.124754E+01  1.036854E+01
       228   6  6.876389E+02  1.159725E+02 -2.236574E+00 -6.908261E+01  3.221356E+01  7.827930E+00
       228   7  7.355754E+02  1.110466E+02 -1.311710E+00 -1.066047E+02  2.801168E+01  1.161543E+01
       228   8  7.209049E+02  1.149377E+02 -2.024406E+00 -8.614560E+01  2.912367E+01  9.329546E+00
       228   9  7.106944E+02  1.205587E+02 -1.430404E+00 -6.537495E+01  2.998093E+01  7.043659E+00
       228  10  6.950094E+02  9.982131E+01 -2.391834E+00 -1.190794E+02 -3.853088E-13 -5.957508E-13
       228  11  6.775736E+02  1.045016E+02 -3.109617E+00 -9.637914E+01 -1.751404E-13  3.475441E-14
       228  12  6.645270E+02  1.108411E+02 -2.685803E+00 -7.336729E+01 -3.546592E-13  4.196869E-13
       228  13  7.153358E+02  1.057217E+02 -1.994998E+00 -1.125535E+02 -1.751404E-14 -4.553649E-13
       228  14  6.992751E+02  1.099998E+02 -2.727859E+00 -9.097385E+01  3.152526E-13 -5.473136E-16
       228  15  6.876389E+02  1.159725E+02 -2.236574E+00 -6.908261E+01  3.502807E-14  2.796772E-13
       228  16  7.355754E+02  1.110466E+02 -1.311710E+00 -1.066047E+02  2.101684E-13 -1.576263E-13
       228  17  7.209049E+02  1.149377E+02 -2.024406E+00 -8.614560E+01  3.502807E-14  8.209704E-16
       228  18  7.106944E+02  1.205587E+02 -1.430404E+00 -6.537495E+01  0.000000E+00  3.853772E-13
       228  19  6.950094E+02  9.982131E+01 -2.391834E+00 -1.190794E+02 -3.204193E+01 -1.431164E+01
       228  20  6.775736E+02  1.045016E+02 -3.109617E+00 -9.637914E+01 -3.337142E+01 -1.151630E+01
       228  21  6.645270E+02  1.108411E+02 -2.685803E+00 -7.336729E+01 -3.444619E+01 -8.720954E+00
       228  22  7.153358E+02  1.057217E+02 -1.994998E+00 -1.125535E+02 -3.002681E+01 -1.290916E+01
       228  23  6.992751E+02  1.099998E+02 -2.727859E+00 -9.097385E+01 -3.124754E+01 -1.036854E+01
       228  24  6.876389E+02  1.159725E+02 -2.236574E+00 -6.908261E+01 -3.221356E+01 -7.827930E+00
       228  25  7.355754E+02  1.110466E+02 -1.311710E+00 -1.066047E+02 -2.801168E+01 -1.161543E+01
       228  26  7.209049E+02  1.149377E+02 -2.024406E+00 -8.614560E+01 -2.912367E+01 -9.329546E+00
       228  27  7.106944E+02  1.205587E+02 -1.430404E+00 -6.537495E+01 -2.998093E+01 -7.043659E+00
       229   1  7.465530E+02  1.135079E+02 -1.125700E+00 -1.032912E+02  2.693711E+01  1.092482E+01
       229   2  7.329785E+02  1.173628E+02 -1.670592E+00 -8.340145E+01  2.797366E+01  8.772677E+00
       229   3  7.229056E+02  1.225475E+02 -1.284176E+00 -6.327432E+01  2.880532E+01  6.620536E+00
       229   4  7.644956E+02  1.170176E+02 -9.761975E-01 -9.790872E+01  2.528702E+01  9.822862E+00
       229   5  7.519654E+02  1.205626E+02 -1.541392E+00 -7.896825E+01  2.624949E+01  7.875610E+00
       229   6  7.429651E+02  1.254659E+02 -1.108907E+00 -5.979044E+01  2.700707E+01  5.928358E+00
       229   7  7.824618E+02  1.202783E+02 -4.972146E-01 -9.296585E+01  2.363699E+01  8.794972E+00
       229   8  7.709861E+02  1.235237E+02 -1.058731E+00 -7.497469E+01  2.452538E+01  7.052609E+00
       229   9  7.630688E+02  1.281558E+02 -5.561968E-01 -5.674620E+01  2.520888E+01  5.310246E+00
       229  10  7.465530E+02  1.135079E+02 -1.125700E+00 -1.032912E+02 -4.203368E-13 -3.683421E-13
       229  11  7.329785E+02  1.173628E+02 -1.670592E+00 -8.340145E+01 -4.903930E-13  3.475441E-14
       229  12  7.229056E+02  1.225475E+02 -1.284176E+00 -6.327432E+01 -5.035285E-13 -2.103737E-13
       229  13  7.644956E+02  1.170176E+02 -9.761975E-01 -9.790872E+01 -1.926544E-13 -7.005614E-14
       229  14  7.519654E+02  1.205626E+02 -1.541392E+00 -7.896825E+01 -3.152526E-13  1.094627E-15
       229  15  7.429651E+02  1.254659E+02 -1.108907E+00 -5.979044E+01 -1.050842E-13  8.209704E-16
       229  16  7.824618E+02  1.202783E+02 -4.972146E-01 -9.296585E+01  3.853088E-13 -2.276825E-13
       229  17  7.709861E+02  1.235237E+02 -1.058731E+00 -7.497469E+01  1.751404E-13  3.639635E-14
       229  18  7.630688E+02  1.281558E+02 -5.561968E-01 -5.674620E+01  2.408180E-13 -5.226845E-14
       229  19  7.465530E+02  1.135079E+02 -1.125700E+00 -1.032912E+02 -2.693711E+01 -1.092482E+01
       229  20  7.329785E+02  1.173628E+02 -1.670592E+00 -8.340145E+01 -2.797366E+01 -8.772677E+00
       229  21  7.229056E+02  1.225475E+02 -1.284176E+00 -6.327432E+01 -2.880532E+01 -6.620536E+00
       229  22  7.644956E+02  1.170176E+02 -9.761975E-01 -9.790872E+01 -2.528702E+01 -9.822862E+00
       229  23  7.519654E+02  1.205626E+02 -1.541392E+00 -7.896825E+01 -2.624949E+01 -7.875610E+00
       229  24  7.429651E+02  1.254659E+02 -1.108907E+00 -5.979044E+01 -2.700707E+01 -5.928358E+00
       229  25  7.824618E+02  1.202783E+02 -4.972146E-01 -9.296585E+01 -2.363699E+01 -8.794972E+00
       229  26  7.709861E+02  1.235237E+02 -1.058731E+00 -7.497469E+01 -2.452538E+01 -7.052609E+00
       229  27  7.630688E+02  1.281558E+02 -5.561968E-01 -5.674620E+01 -2.520888E+01 -5.310246E+00
       230   1  7.182363E+02  1.245462E+02 -1.246389E+00 -5.069699E+01  2.917923E+01  5.329630E+00
       230   2  7.121527E+02  1.253889E+02 -1.815951E+00 -2.869215E+01  2.961713E+01  3.000475E+00
       230   3  7.100375E+02  1.277476E+02 -1.300937E+00 -6.600691E+00  2.982629E+01  6.712429E-01
       230   4  7.386603E+02  1.272255E+02 -1.120021E+00 -4.799530E+01  2.735173E+01  4.790604E+00
       230   5  7.329351E+02  1.279426E+02 -1.721966E+00 -2.712731E+01  2.776319E+01  2.690165E+00
       230   6  7.312101E+02  1.302073E+02 -1.165247E+00 -6.172736E+00  2.794592E+01  5.896564E-01
       230   7  7.592031E+02  1.298455E+02 -5.359735E-01 -4.544968E+01  2.552429E+01  4.278009E+00
       230   8  7.538401E+02  1.304405E+02 -1.161747E+00 -2.571853E+01  2.590931E+01  2.406286E+00
       230   9  7.525089E+02  1.326150E+02 -5.547675E-01 -5.900852E+00  2.606561E+01  5.345010E-01
       230  10  7.182363E+02  1.245462E+02 -1.246389E+00 -5.069699E+01 -6.305053E-13  3.151158E-13
       230  11  7.121527E+02  1.253889E+02 -1.815951E+00 -2.869215E+01 -1.751404E-13 -1.225982E-13
       230  12  7.100375E+02  1.277476E+02 -1.300937E+00 -6.600691E+00  2.583320E-13 -6.831500E-13
       230  13  7.386603E+02  1.272255E+02 -1.120021E+00 -4.799530E+01 -3.502807E-14 -3.502807E-14
       230  14  7.329351E+02  1.279426E+02 -1.721966E+00 -2.712731E+01  1.401123E-13 -3.155263E-13
       230  15  7.312101E+02  1.302073E+02 -1.165247E+00 -6.172736E+00 -7.005614E-14 -7.006982E-13
       230  16  7.592031E+02  1.298455E+02 -5.359735E-01 -4.544968E+01  3.502807E-13  2.800877E-13
       230  17  7.538401E+02  1.304405E+02 -1.161747E+00 -2.571853E+01 -3.502807E-14 -1.401123E-13
       230  18  7.525089E+02  1.326150E+02 -5.547675E-01 -5.900852E+00 -4.641219E-13 -5.953746E-13
       230  19  7.182363E+02  1.245462E+02 -1.246389E+00 -5.069699E+01 -2.917923E+01 -5.329630E+00
       230  20  7.121527E+02  1.253889E+02 -1.815951E+00 -2.869215E+01 -2.961713E+01 -3.000475E+00
       230  21  7.100375E+02  1.277476E+02 -1.300937E+00 -6.600691E+00 -2.982629E+01 -6.712429E-01
       230  22  7.386603E+02  1.272255E+02 -1.120021E+00 -4.799530E+01 -2.735173E+01 -4.790604E+00
       230  23  7.329351E+02  1.279426E+02 -1.721966E+00 -2.712731E+01 -2.776319E+01 -2.690165E+00
       230  24  7.312101E+02  1.302073E+02 -1.165247E+00 -6.172736E+00 -2.794592E+01 -5.896564E-01
       230  25  7.592031E+02  1.298455E+02 -5.359735E-01 -4.544968E+01 -2.552429E+01 -4.278009E+00
       230  26  7.538401E+02  1.304405E+02 -1.161747E+00 -2.571853E+01 -2.590931E+01 -2.406286E+00
       230  27  7.525089E+02  1.326150E+02 -5.547675E-01 -5.900852E+00 -2.606561E+01 -5.345010E-01
       231   1  7.701355E+02  1.308713E+02 -4.538581E-01 -4.405463E+01  2.457109E+01  4.003999E+00
       231   2  7.653984E+02  1.315927E+02 -9.054343E-01 -2.491964E+01  2.492196E+01  2.252733E+00
       231   3  7.637789E+02  1.335112E+02 -4.842242E-01 -5.719641E+00  2.508760E+01  5.014081E-01
       231   4  7.879333E+02  1.322304E+02 -4.500492E-01 -4.180851E+01  2.314246E+01  3.569501E+00
       231   5  7.834733E+02  1.328591E+02 -9.285924E-01 -2.362197E+01  2.347536E+01  2.003466E+00
       231   6  7.821565E+02  1.347108E+02 -4.743212E-01 -5.370454E+00  2.362303E+01  4.373784E-01
       231   7  8.059121E+02  1.337468E+02 -8.167051E-04 -3.968271E+01  2.171382E+01  3.152972E+00
       231   8  8.017316E+02  1.342856E+02 -5.005036E-01 -2.244462E+01  2.202876E+01  1.772168E+00
       231   9  8.007200E+02  1.360729E+02 -7.348168E-03 -5.141594E+00  2.215845E+01  3.913186E-01
       231  10  7.701355E+02  1.308713E+02 -4.538581E-01 -4.405463E+01 -3.853088E-13  5.954772E-13
       231  11  7.653984E+02  1.315927E+02 -9.054343E-01 -2.491964E+01  1.050842E-13 -8.757018E-14
       231  12  7.637789E+02  1.335112E+02 -4.842242E-01 -5.719641E+00  6.042342E-13 -4.379193E-13
       231  13  7.879333E+02  1.322304E+02 -4.500492E-01 -4.180851E+01  1.225982E-13 -1.050842E-13
       231  14  7.834733E+02  1.328591E+02 -9.285924E-01 -2.362197E+01  4.203368E-13 -2.101684E-13
       231  15  7.821565E+02  1.347108E+02 -4.743212E-01 -5.370454E+00 -1.751404E-14  1.052895E-13
       231  16  8.059121E+02  1.337468E+02 -8.167051E-04 -3.968271E+01  3.853088E-13 -5.256947E-13
       231  17  8.017316E+02  1.342856E+02 -5.005036E-01 -2.244462E+01  4.903930E-13 -8.757018E-14
       231  18  8.007200E+02  1.360729E+02 -7.348168E-03 -5.141594E+00 -5.254211E-14  5.261052E-14
       231  19  7.701355E+02  1.308713E+02 -4.538581E-01 -4.405463E+01 -2.457109E+01 -4.003999E+00
       231  20  7.653984E+02  1.315927E+02 -9.054343E-01 -2.491964E+01 -2.492196E+01 -2.252733E+00
       231  21  7.637789E+02  1.335112E+02 -4.842242E-01 -5.719641E+00 -2.508760E+01 -5.014081E-01
       231  22  7.879333E+02  1.322304E+02 -4.500492E-01 -4.180851E+01 -2.314246E+01 -3.569501E+00
       231  23  7.834733E+02  1.328591E+02 -9.285924E-01 -2.362197E+01 -2.347536E+01 -2.003466E+00
       231  24  7.821565E+02  1.347108E+02 -4.743212E-01 -5.370454E+00 -2.362303E+01 -4.373784E-01
       231  25  8.059121E+02  1.337468E+02 -8.167051E-04 -3.968271E+01 -2.171382E+01 -3.152972E+00
       231  26  8.017316E+02  1.342856E+02 -5.005036E-01 -2.244462E+01 -2.202876E+01 -1.772168E+00
       231  27  8.007200E+02  1.360729E+02 -7.348168E-03 -5.141594E+00 -2.215845E+01 -3.913186E-01
       232   1  7.921902E+02  1.217078E+02 -3.973973E-01 -9.020525E+01  2.277025E+01  8.239807E+00
       232   2  7.815775E+02  1.249367E+02 -8.254925E-01 -7.270069E+01  2.360589E+01  6.606360E+00
       232   3  7.737626E+02  1.292351E+02 -4.866845E-01 -5.501665E+01  2.427214E+01  4.972912E+00
       232   4  8.080494E+02  1.236759E+02 -3.735582E-01 -8.567697E+01  2.146331E+01  7.344883E+00
       232   5  7.982515E+02  1.266770E+02 -8.206465E-01 -6.898960E+01  2.224812E+01  5.880834E+00
       232   6  7.912749E+02  1.307709E+02 -4.459346E-01 -5.212275E+01  2.286353E+01  4.416785E+00
       232   7  8.240197E+02  1.256612E+02  3.358373E-03 -8.149055E+01  2.015638E+01  6.500797E+00
       232   8  8.150437E+02  1.284414E+02 -4.462481E-01 -6.562038E+01  2.089035E+01  5.206146E+00
       232   9  8.089124E+02  1.323380E+02 -1.915718E-02 -4.957072E+01  2.145492E+01  3.911495E+00
       232  10  7.921902E+02  1.217078E+02 -3.973973E-01 -9.020525E+01 -7.005614E-14 -2.096211E-13
       232  11  7.815775E+02  1.249367E+02 -8.254925E-01 -7.270069E+01  3.853088E-13  5.336308E-14
       232  12  7.737626E+02  1.292351E+02 -4.866845E-01 -5.501665E+01  1.007057E-13  3.152526E-13
       232  13  8.080494E+02  1.236759E+02 -3.735582E-01 -8.567697E+01  7.005614E-14 -6.655333E-13
       232  14  7.982515E+02  1.266770E+02 -8.206465E-01 -6.898960E+01  2.451965E-13  6.950883E-14
       232  15  7.912749E+02  1.307709E+02 -4.459346E-01 -5.212275E+01  1.401123E-13  8.410842E-13
       232  16  8.240197E+02  1.256612E+02  3.358373E-03 -8.149055E+01  3.152526E-13 -1.365547E-12
       232  17  8.150437E+02  1.284414E+02 -4.462481E-01 -6.562038E+01  7.355895E-13  5.281576E-14
       232  18  8.089124E+02  1.323380E+02 -1.915718E-02 -4.957072E+01  4.772575E-13  1.593982E-12
       232  19  7.921902E+02  1.217078E+02 -3.973973E-01 -9.020525E+01 -2.277025E+01 -8.239807E+00
       232  20  7.815775E+02  1.249367E+02 -8.254925E-01 -7.270069E+01 -2.360589E+01 -6.606360E+00
       232  21  7.737626E+02  1.292351E+02 -4.866845E-01 -5.501665E+01 -2.427214E+01 -4.972912E+00
       232  22  8.080494E+02  1.236759E+02 -3.735582E-01 -8.567697E+01 -2.146331E+01 -7.344883E+00
       232  23  7.982515E+02  1.266770E+02 -8.206465E-01 -6.898960E+01 -2.224812E+01 -5.880834E+00
       232  24  7.912749E+02  1.307709E+02 -4.459346E-01 -5.212275E+01 -2.286353E+01 -4.416785E+00
       232  25  8.240197E+02  1.256612E+02  3.358373E-03 -8.149055E+01 -2.015638E+01 -6.500797E+00
       232  26  8.150437E+02  1.284414E+02 -4.462481E-01 -6.562038E+01 -2.089035E+01 -5.206146E+00
       232  27  8.089124E+02  1.323380E+02 -1.915718E-02 -4.957072E+01 -2.145492E+01 -3.911495E+00
       233   1  9.998629E+02  1.099974E+02  3.477463E+00 -4.795180E+00  2.107881E-01 -8.350725E+00
       233   2  9.999316E+02  9.581630E+01  1.239718E+00 -4.442524E+00  9.850088E-02 -8.231115E+00
       233   3  9.999029E+02  8.158346E+01 -1.071574E+00 -4.575040E+00 -4.116786E-03 -8.111501E+00
       233   4  1.000137E+03  1.077279E+02  2.992907E+00 -1.781622E+01  7.374371E-01 -8.121847E+00
       233   5  1.000402E+03  9.499914E+01  1.195755E+00 -1.723380E+01  4.016273E-01 -8.011902E+00
       233   6  1.000570E+03  8.222009E+01 -6.717859E-01 -1.713655E+01  7.548683E-02 -7.901954E+00
       233   7  1.000174E+03  1.048076E+02  2.368791E+00 -3.069391E+01  1.264069E+00 -7.669447E+00
       233   8  1.000603E+03  9.350024E+01  9.397953E-01 -2.988174E+01  7.047436E-01 -7.569165E+00
       233   9  1.000938E+03  8.214390E+01 -5.564309E-01 -2.955473E+01  1.550878E-01 -7.468879E+00
       233  10  9.998629E+02  1.099974E+02  3.477463E+00 -4.795180E+00 -4.903930E-13 -4.717843E-13
       233  11  9.999316E+02  9.581630E+01  1.239718E+00 -4.442524E+00 -4.903930E-13 -5.199479E-14
       233  12  9.999029E+02  8.158346E+01 -1.071574E+00 -4.575040E+00  4.115798E-13  2.614791E-13
       233  13  1.000137E+03  1.077279E+02  2.992907E+00 -1.781622E+01 -1.751404E-13 -4.378509E-15
       233  14  1.000402E+03  9.499914E+01  1.195755E+00 -1.723380E+01 -5.604491E-13 -7.005614E-14
       233  15  1.000570E+03  8.222009E+01 -6.717859E-01 -1.713655E+01 -3.526583E-13 -2.785826E-13
       233  16  1.000174E+03  1.048076E+02  2.368791E+00 -3.069391E+01 -2.802246E-13  7.498196E-13
       233  17  1.000603E+03  9.350024E+01  9.397953E-01 -2.988174E+01 -9.807860E-13 -2.134523E-14
       233  18  1.000938E+03  8.214390E+01 -5.564309E-01 -2.955473E+01 -4.553649E-13 -7.537877E-13
       233  19  9.998629E+02  1.099974E+02  3.477463E+00 -4.795180E+00 -2.107881E-01  8.350725E+00
       233  20  9.999316E+02  9.581630E+01  1.239718E+00 -4.442524E+00 -9.850088E-02  8.231115E+00
       233  21  9.999029E+02  8.158346E+01 -1.071574E+00 -4.575040E+00  4.116786E-03  8.111501E+00
       233  22  1.000137E+03  1.077279E+02  2.992907E+00 -1.781622E+01 -7.374371E-01  8.121847E+00
       233  23  1.000402E+03  9.499914E+01  1.195755E+00 -1.723380E+01 -4.016273E-01  8.011902E+00
       233  24  1.000570E+03  8.222009E+01 -6.717859E-01 -1.713655E+01 -7.548683E-02  7.901954E+00
       233  25  1.000174E+03  1.048076E+02  2.368791E+00 -3.069391E+01 -1.264069E+00  7.669447E+00
       233  26  1.000603E+03  9.350024E+01  9.397953E-01 -2.988174E+01 -7.047436E-01  7.569165E+00
       233  27  1.000938E+03  8.214390E+01 -5.564309E-01 -2.955473E+01 -1.550878E-01  7.468879E+00
       234   1  9.996247E+02  7.292825E+01 -2.622700E+00 -4.510823E+00 -6.744713E-02 -7.972183E+00
       234   2  9.997849E+02  6.016706E+01 -4.524250E+00 -4.011080E+00 -1.729444E-01 -7.635746E+00
       234   3  9.996677E+02  4.726069E+01 -6.633560E+00 -3.912329E+00 -2.540249E-01 -7.299320E+00
       234   4  1.000778E+03  7.520666E+01 -1.614512E+00 -1.676673E+01 -1.098935E-01 -7.756525E+00
       234   5  1.001137E+03  6.366014E+01 -3.140907E+00 -1.563881E+01 -4.112919E-01 -7.444507E+00
       234   6  1.001223E+03  5.197179E+01 -4.867168E+00 -1.491186E+01 -6.882739E-01 -7.132501E+00
       234   7  1.001082E+03  7.551167E+01 -1.463297E+00 -2.891546E+01 -1.523385E-01 -7.344960E+00
       234   8  1.001614E+03  6.515265E+01 -2.678005E+00 -2.715936E+01 -6.496314E-01 -7.057366E+00
       234   9  1.001874E+03  5.465516E+01 -4.084685E+00 -2.580425E+01 -1.122508E+00 -6.769782E+00
       234  10  9.996247E+02  7.292825E+01 -2.622700E+00 -4.510823E+00  7.005614E-14 -2.648998E-13
       234  11  9.997849E+02  6.016706E+01 -4.524250E+00 -4.011080E+00 -4.553649E-13  5.144748E-14
       234  12  9.996677E+02  4.726069E+01 -6.633560E+00 -3.912329E+00 -4.641219E-13  4.033701E-13
       234  13  1.000778E+03  7.520666E+01 -1.614512E+00 -1.676673E+01  3.502807E-14  4.203368E-13
       234  14  1.001137E+03  6.366014E+01 -3.140907E+00 -1.563881E+01  7.005614E-14  2.101684E-13
       234  15  1.001223E+03  5.197179E+01 -4.867168E+00 -1.491186E+01 -2.977386E-13 -1.094627E-15
       234  16  1.001082E+03  7.551167E+01 -1.463297E+00 -2.891546E+01 -5.604491E-13  8.362952E-13
       234  17  1.001614E+03  6.515265E+01 -2.678005E+00 -2.715936E+01 -2.802246E-13  6.020450E-14
       234  18  1.001874E+03  5.465516E+01 -4.084685E+00 -2.580425E+01 -8.757018E-15 -5.443034E-13
       234  19  9.996247E+02  7.292825E+01 -2.622700E+00 -4.510823E+00  6.744713E-02  7.972183E+00
       234  20  9.997849E+02  6.016706E+01 -4.524250E+00 -4.011080E+00  1.729444E-01  7.635746E+00
       234  21  9.996677E+02  4.726069E+01 -6.633560E+00 -3.912329E+00  2.540249E-01  7.299320E+00
       234  22  1.000778E+03  7.520666E+01 -1.614512E+00 -1.676673E+01  1.098935E-01  7.756525E+00
       234  23  1.001137E+03  6.366014E+01 -3.140907E+00 -1.563881E+01  4.112919E-01  7.444507E+00
       234  24  1.001223E+03  5.197179E+01 -4.867168E+00 -1.491186E+01  6.882739E-01  7.132501E+00
       234  25  1.001082E+03  7.551167E+01 -1.463297E+00 -2.891546E+01  1.523385E-01  7.344960E+00
       234  26  1.001614E+03  6.515265E+01 -2.678005E+00 -2.715936E+01  6.496314E-01  7.057366E+00
       234  27  1.001874E+03  5.465516E+01 -4.084685E+00 -2.580425E+01  1.122508E+00  6.769782E+00
       235   1  1.001955E+03  7.549826E+01 -1.226881E+00 -3.498174E+01 -1.399278E-01 -7.016333E+00
       235   2  1.002762E+03  6.569284E+01 -2.269382E+00 -3.308108E+01 -7.221059E-01 -6.749708E+00
       235   3  1.003348E+03  5.577210E+01 -3.476804E+00 -3.133364E+01 -1.256659E+00 -6.483092E+00
       235   4  1.003831E+03  7.528960E+01 -7.561702E-01 -4.448888E+01 -1.050095E-01 -6.359845E+00
       235   5  1.005168E+03  6.609911E+01 -1.607245E+00 -4.223865E+01 -7.881762E-01 -6.140855E+00
       235   6  1.006292E+03  5.679990E+01 -2.607815E+00 -4.014165E+01 -1.423718E+00 -5.921872E+00
       235   7  1.005266E+03  7.404612E+01 -7.197156E-01 -5.410716E+01 -7.009110E-02 -5.602367E+00
       235   8  1.007121E+03  6.545656E+01 -1.412084E+00 -5.150736E+01 -8.542464E-01 -5.431014E+00
       235   9  1.008768E+03  5.676487E+01 -2.238522E+00 -4.906079E+01 -1.590777E+00 -5.259667E+00
       235  10  1.001955E+03  7.549826E+01 -1.226881E+00 -3.498174E+01  0.000000E+00  2.627105E-13
       235  11  1.002762E+03  6.569284E+01 -2.269382E+00 -3.308108E+01  3.502807E-13  2.736568E-14
       235  12  1.003348E+03  5.577210E+01 -3.476804E+00 -3.133364E+01  2.276825E-13 -4.375772E-13
       235  13  1.003831E+03  7.528960E+01 -7.561702E-01 -4.448888E+01  1.926544E-13  2.846031E-13
       235  14  1.005168E+03  6.609911E+01 -1.607245E+00 -4.223865E+01  1.401123E-13  1.379230E-13
       235  15  1.006292E+03  5.679990E+01 -2.607815E+00 -4.014165E+01  2.101684E-13 -7.771853E-14
       235  16  1.005266E+03  7.404612E+01 -7.197156E-01 -5.410716E+01  2.802246E-13 -4.400401E-13
       235  17  1.007121E+03  6.545656E+01 -1.412084E+00 -5.150736E+01  7.005614E-13  3.174419E-14
       235  18  1.008768E+03  5.676487E+01 -2.238522E+00 -4.906079E+01  1.488693E-13  5.232318E-13
       235  19  1.001955E+03  7.549826E+01 -1.226881E+00 -3.498174E+01  1.399278E-01  7.016333E+00
       235  20  1.002762E+03  6.569284E+01 -2.269382E+00 -3.308108E+01  7.221059E-01  6.749708E+00
       235  21  1.003348E+03  5.577210E+01 -3.476804E+00 -3.133364E+01  1.256659E+00  6.483092E+00
       235  22  1.003831E+03  7.528960E+01 -7.561702E-01 -4.448888E+01  1.050095E-01  6.359845E+00
       235  23  1.005168E+03  6.609911E+01 -1.607245E+00 -4.223865E+01  7.881762E-01  6.140855E+00
       235  24  1.006292E+03  5.679990E+01 -2.607815E+00 -4.014165E+01  1.423718E+00  5.921872E+00
       235  25  1.005266E+03  7.404612E+01 -7.197156E-01 -5.410716E+01  7.009110E-02  5.602367E+00
       235  26  1.007121E+03  6.545656E+01 -1.412084E+00 -5.150736E+01  8.542464E-01  5.431014E+00
       235  27  1.008768E+03  5.676487E+01 -2.238522E+00 -4.906079E+01  1.590777E+00  5.259667E+00
       236   1  1.000333E+03  1.031454E+02  2.112918E+00 -3.706909E+01  1.489369E+00 -7.309756E+00
       236   2  1.001018E+03  9.250785E+01  8.760854E-01 -3.629221E+01  8.439091E-01 -7.217752E+00
       236   3  1.001671E+03  8.184862E+01 -3.992233E-01 -3.573791E+01  2.172508E-01 -7.125745E+00
       236   4  1.000625E+03  1.004511E+02  1.787900E+00 -4.692145E+01  1.796916E+00 -6.601827E+00
       236   5  1.001850E+03  9.062514E+01  7.882229E-01 -4.604174E+01  1.045283E+00 -6.528614E+00
       236   6  1.003045E+03  8.078016E+01 -2.438267E-01 -4.538459E+01  3.124520E-01 -6.455398E+00
       236   7  1.000814E+03  9.745909E+01  1.416669E+00 -5.686029E+01  2.104463E+00 -5.787729E+00
       236   8  1.002564E+03  8.843000E+01  6.197365E-01 -5.587773E+01  1.246657E+00 -5.733304E+00
       236   9  1.004287E+03  7.938451E+01 -2.034641E-01 -5.511775E+01  4.076531E-01 -5.678877E+00
       236  10  1.000333E+03  1.031454E+02  2.112918E+00 -3.706909E+01  5.604491E-13  6.305053E-13
       236  11  1.001018E+03  9.250785E+01  8.760854E-01 -3.629221E+01  6.305053E-13  6.020450E-14
       236  12  1.001671E+03  8.184862E+01 -3.992233E-01 -3.573791E+01 -4.378509E-14 -7.916891E-13
       236  13  1.000625E+03  1.004511E+02  1.787900E+00 -4.692145E+01  1.225982E-13  4.203368E-13
       236  14  1.001850E+03  9.062514E+01  7.882229E-01 -4.604174E+01 -7.005614E-14  5.692061E-14
       236  15  1.003045E+03  8.078016E+01 -2.438267E-01 -4.538459E+01  1.374436E-13 -4.247154E-13
       236  16  1.000814E+03  9.745909E+01  1.416669E+00 -5.686029E+01 -1.401123E-13  8.319167E-14
       236  17  1.002564E+03  8.843000E+01  6.197365E-01 -5.587773E+01 -7.005614E-14  4.816360E-14
       236  18  1.004287E+03  7.938451E+01 -2.034641E-01 -5.511775E+01  1.313553E-13  3.283882E-14
       236  19  1.000333E+03  1.031454E+02  2.112918E+00 -3.706909E+01 -1.489369E+00  7.309756E+00
       236  20  1.001018E+03  9.250785E+01  8.760854E-01 -3.629221E+01 -8.439091E-01  7.217752E+00
       236  21  1.001671E+03  8.184862E+01 -3.992233E-01 -3.573791E+01 -2.172508E-01  7.125745E+00
       236  22  1.000625E+03  1.004511E+02  1.787900E+00 -4.692145E+01 -1.796916E+00  6.601827E+00
       236  23  1.001850E+03  9.062514E+01  7.882229E-01 -4.604174E+01 -1.045283E+00  6.528614E+00
       236  24  1.003045E+03  8.078016E+01 -2.438267E-01 -4.538459E+01 -3.124520E-01  6.455398E+00
       236  25  1.000814E+03  9.745909E+01  1.416669E+00 -5.686029E+01 -2.104463E+00  5.787729E+00
       236  26  1.002564E+03  8.843000E+01  6.197365E-01 -5.587773E+01 -1.246657E+00  5.733304E+00
       236  27  1.004287E+03  7.938451E+01 -2.034641E-01 -5.511775E+01 -4.076531E-01  5.678877E+00
       237   1  9.914594E+02  7.555330E+01  4.624227E-01 -1.362330E+02  4.325307E+00  6.746385E+00
       237   2  9.901242E+02  7.336329E+01  4.759515E-01 -1.426191E+02  4.572878E+00  8.183091E+00
       237   3  9.887470E+02  7.102913E+01  4.932003E-01 -1.494911E+02  4.820450E+00  9.676889E+00
       237   4  9.794923E+02  8.202648E+01  4.151239E-01 -1.337591E+02  5.712242E+00  6.553246E+00
       237   5  9.768906E+02  7.985856E+01  3.960908E-01 -1.400791E+02  6.016905E+00  7.947502E+00
       237   6  9.742548E+02  7.755442E+01  3.992794E-01 -1.468851E+02  6.321568E+00  9.398850E+00
       237   7  9.679080E+02  8.864837E+01  4.807732E-01 -1.311267E+02  7.056728E+00  6.360107E+00
       237   8  9.640339E+02  8.649664E+01  4.154213E-01 -1.373808E+02  7.418482E+00  7.711914E+00
       237   9  9.601336E+02  8.421663E+01  3.907928E-01 -1.441208E+02  7.780236E+00  9.120811E+00
       237  10  9.914594E+02  7.555330E+01  4.624227E-01 -1.362330E+02  2.451965E-13  1.423015E-13
       237  11  9.901242E+02  7.336329E+01  4.759515E-01 -1.426191E+02 -3.502807E-14 -2.145469E-13
       237  12  9.887470E+02  7.102913E+01  4.932003E-01 -1.494911E+02 -3.240096E-13 -1.376494E-13
       237  13  9.794923E+02  8.202648E+01  4.151239E-01 -1.337591E+02  0.000000E+00  1.751404E-14
       237  14  9.768906E+02  7.985856E+01  3.960908E-01 -1.400791E+02 -4.203368E-13  8.757018E-15
       237  15  9.742548E+02  7.755442E+01  3.992794E-01 -1.468851E+02 -5.429351E-13  1.423015E-14
       237  16  9.679080E+02  8.864837E+01  4.807732E-01 -1.311267E+02 -2.451965E-13 -1.401123E-13
       237  17  9.640339E+02  8.649664E+01  4.154213E-01 -1.373808E+02 -7.005614E-14  4.170530E-13
       237  18  9.601336E+02  8.421663E+01  3.907928E-01 -1.441208E+02 -3.152526E-13  5.120119E-13
       237  19  9.914594E+02  7.555330E+01  4.624227E-01 -1.362330E+02 -4.325307E+00 -6.746385E+00
       237  20  9.901242E+02  7.336329E+01  4.759515E-01 -1.426191E+02 -4.572878E+00 -8.183091E+00
       237  21  9.887470E+02  7.102913E+01  4.932003E-01 -1.494911E+02 -4.820450E+00 -9.676889E+00
       237  22  9.794923E+02  8.202648E+01  4.151239E-01 -1.337591E+02 -5.712242E+00 -6.553246E+00
       237  23  9.768906E+02  7.985856E+01  3.960908E-01 -1.400791E+02 -6.016905E+00 -7.947502E+00
       237  24  9.742548E+02  7.755442E+01  3.992794E-01 -1.468851E+02 -6.321568E+00 -9.398850E+00
       237  25  9.679080E+02  8.864837E+01  4.807732E-01 -1.311267E+02 -7.056728E+00 -6.360107E+00
       237  26  9.640339E+02  8.649664E+01  4.154213E-01 -1.373808E+02 -7.418482E+00 -7.711914E+00
       237  27  9.601336E+02  8.421663E+01  3.907928E-01 -1.441208E+02 -7.780236E+00 -9.120811E+00
       238   1  9.878837E+02  6.955981E+01  4.796251E-01 -1.533614E+02  4.989523E+00  1.057365E+01
       238   2  9.867135E+02  6.685291E+01  5.595337E-01 -1.597063E+02  5.337227E+00  1.216963E+01
       238   3  9.853716E+02  6.368083E+01  5.320949E-01 -1.665968E+02  5.684920E+00  1.383524E+01
       238   4  9.726413E+02  7.611692E+01  3.830550E-01 -1.507526E+02  6.528952E+00  1.027059E+01
       238   5  9.700541E+02  7.344820E+01  4.282761E-01 -1.571326E+02  6.946246E+00  1.182306E+01
       238   6  9.673048E+02  7.032402E+01  3.887382E-01 -1.640581E+02  7.363527E+00  1.344514E+01
       238   7  9.577477E+02  8.279943E+01  3.557653E-01 -1.479616E+02  8.024861E+00  9.967535E+00
       238   8  9.537373E+02  8.016286E+01  3.521930E-01 -1.543766E+02  8.511747E+00  1.147648E+01
       238   9  9.495746E+02  7.708051E+01  2.864499E-01 -1.613371E+02  8.998616E+00  1.305505E+01
       238  10  9.878837E+02  6.955981E+01  4.796251E-01 -1.533614E+02  1.751404E-14 -4.225261E-13
       238  11  9.867135E+02  6.685291E+01  5.595337E-01 -1.597063E+02  1.751404E-13 -3.469968E-13
       238  12  9.853716E+02  6.368083E+01  5.320949E-01 -1.665968E+02  3.502807E-13  1.365547E-13
       238  13  9.726413E+02  7.611692E+01  3.830550E-01 -1.507526E+02  0.000000E+00 -2.189254E-14
       238  14  9.700541E+02  7.344820E+01  4.282761E-01 -1.571326E+02  3.502807E-13 -6.567763E-14
       238  15  9.673048E+02  7.032402E+01  3.887382E-01 -1.640581E+02  2.802246E-13 -1.423015E-14
       238  16  9.577477E+02  8.279943E+01  3.557653E-01 -1.479616E+02 -1.751404E-13  4.181476E-13
       238  17  9.537373E+02  8.016286E+01  3.521930E-01 -1.543766E+02  1.751404E-14  2.101684E-13
       238  18  9.495746E+02  7.708051E+01  2.864499E-01 -1.613371E+02  4.203368E-13  2.257669E-13
       238  19  9.878837E+02  6.955981E+01  4.796251E-01 -1.533614E+02 -4.989523E+00 -1.057365E+01
       238  20  9.867135E+02  6.685291E+01  5.595337E-01 -1.597063E+02 -5.337227E+00 -1.216963E+01
       238  21  9.853716E+02  6.368083E+01  5.320949E-01 -1.665968E+02 -5.684920E+00 -1.383524E+01
       238  22  9.726413E+02  7.611692E+01  3.830550E-01 -1.507526E+02 -6.528952E+00 -1.027059E+01
       238  23  9.700541E+02  7.344820E+01  4.282761E-01 -1.571326E+02 -6.946246E+00 -1.182306E+01
       238  24  9.673048E+02  7.032402E+01  3.887382E-01 -1.640581E+02 -7.363527E+00 -1.344514E+01
       238  25  9.577477E+02  8.279943E+01  3.557653E-01 -1.479616E+02 -8.024861E+00 -9.967535E+00
       238  26  9.537373E+02  8.016286E+01  3.521930E-01 -1.543766E+02 -8.511747E+00 -1.147648E+01
       238  27  9.495746E+02  7.708051E+01  2.864499E-01 -1.613371E+02 -8.998616E+00 -1.305505E+01
       239   1  9.492471E+02  8.673092E+01  3.674229E-01 -1.453568E+02  8.874481E+00  9.737685E+00
       239   2  9.444029E+02  8.410572E+01  3.264943E-01 -1.517452E+02  9.401830E+00  1.121412E+01
       239   3  9.394598E+02  8.115208E+01  2.843981E-01 -1.586802E+02  9.929161E+00  1.276004E+01
       239   4  9.349317E+02  9.295806E+01  2.256913E-01 -1.393302E+02  1.028111E+01  9.243582E+00
       239   5  9.287015E+02  9.047556E+01  1.588189E-01 -1.455751E+02  1.087791E+01  1.064986E+01
       239   6  9.223824E+02  8.767430E+01  1.133270E-01 -1.523666E+02  1.147470E+01  1.212562E+01
       239   7  9.214508E+02  9.950333E+01  3.108862E-01 -1.330860E+02  1.161760E+01  8.749497E+00
       239   8  9.138251E+02  9.715375E+01  1.953249E-01 -1.391875E+02  1.228387E+01  1.008562E+01
       239   9  9.061202E+02  9.449509E+01  1.236921E-01 -1.458356E+02  1.295011E+01  1.149123E+01
       239  10  9.492471E+02  8.673092E+01  3.674229E-01 -1.453568E+02 -3.502807E-14 -1.412069E-13
       239  11  9.444029E+02  8.410572E+01  3.264943E-01 -1.517452E+02  1.050842E-13 -6.567763E-14
       239  12  9.394598E+02  8.115208E+01  2.843981E-01 -1.586802E+02  1.926544E-13 -3.155263E-13
       239  13  9.349317E+02  9.295806E+01  2.256913E-01 -1.393302E+02  1.401123E-13  3.502807E-14
       239  14  9.287015E+02  9.047556E+01  1.588189E-01 -1.455751E+02  2.802246E-13  1.751404E-13
       239  15  9.223824E+02  8.767430E+01  1.133270E-01 -1.523666E+02  1.751404E-14  5.473136E-14
       239  16  9.214508E+02  9.950333E+01  3.108862E-01 -1.330860E+02  3.327667E-13  1.412069E-13
       239  17  9.138251E+02  9.715375E+01  1.953249E-01 -1.391875E+02  1.751404E-14  3.480914E-13
       239  18  9.061202E+02  9.449509E+01  1.236921E-01 -1.458356E+02 -6.129912E-14  4.188317E-13
       239  19  9.492471E+02  8.673092E+01  3.674229E-01 -1.453568E+02 -8.874481E+00 -9.737685E+00
       239  20  9.444029E+02  8.410572E+01  3.264943E-01 -1.517452E+02 -9.401830E+00 -1.121412E+01
       239  21  9.394598E+02  8.115208E+01  2.843981E-01 -1.586802E+02 -9.929161E+00 -1.276004E+01
       239  22  9.349317E+02  9.295806E+01  2.256913E-01 -1.393302E+02 -1.028111E+01 -9.243582E+00
       239  23  9.287015E+02  9.047556E+01  1.588189E-01 -1.455751E+02 -1.087791E+01 -1.064986E+01
       239  24  9.223824E+02  8.767430E+01  1.133270E-01 -1.523666E+02 -1.147470E+01 -1.212562E+01
       239  25  9.214508E+02  9.950333E+01  3.108862E-01 -1.330860E+02 -1.161760E+01 -8.749497E+00
       239  26  9.138251E+02  9.715375E+01  1.953249E-01 -1.391875E+02 -1.228387E+01 -1.008562E+01
       239  27  9.061202E+02  9.449509E+01  1.236921E-01 -1.458356E+02 -1.295011E+01 -1.149123E+01
       240   1  9.612973E+02  9.246467E+01  5.245779E-01 -1.287163E+02  7.819941E+00  6.213195E+00
       240   2  9.566813E+02  9.029520E+01  4.188940E-01 -1.348970E+02  8.213684E+00  7.535664E+00
       240   3  9.520946E+02  8.812112E+01  4.153995E-01 -1.415495E+02  8.607427E+00  8.910971E+00
       240   4  9.501454E+02  9.842993E+01  4.256123E-01 -1.232113E+02  9.082826E+00  5.891482E+00
       240   5  9.443239E+02  9.635414E+01  2.967908E-01 -1.291759E+02  9.529407E+00  7.147615E+00
       240   6  9.385391E+02  9.428108E+01  2.872823E-01 -1.356123E+02  9.975988E+00  8.456587E+00
       240   7  9.397641E+02  1.046996E+02  5.717324E-01 -1.175288E+02  1.027940E+01  5.569779E+00
       240   8  9.327280E+02  1.027082E+02  3.982739E-01 -1.232773E+02  1.077882E+01  6.759580E+00
       240   9  9.257358E+02  1.007270E+02  3.612522E-01 -1.294975E+02  1.127824E+01  8.002218E+00
       240  10  9.612973E+02  9.246467E+01  5.245779E-01 -1.287163E+02  4.553649E-13 -2.802246E-13
       240  11  9.566813E+02  9.029520E+01  4.188940E-01 -1.348970E+02  1.926544E-13 -2.085265E-13
       240  12  9.520946E+02  8.812112E+01  4.153995E-01 -1.415495E+02 -2.714675E-13 -1.420279E-13
       240  13  9.501454E+02  9.842993E+01  4.256123E-01 -1.232113E+02  1.401123E-13 -2.189254E-14
       240  14  9.443239E+02  9.635414E+01  2.967908E-01 -1.291759E+02  7.005614E-14 -7.005614E-14
       240  15  9.385391E+02  9.428108E+01  2.872823E-01 -1.356123E+02 -1.576263E-13 -3.174419E-14
       240  16  9.397641E+02  1.046996E+02  5.717324E-01 -1.175288E+02  2.627105E-13  1.094627E-15
       240  17  9.327280E+02  1.027082E+02  3.982739E-01 -1.232773E+02  2.977386E-13  2.796772E-13
       240  18  9.257358E+02  1.007270E+02  3.612522E-01 -1.294975E+02 -6.129912E-14  2.648998E-13
       240  19  9.612973E+02  9.246467E+01  5.245779E-01 -1.287163E+02 -7.819941E+00 -6.213195E+00
       240  20  9.566813E+02  9.029520E+01  4.188940E-01 -1.348970E+02 -8.213684E+00 -7.535664E+00
       240  21  9.520946E+02  8.812112E+01  4.153995E-01 -1.415495E+02 -8.607427E+00 -8.910971E+00
       240  22  9.501454E+02  9.842993E+01  4.256123E-01 -1.232113E+02 -9.082826E+00 -5.891482E+00
       240  23  9.443239E+02  9.635414E+01  2.967908E-01 -1.291759E+02 -9.529407E+00 -7.147615E+00
       240  24  9.385391E+02  9.428108E+01  2.872823E-01 -1.356123E+02 -9.975988E+00 -8.456587E+00
       240  25  9.397641E+02  1.046996E+02  5.717324E-01 -1.175288E+02 -1.027940E+01 -5.569779E+00
       240  26  9.327280E+02  1.027082E+02  3.982739E-01 -1.232773E+02 -1.077882E+01 -6.759580E+00
       240  27  9.257358E+02  1.007270E+02  3.612522E-01 -1.294975E+02 -1.127824E+01 -8.002218E+00
       241   1  1.379794E+03  2.244151E-01  3.467007E+01 -8.698300E+00 -1.771850E+01  1.931387E+00
       241   2  1.406485E+03  1.876184E-01  3.842158E+01 -8.255494E+00 -1.754451E+01  2.119606E+00
       241   3  1.433192E+03  1.567063E-01  4.222164E+01 -8.690009E+00 -1.737053E+01  2.305621E+00
       241   4  1.354081E+03 -9.836152E-03  2.790753E+01 -3.301586E+01 -1.732732E+01  6.557525E+00
       241   5  1.378203E+03 -2.630489E-01  3.091750E+01 -3.252035E+01 -1.715554E+01  7.149453E+00
       241   6  1.402341E+03 -5.106829E-01  3.397531E+01 -3.290214E+01 -1.698376E+01  7.739178E+00
       241   7  1.329212E+03  4.846681E-01  2.273070E+01 -5.703409E+01 -1.653242E+01  1.118351E+01
       241   8  1.350822E+03  7.107581E-02  2.512995E+01 -5.648587E+01 -1.636285E+01  1.217913E+01
       241   9  1.372447E+03 -3.372435E-01  2.757632E+01 -5.681495E+01 -1.619327E+01  1.317255E+01
       241  10  1.379794E+03  2.244151E-01  3.467007E+01 -8.698300E+00  2.451965E-13 -4.247154E-13
       241  11  1.406485E+03  1.876184E-01  3.842158E+01 -8.255494E+00 -1.751404E-13 -5.560706E-13
       241  12  1.433192E+03  1.567063E-01  4.222164E+01 -8.690009E+00 -6.348838E-13 -5.456717E-13
       241  13  1.354081E+03 -9.836152E-03  2.790753E+01 -3.301586E+01  1.401123E-13 -5.254211E-14
       241  14  1.378203E+03 -2.630489E-01  3.091750E+01 -3.252035E+01  0.000000E+00 -2.014114E-13
       241  15  1.402341E+03 -5.106829E-01  3.397531E+01 -3.290214E+01 -2.802246E-13 -4.597434E-14
       241  16  1.329212E+03  4.846681E-01  2.273070E+01 -5.703409E+01 -1.225982E-13  1.444908E-13
       241  17  1.350822E+03  7.107581E-02  2.512995E+01 -5.648587E+01  7.005614E-14  2.233039E-13
       241  18  1.372447E+03 -3.372435E-01  2.757632E+01 -5.681495E+01  2.627105E-13  2.670890E-13
       241  19  1.379794E+03  2.244151E-01  3.467007E+01 -8.698300E+00  1.771850E+01 -1.931387E+00
       241  20  1.406485E+03  1.876184E-01  3.842158E+01 -8.255494E+00  1.754451E+01 -2.119606E+00
       241  21  1.433192E+03  1.567063E-01  4.222164E+01 -8.690009E+00  1.737053E+01 -2.305621E+00
       241  22  1.354081E+03 -9.836152E-03  2.790753E+01 -3.301586E+01  1.732732E+01 -6.557525E+00
       241  23  1.378203E+03 -2.630489E-01  3.091750E+01 -3.252035E+01  1.715554E+01 -7.149453E+00
       241  24  1.402341E+03 -5.106829E-01  3.397531E+01 -3.290214E+01  1.698376E+01 -7.739178E+00
       241  25  1.329212E+03  4.846681E-01  2.273070E+01 -5.703409E+01  1.653242E+01 -1.118351E+01
       241  26  1.350822E+03  7.107581E-02  2.512995E+01 -5.648587E+01  1.636285E+01 -1.217913E+01
       241  27  1.372447E+03 -3.372435E-01  2.757632E+01 -5.681495E+01  1.619327E+01 -1.317255E+01
       242   1  1.449580E+03  5.490493E-01  4.483195E+01 -8.689682E+00 -1.718497E+01  2.419630E+00
       242   2  1.475355E+03  3.997710E-01  4.844008E+01 -8.035963E+00 -1.670627E+01  2.612642E+00
       242   3  1.501271E+03  4.892251E-01  5.227752E+01 -8.222764E+00 -1.622756E+01  2.783677E+00
       242   4  1.416097E+03 -7.645920E-01  3.565679E+01 -3.268945E+01 -1.679141E+01  8.080991E+00
       242   5  1.439370E+03 -1.214633E+00  3.851626E+01 -3.146150E+01 -1.633468E+01  8.653141E+00
       242   6  1.462781E+03 -1.429040E+00  4.159787E+01 -3.107405E+01 -1.587794E+01  9.203314E+00
       242   7  1.385237E+03 -5.049336E-01  2.910364E+01 -5.642921E+01 -1.601872E+01  1.374216E+01
       242   8  1.406061E+03 -1.203097E+00  3.133732E+01 -5.462704E+01 -1.558395E+01  1.469344E+01
       242   9  1.427020E+03 -1.668722E+00  3.378597E+01 -5.366537E+01 -1.514917E+01  1.562274E+01
       242  10  1.449580E+03  5.490493E-01  4.483195E+01 -8.689682E+00 -2.802246E-13 -4.159583E-13
       242  11  1.475355E+03  3.997710E-01  4.844008E+01 -8.035963E+00 -1.751404E-14  5.692061E-14
       242  12  1.501271E+03  4.892251E-01  5.227752E+01 -8.222764E+00  3.634162E-13 -6.567763E-14
       242  13  1.416097E+03 -7.645920E-01  3.565679E+01 -3.268945E+01  4.203368E-13  0.000000E+00
       242  14  1.439370E+03 -1.214633E+00  3.851626E+01 -3.146150E+01  2.101684E-13  4.378509E-14
       242  15  1.462781E+03 -1.429040E+00  4.159787E+01 -3.107405E+01  4.816360E-13  5.692061E-14
       242  16  1.385237E+03 -5.049336E-01  2.910364E+01 -5.642921E+01  1.050842E-13  4.247154E-13
       242  17  1.406061E+03 -1.203097E+00  3.133732E+01 -5.462704E+01 -1.225982E-13 -1.401123E-13
       242  18  1.427020E+03 -1.668722E+00  3.378597E+01 -5.366537E+01 -1.970329E-13 -6.075181E-14
       242  19  1.449580E+03  5.490493E-01  4.483195E+01 -8.689682E+00  1.718497E+01 -2.419630E+00
       242  20  1.475355E+03  3.997710E-01  4.844008E+01 -8.035963E+00  1.670627E+01 -2.612642E+00
       242  21  1.501271E+03  4.892251E-01  5.227752E+01 -8.222764E+00  1.622756E+01 -2.783677E+00
       242  22  1.416097E+03 -7.645920E-01  3.565679E+01 -3.268945E+01  1.679141E+01 -8.080991E+00
       242  23  1.439370E+03 -1.214633E+00  3.851626E+01 -3.146150E+01  1.633468E+01 -8.653141E+00
       242  24  1.462781E+03 -1.429040E+00  4.159787E+01 -3.107405E+01  1.587794E+01 -9.203314E+00
       242  25  1.385237E+03 -5.049336E-01  2.910364E+01 -5.642921E+01  1.601872E+01 -1.374216E+01
       242  26  1.406061E+03 -1.203097E+00  3.133732E+01 -5.462704E+01  1.558395E+01 -1.469344E+01
       242  27  1.427020E+03 -1.668722E+00  3.378597E+01 -5.366537E+01  1.514917E+01 -1.562274E+01
       243   1  1.367451E+03 -1.238822E+00  2.566251E+01 -6.834662E+01 -1.540059E+01  1.608032E+01
       243   2  1.387134E+03 -2.242722E+00  2.760837E+01 -6.645499E+01 -1.498803E+01  1.718638E+01
       243   3  1.406823E+03 -3.311708E+00  2.963576E+01 -6.499408E+01 -1.457546E+01  1.823805E+01
       243   4  1.337187E+03 -2.913528E+00  2.033112E+01 -8.672327E+01 -1.417649E+01  1.922987E+01
       243   5  1.355385E+03 -4.727114E+00  2.187690E+01 -8.453083E+01 -1.381829E+01  2.051770E+01
       243   6  1.373582E+03 -6.613359E+00  2.348656E+01 -8.276912E+01 -1.346009E+01  2.175114E+01
       243   7  1.308536E+03 -3.646909E+00  1.652430E+01 -1.051939E+02 -1.277063E+01  2.237943E+01
       243   8  1.325275E+03 -6.244927E+00  1.772891E+01 -1.027007E+02 -1.246680E+01  2.384901E+01
       243   9  1.342005E+03 -8.923179E+00  1.897976E+01 -1.006381E+02 -1.216295E+01  2.526422E+01
       243  10  1.367451E+03 -1.238822E+00  2.566251E+01 -6.834662E+01 -1.401123E-13 -2.802246E-13
       243  11  1.387134E+03 -2.242722E+00  2.760837E+01 -6.645499E+01  1.751404E-13 -2.824138E-13
       243  12  1.406823E+03 -3.311708E+00  2.963576E+01 -6.499408E+01  1.050842E-13  1.789715E-13
       243  13  1.337187E+03 -2.913528E+00  2.033112E+01 -8.672327E+01  0.000000E+00 -8.757018E-14
       243  14  1.355385E+03 -4.727114E+00  2.187690E+01 -8.453083E+01  1.401123E-13 -2.189254E-13
       243  15  1.373582E+03 -6.613359E+00  2.348656E+01 -8.276912E+01  2.977386E-13 -7.443465E-14
       243  16  1.308536E+03 -3.646909E+00  1.652430E+01 -1.051939E+02 -5.429351E-13  2.758461E-13
       243  17  1.325275E+03 -6.244927E+00  1.772891E+01 -1.027007E+02  3.502807E-14  2.408180E-14
       243  18  1.342005E+03 -8.923179E+00  1.897976E+01 -1.006381E+02  2.802246E-13 -4.301885E-13
       243  19  1.367451E+03 -1.238822E+00  2.566251E+01 -6.834662E+01  1.540059E+01 -1.608032E+01
       243  20  1.387134E+03 -2.242722E+00  2.760837E+01 -6.645499E+01  1.498803E+01 -1.718638E+01
       243  21  1.406823E+03 -3.311708E+00  2.963576E+01 -6.499408E+01  1.457546E+01 -1.823805E+01
       243  22  1.337187E+03 -2.913528E+00  2.033112E+01 -8.672327E+01  1.417649E+01 -1.922987E+01
       243  23  1.355385E+03 -4.727114E+00  2.187690E+01 -8.453083E+01  1.381829E+01 -2.051770E+01
       243  24  1.373582E+03 -6.613359E+00  2.348656E+01 -8.276912E+01  1.346009E+01 -2.175114E+01
       243  25  1.308536E+03 -3.646909E+00  1.652430E+01 -1.051939E+02  1.277063E+01 -2.237943E+01
       243  26  1.325275E+03 -6.244927E+00  1.772891E+01 -1.027007E+02  1.246680E+01 -2.384901E+01
       243  27  1.342005E+03 -8.923179E+00  1.897976E+01 -1.006381E+02  1.216295E+01 -2.526422E+01
       244   1  1.314671E+03  5.873355E-01  2.012273E+01 -6.913813E+01 -1.589747E+01  1.312889E+01
       244   2  1.335034E+03 -4.315192E-02  2.223508E+01 -6.869468E+01 -1.573152E+01  1.427884E+01
       244   3  1.355314E+03 -8.941889E-01  2.429681E+01 -6.882302E+01 -1.556557E+01  1.541853E+01
       244   4  1.289602E+03  8.126555E-01  1.614870E+01 -8.759054E+01 -1.464424E+01  1.577581E+01
       244   5  1.308170E+03 -4.218681E-01  1.784225E+01 -8.717317E+01 -1.448855E+01  1.712207E+01
       244   6  1.326656E+03 -1.878366E+00  1.948186E+01 -8.732759E+01 -1.433286E+01  1.845807E+01
       244   7  1.265052E+03  1.470883E+00  1.309775E+01 -1.060200E+02 -1.319470E+01  1.842274E+01
       244   8  1.281855E+03 -3.404122E-01  1.443612E+01 -1.056287E+02 -1.304927E+01  1.996530E+01
       244   9  1.298573E+03 -2.375107E+00  1.571723E+01 -1.058092E+02 -1.290384E+01  2.149760E+01
       244  10  1.314671E+03  5.873355E-01  2.012273E+01 -6.913813E+01 -1.751404E-13 -1.401123E-13
       244  11  1.335034E+03 -4.315192E-02  2.223508E+01 -6.869468E+01 -3.502807E-14 -3.415237E-13
       244  12  1.355314E+03 -8.941889E-01  2.429681E+01 -6.882302E+01  1.225982E-13 -2.397234E-13
       244  13  1.289602E+03  8.126555E-01  1.614870E+01 -8.759054E+01 -7.005614E-14  1.751404E-14
       244  14  1.308170E+03 -4.218681E-01  1.784225E+01 -8.717317E+01  0.000000E+00  1.926544E-13
       244  15  1.326656E+03 -1.878366E+00  1.948186E+01 -8.732759E+01 -8.757018E-15  5.144748E-14
       244  16  1.265052E+03  1.470883E+00  1.309775E+01 -1.060200E+02 -1.926544E-13  4.378509E-15
       244  17  1.281855E+03 -3.404122E-01  1.443612E+01 -1.056287E+02 -1.050842E-13  4.706897E-13
       244  18  1.298573E+03 -2.375107E+00  1.571723E+01 -1.058092E+02 -3.152526E-13  2.107157E-13
       244  19  1.314671E+03  5.873355E-01  2.012273E+01 -6.913813E+01  1.589747E+01 -1.312889E+01
       244  20  1.335034E+03 -4.315192E-02  2.223508E+01 -6.869468E+01  1.573152E+01 -1.427884E+01
       244  21  1.355314E+03 -8.941889E-01  2.429681E+01 -6.882302E+01  1.556557E+01 -1.541853E+01
       244  22  1.289602E+03  8.126555E-01  1.614870E+01 -8.759054E+01  1.464424E+01 -1.577581E+01
       244  23  1.308170E+03 -4.218681E-01  1.784225E+01 -8.717317E+01  1.448855E+01 -1.712207E+01
       244  24  1.326656E+03 -1.878366E+00  1.948186E+01 -8.732759E+01  1.433286E+01 -1.845807E+01
       244  25  1.265052E+03  1.470883E+00  1.309775E+01 -1.060200E+02  1.319470E+01 -1.842274E+01
       244  26  1.281855E+03 -3.404122E-01  1.443612E+01 -1.056287E+02  1.304927E+01 -1.996530E+01
       244  27  1.298573E+03 -2.375107E+00  1.571723E+01 -1.058092E+02  1.290384E+01 -2.149760E+01
       245   1  9.827131E+02  3.774956E+01  4.350887E-01 -2.003728E+02  8.053826E+00  2.370350E+01
       245   2  9.562965E+02  4.463235E+01  2.148104E-01 -1.991971E+02  1.019296E+01  2.315125E+01
       245   3  9.298642E+02  5.146462E+01 -1.582491E-01 -1.978069E+02  1.230970E+01  2.259901E+01
       245   4  9.828946E+02  4.463979E+01  6.772466E-01 -1.935786E+02  7.559258E+00  2.160395E+01
       245   5  9.582461E+02  5.150172E+01  4.784220E-01 -1.920174E+02  9.596824E+00  2.107409E+01
       245   6  9.335851E+02  5.831626E+01  1.340722E-01 -1.902416E+02  1.161200E+01  2.054424E+01
       245   7  9.825404E+02  5.018844E+01  4.752690E-01 -1.874641E+02  7.064707E+00  1.960593E+01
       245   8  9.596741E+02  5.704359E+01  3.307677E-01 -1.855174E+02  9.000710E+00  1.909847E+01
       245   9  9.367985E+02  6.385445E+01  4.799721E-02 -1.833561E+02  1.091432E+01  1.859101E+01
       245  10  9.827131E+02  3.774956E+01  4.350887E-01 -2.003728E+02  0.000000E+00 -1.948436E-13
       245  11  9.562965E+02  4.463235E+01  2.148104E-01 -1.991971E+02 -3.327667E-13  5.582599E-14
       245  12  9.298642E+02  5.146462E+01 -1.582491E-01 -1.978069E+02 -3.940658E-13  2.629842E-13
       245  13  9.828946E+02  4.463979E+01  6.772466E-01 -1.935786E+02 -3.502807E-14  1.444908E-13
       245  14  9.582461E+02  5.150172E+01  4.784220E-01 -1.920174E+02 -1.401123E-13  6.786689E-14
       245  15  9.335851E+02  5.831626E+01  1.340722E-01 -1.902416E+02  8.650180E-15  2.145469E-13
       245  16  9.825404E+02  5.018844E+01  4.752690E-01 -1.874641E+02  7.005614E-14  2.977386E-13
       245  17  9.596741E+02  5.704359E+01  3.307677E-01 -1.855174E+02 -8.757018E-14  5.363673E-14
       245  18  9.367985E+02  6.385445E+01  4.799721E-02 -1.833561E+02  4.947715E-13 -1.225982E-13
       245  19  9.827131E+02  3.774956E+01  4.350887E-01 -2.003728E+02 -8.053826E+00 -2.370350E+01
       245  20  9.562965E+02  4.463235E+01  2.148104E-01 -1.991971E+02 -1.019296E+01 -2.315125E+01
       245  21  9.298642E+02  5.146462E+01 -1.582491E-01 -1.978069E+02 -1.230970E+01 -2.259901E+01
       245  22  9.828946E+02  4.463979E+01  6.772466E-01 -1.935786E+02 -7.559258E+00 -2.160395E+01
       245  23  9.582461E+02  5.150172E+01  4.784220E-01 -1.920174E+02 -9.596824E+00 -2.107409E+01
       245  24  9.335851E+02  5.831626E+01  1.340722E-01 -1.902416E+02 -1.161200E+01 -2.054424E+01
       245  25  9.825404E+02  5.018844E+01  4.752690E-01 -1.874641E+02 -7.064707E+00 -1.960593E+01
       245  26  9.596741E+02  5.704359E+01  3.307677E-01 -1.855174E+02 -9.000710E+00 -1.909847E+01
       245  27  9.367985E+02  6.385445E+01  4.799721E-02 -1.833561E+02 -1.091432E+01 -1.859101E+01
       246   1  9.146654E+02  5.598278E+01 -2.226874E-01 -1.956549E+02  1.353522E+01  2.215789E+01
       246   2  8.888195E+02  6.361684E+01 -4.699565E-01 -1.895194E+02  1.560370E+01  2.117767E+01
       246   3  8.637114E+02  7.148877E+01 -6.604173E-01 -1.830740E+02  1.760913E+01  2.019748E+01
       246   4  9.194144E+02  6.267594E+01  4.320007E-02 -1.878852E+02  1.277335E+01  2.011732E+01
       246   5  8.954567E+02  7.007375E+01 -1.921404E-01 -1.816283E+02  1.472291E+01  1.920019E+01
       246   6  8.722455E+02  7.771821E+01 -3.502280E-01 -1.750617E+02  1.660941E+01  1.828309E+01
       246   7  9.237122E+02  6.817545E+01 -1.015317E-03 -1.808674E+02  1.201151E+01  1.819565E+01
       246   8  9.016591E+02  7.535350E+01 -1.859251E-01 -1.744892E+02  1.384215E+01  1.734161E+01
       246   9  8.803613E+02  8.278699E+01 -2.731372E-01 -1.678012E+02  1.560973E+01  1.648759E+01
       246  10  9.146654E+02  5.598278E+01 -2.226874E-01 -1.956549E+02 -3.502807E-13 -2.813192E-13
       246  11  8.888195E+02  6.361684E+01 -4.699565E-01 -1.895194E+02 -2.101684E-13 -1.007057E-13
       246  12  8.637114E+02  7.148877E+01 -6.604173E-01 -1.830740E+02  2.627105E-13  7.169808E-14
       246  13  9.194144E+02  6.267594E+01  4.320007E-02 -1.878852E+02  8.757018E-14  3.940658E-14
       246  14  8.954567E+02  7.007375E+01 -1.921404E-01 -1.816283E+02 -1.751404E-13 -3.174419E-13
       246  15  8.722455E+02  7.771821E+01 -3.502280E-01 -1.750617E+02 -1.576263E-13 -5.237791E-13
       246  16  9.237122E+02  6.817545E+01 -1.015317E-03 -1.808674E+02  3.152526E-13  5.232318E-13
       246  17  9.016591E+02  7.535350E+01 -1.859251E-01 -1.744892E+02  1.401123E-13 -1.039896E-13
       246  18  8.803613E+02  8.278699E+01 -2.731372E-01 -1.678012E+02 -3.896873E-13 -5.806997E-13
       246  19  9.146654E+02  5.598278E+01 -2.226874E-01 -1.956549E+02 -1.353522E+01 -2.215789E+01
       246  20  8.888195E+02  6.361684E+01 -4.699565E-01 -1.895194E+02 -1.560370E+01 -2.117767E+01
       246  21  8.637114E+02  7.148877E+01 -6.604173E-01 -1.830740E+02 -1.760913E+01 -2.019748E+01
       246  22  9.194144E+02  6.267594E+01  4.320007E-02 -1.878852E+02 -1.277335E+01 -2.011732E+01
       246  23  8.954567E+02  7.007375E+01 -1.921404E-01 -1.816283E+02 -1.472291E+01 -1.920019E+01
       246  24  8.722455E+02  7.771821E+01 -3.502280E-01 -1.750617E+02 -1.660941E+01 -1.828309E+01
       246  25  9.237122E+02  6.817545E+01 -1.015317E-03 -1.808674E+02 -1.201151E+01 -1.819565E+01
       246  26  9.016591E+02  7.535350E+01 -1.859251E-01 -1.744892E+02 -1.384215E+01 -1.734161E+01
       246  27  8.803613E+02  8.278699E+01 -2.731372E-01 -1.678012E+02 -1.560973E+01 -1.648759E+01
       247   1  9.266564E+02  7.108687E+01  1.028940E-01 -1.766583E+02  1.159561E+01  1.712859E+01
       247   2  9.055276E+02  7.810296E+01 -1.055116E-01 -1.702374E+02  1.336940E+01  1.631329E+01
       247   3  8.852218E+02  8.540658E+01 -1.769683E-01 -1.635557E+02  1.507317E+01  1.549802E+01
       247   4  9.316941E+02  7.550878E+01  2.287584E-01 -1.693431E+02  1.093521E+01  1.536519E+01
       247   5  9.121657E+02  8.232735E+01  2.511966E-02 -1.629578E+02  1.261819E+01  1.461993E+01
       247   6  8.934700E+02  8.944321E+01 -1.886683E-02 -1.563116E+02  1.423115E+01  1.387470E+01
       247   7  9.364754E+02  7.921017E+01  2.205373E-01 -1.626656E+02  1.027481E+01  1.369260E+01
       247   8  9.185600E+02  8.584385E+01  5.109984E-02 -1.563159E+02  1.186698E+01  1.301739E+01
       247   9  9.014871E+02  9.278457E+01  6.401807E-02 -1.497054E+02  1.338914E+01  1.234220E+01
       247  10  9.266564E+02  7.108687E+01  1.028940E-01 -1.766583E+02  1.751404E-13  4.728789E-13
       247  11  9.055276E+02  7.810296E+01 -1.055116E-01 -1.702374E+02  1.751404E-13  1.751404E-14
       247  12  8.852218E+02  8.540658E+01 -1.769683E-01 -1.635557E+02  1.357338E-13 -4.715107E-13
       247  13  9.316941E+02  7.550878E+01  2.287584E-01 -1.693431E+02  1.050842E-13  1.007057E-13
       247  14  9.121657E+02  8.232735E+01  2.511966E-02 -1.629578E+02  1.751404E-13  3.283882E-14
       247  15  8.934700E+02  8.944321E+01 -1.886683E-02 -1.563116E+02  1.751404E-13 -6.567763E-14
       247  16  9.364754E+02  7.921017E+01  2.205373E-01 -1.626656E+02 -7.005614E-14  1.576263E-13
       247  17  9.185600E+02  8.584385E+01  5.109984E-02 -1.563159E+02  2.101684E-13  1.313553E-14
       247  18  9.014871E+02  9.278457E+01  6.401807E-02 -1.497054E+02  2.451965E-13  1.059052E-13
       247  19  9.266564E+02  7.108687E+01  1.028940E-01 -1.766583E+02 -1.159561E+01 -1.712859E+01
       247  20  9.055276E+02  7.810296E+01 -1.055116E-01 -1.702374E+02 -1.336940E+01 -1.631329E+01
       247  21  8.852218E+02  8.540658E+01 -1.769683E-01 -1.635557E+02 -1.507317E+01 -1.549802E+01
       247  22  9.316941E+02  7.550878E+01  2.287584E-01 -1.693431E+02 -1.093521E+01 -1.536519E+01
       247  23  9.121657E+02  8.232735E+01  2.511966E-02 -1.629578E+02 -1.261819E+01 -1.461993E+01
       247  24  8.934700E+02  8.944321E+01 -1.886683E-02 -1.563116E+02 -1.423115E+01 -1.387470E+01
       247  25  9.364754E+02  7.921017E+01  2.205373E-01 -1.626656E+02 -1.027481E+01 -1.369260E+01
       247  26  9.185600E+02  8.584385E+01  5.109984E-02 -1.563159E+02 -1.186698E+01 -1.301739E+01
       247  27  9.014871E+02  9.278457E+01  6.401807E-02 -1.497054E+02 -1.338914E+01 -1.234220E+01
       248   1  9.829734E+02  5.319078E+01  5.355847E-01 -1.836292E+02  6.793452E+00  1.848462E+01
       248   2  9.609432E+02  5.997016E+01  3.513503E-01 -1.815178E+02  8.683059E+00  1.799475E+01
       248   3  9.391373E+02  6.680679E+01  1.336430E-01 -1.792050E+02  1.053464E+01  1.750487E+01
       248   4  9.839619E+02  5.784713E+01  6.466934E-01 -1.767425E+02  6.352420E+00  1.661811E+01
       248   5  9.635075E+02  6.457979E+01  4.763994E-01 -1.744505E+02  8.157811E+00  1.616626E+01
       248   6  9.432826E+02  7.137498E+01  2.849561E-01 -1.719570E+02  9.925173E+00  1.571441E+01
       248   7  9.846156E+02  6.164042E+01  5.045922E-01 -1.704655E+02  5.911389E+00  1.483581E+01
       248   8  9.657486E+02  6.833806E+01  3.755308E-01 -1.679929E+02  7.632562E+00  1.442199E+01
       248   9  9.471164E+02  7.510350E+01  2.376440E-01 -1.653190E+02  9.315708E+00  1.400817E+01
       248  10  9.829734E+02  5.319078E+01  5.355847E-01 -1.836292E+02  7.005614E-14 -1.926544E-13
       248  11  9.609432E+02  5.997016E+01  3.513503E-01 -1.815178E+02  3.502807E-14 -3.721732E-14
       248  12  9.391373E+02  6.680679E+01  1.336430E-01 -1.792050E+02  1.970329E-13 -5.336308E-14
       248  13  9.839619E+02  5.784713E+01  6.466934E-01 -1.767425E+02 -1.576263E-13 -3.459022E-13
       248  14  9.635075E+02  6.457979E+01  4.763994E-01 -1.744505E+02  0.000000E+00 -2.036007E-13
       248  15  9.432826E+02  7.137498E+01  2.849561E-01 -1.719570E+02 -1.652555E-13 -2.829611E-13
       248  16  9.846156E+02  6.164042E+01  5.045922E-01 -1.704655E+02 -7.005614E-14 -7.005614E-14
       248  17  9.657486E+02  6.833806E+01  3.755308E-01 -1.679929E+02 -2.451965E-13 -1.532478E-14
       248  18  9.471164E+02  7.510350E+01  2.376440E-01 -1.653190E+02 -8.757018E-14 -1.535215E-13
       248  19  9.829734E+02  5.319078E+01  5.355847E-01 -1.836292E+02 -6.793452E+00 -1.848462E+01
       248  20  9.609432E+02  5.997016E+01  3.513503E-01 -1.815178E+02 -8.683059E+00 -1.799475E+01
       248  21  9.391373E+02  6.680679E+01  1.336430E-01 -1.792050E+02 -1.053464E+01 -1.750487E+01
       248  22  9.839619E+02  5.784713E+01  6.466934E-01 -1.767425E+02 -6.352420E+00 -1.661811E+01
       248  23  9.635075E+02  6.457979E+01  4.763994E-01 -1.744505E+02 -8.157811E+00 -1.616626E+01
       248  24  9.432826E+02  7.137498E+01  2.849561E-01 -1.719570E+02 -9.925173E+00 -1.571441E+01
       248  25  9.846156E+02  6.164042E+01  5.045922E-01 -1.704655E+02 -5.911389E+00 -1.483581E+01
       248  26  9.657486E+02  6.833806E+01  3.755308E-01 -1.679929E+02 -7.632562E+00 -1.442199E+01
       248  27  9.471164E+02  7.510350E+01  2.376440E-01 -1.653190E+02 -9.315708E+00 -1.400817E+01
       249   1  9.922844E+02  1.469100E+02  6.098744E+00 -4.826308E+01  6.873479E+00 -4.904857E+00
       249   2  9.908955E+02  1.537977E+02  6.609511E+00 -4.462080E+01  7.587352E+00 -4.556460E+00
       249   3  9.899369E+02  1.608974E+02  7.396853E+00 -4.120257E+01  8.252365E+00 -4.208063E+00
       249   4  9.943881E+02  1.539227E+02  7.285400E+00 -3.992651E+01  5.988962E+00 -5.601719E+00
       249   5  9.933613E+02  1.615522E+02  7.965475E+00 -3.690104E+01  6.619953E+00 -5.204462E+00
       249   6  9.927715E+02  1.694007E+02  8.937957E+00 -3.409963E+01  7.202083E+00 -4.807205E+00
       249   7  9.973762E+02  1.628351E+02  9.520258E+00 -3.162404E+01  5.104444E+00 -6.215699E+00
       249   8  9.967229E+02  1.712181E+02  1.039650E+01 -2.921539E+01  5.652553E+00 -5.769581E+00
       249   9  9.965134E+02  1.798268E+02  1.158098E+01 -2.703079E+01  6.151801E+00 -5.323464E+00
       249  10  9.922844E+02  1.469100E+02  6.098744E+00 -4.826308E+01  2.101684E-13  4.542703E-13
       249  11  9.908955E+02  1.537977E+02  6.609511E+00 -4.462080E+01  2.451965E-13 -7.224539E-14
       249  12  9.899369E+02  1.608974E+02  7.396853E+00 -4.120257E+01  9.632719E-14 -2.803614E-13
       249  13  9.943881E+02  1.539227E+02  7.285400E+00 -3.992651E+01  1.751404E-14  2.802246E-13
       249  14  9.933613E+02  1.615522E+02  7.965475E+00 -3.690104E+01 -7.005614E-14 -2.101684E-13
       249  15  9.927715E+02  1.694007E+02  8.937957E+00 -3.409963E+01  5.254211E-14 -3.494597E-13
       249  16  9.973762E+02  1.628351E+02  9.520258E+00 -3.162404E+01  1.401123E-13 -1.565317E-13
       249  17  9.967229E+02  1.712181E+02  1.039650E+01 -2.921539E+01 -1.050842E-13 -6.786689E-14
       249  18  9.965134E+02  1.798268E+02  1.158098E+01 -2.703079E+01 -2.276825E-13 -1.591314E-13
       249  19  9.922844E+02  1.469100E+02  6.098744E+00 -4.826308E+01 -6.873479E+00  4.904857E+00
       249  20  9.908955E+02  1.537977E+02  6.609511E+00 -4.462080E+01 -7.587352E+00  4.556460E+00
       249  21  9.899369E+02  1.608974E+02  7.396853E+00 -4.120257E+01 -8.252365E+00  4.208063E+00
       249  22  9.943881E+02  1.539227E+02  7.285400E+00 -3.992651E+01 -5.988962E+00  5.601719E+00
       249  23  9.933613E+02  1.615522E+02  7.965475E+00 -3.690104E+01 -6.619953E+00  5.204462E+00
       249  24  9.927715E+02  1.694007E+02  8.937957E+00 -3.409963E+01 -7.202083E+00  4.807205E+00
       249  25  9.973762E+02  1.628351E+02  9.520258E+00 -3.162404E+01 -5.104444E+00  6.215699E+00
       249  26  9.967229E+02  1.712181E+02  1.039650E+01 -2.921539E+01 -5.652553E+00  5.769581E+00
       249  27  9.965134E+02  1.798268E+02  1.158098E+01 -2.703079E+01 -6.151801E+00  5.323464E+00
       250   1  9.893827E+02  1.646543E+02  7.784858E+00 -3.878255E+01  8.611251E+00 -3.952926E+00
       250   2  9.882340E+02  1.698615E+02  8.105536E+00 -3.414133E+01  9.170249E+00 -3.498144E+00
       250   3  9.876266E+02  1.753370E+02  8.778549E+00 -2.967415E+01  9.665983E+00 -3.043347E+00
       250   4  9.923044E+02  1.733120E+02  9.317135E+00 -3.208898E+01  7.518434E+00 -4.511896E+00
       250   5  9.914256E+02  1.790911E+02  9.763407E+00 -2.823964E+01  8.014144E+00 -3.993861E+00
       250   6  9.910969E+02  1.851473E+02  1.058253E+01 -2.456436E+01  8.446590E+00 -3.475808E+00
       250   7  9.963608E+02  1.844151E+02  1.218657E+01 -2.541874E+01  6.425617E+00 -5.007580E+00
       250   8  9.957608E+02  1.907750E+02  1.277896E+01 -2.236129E+01  6.858039E+00 -4.426290E+00
       250   9  9.957195E+02  1.974208E+02  1.376471E+01 -1.947789E+01  7.227197E+00 -3.844981E+00
       250  10  9.893827E+02  1.646543E+02  7.784858E+00 -3.878255E+01  5.604491E-13  2.802246E-13
       250  11  9.882340E+02  1.698615E+02  8.105536E+00 -3.414133E+01  1.401123E-13  1.053579E-13
       250  12  9.876266E+02  1.753370E+02  8.778549E+00 -2.967415E+01 -1.401123E-13 -1.052210E-13
       250  13  9.923044E+02  1.733120E+02  9.317135E+00 -3.208898E+01 -1.401123E-13  6.305053E-13
       250  14  9.914256E+02  1.790911E+02  9.763407E+00 -2.823964E+01  2.101684E-13  1.368284E-13
       250  15  9.910969E+02  1.851473E+02  1.058253E+01 -2.456436E+01 -4.900077E-13  1.401123E-13
       250  16  9.963608E+02  1.844151E+02  1.218657E+01 -2.541874E+01 -7.005614E-14  3.688894E-13
       250  17  9.957608E+02  1.907750E+02  1.277896E+01 -2.236129E+01 -3.502807E-13  1.403859E-13
       250  18  9.957195E+02  1.974208E+02  1.376471E+01 -1.947789E+01  1.488693E-13 -2.459490E-13
       250  19  9.893827E+02  1.646543E+02  7.784858E+00 -3.878255E+01 -8.611251E+00  3.952926E+00
       250  20  9.882340E+02  1.698615E+02  8.105536E+00 -3.414133E+01 -9.170249E+00  3.498144E+00
       250  21  9.876266E+02  1.753370E+02  8.778549E+00 -2.967415E+01 -9.665983E+00  3.043347E+00
       250  22  9.923044E+02  1.733120E+02  9.317135E+00 -3.208898E+01 -7.518434E+00  4.511896E+00
       250  23  9.914256E+02  1.790911E+02  9.763407E+00 -2.823964E+01 -8.014144E+00  3.993861E+00
       250  24  9.910969E+02  1.851473E+02  1.058253E+01 -2.456436E+01 -8.446590E+00  3.475808E+00
       250  25  9.963608E+02  1.844151E+02  1.218657E+01 -2.541874E+01 -6.425617E+00  5.007580E+00
       250  26  9.957608E+02  1.907750E+02  1.277896E+01 -2.236129E+01 -6.858039E+00  4.426290E+00
       250  27  9.957195E+02  1.974208E+02  1.376471E+01 -1.947789E+01 -7.227197E+00  3.844981E+00
       251   1  9.979807E+02  1.913585E+02  1.390421E+01 -2.106464E+01  5.558316E+00 -5.255996E+00
       251   2  9.975608E+02  1.981837E+02  1.463366E+01 -1.844122E+01  5.922190E+00 -4.647884E+00
       251   3  9.976071E+02  2.052573E+02  1.572389E+01 -1.613234E+01  6.257140E+00 -4.039752E+00
       251   4  9.984852E+02  2.042063E+02  1.684292E+01 -1.225106E+01  3.305508E+00 -5.563854E+00
       251   5  9.981418E+02  2.119405E+02  1.779740E+01 -1.064222E+01  3.528430E+00 -4.926822E+00
       251   6  9.982686E+02  2.199272E+02  1.912205E+01 -9.347939E+00  3.722427E+00 -4.289769E+00
       251   7  1.000661E+03  2.205360E+02  2.186989E+01 -3.335785E+00  1.052625E+00 -5.730756E+00
       251   8  1.000413E+03  2.291990E+02  2.309509E+01 -2.741562E+00  1.134589E+00 -5.064802E+00
       251   9  1.000640E+03  2.381184E+02  2.469986E+01 -2.461906E+00  1.187629E+00 -4.398826E+00
       251  10  9.979807E+02  1.913585E+02  1.390421E+01 -2.106464E+01 -3.502807E-13  4.383982E-13
       251  11  9.975608E+02  1.981837E+02  1.463366E+01 -1.844122E+01 -2.802246E-13  6.950883E-14
       251  12  9.976071E+02  2.052573E+02  1.572389E+01 -1.613234E+01 -7.443465E-13 -1.747983E-13
       251  13  9.984852E+02  2.042063E+02  1.684292E+01 -1.225106E+01  3.677947E-13  4.192422E-13
       251  14  9.981418E+02  2.119405E+02  1.779740E+01 -1.064222E+01  1.401123E-13  1.406596E-13
       251  15  9.982686E+02  2.199272E+02  1.912205E+01 -9.347939E+00  1.410452E-13  7.142442E-14
       251  16  1.000661E+03  2.205360E+02  2.186989E+01 -3.335785E+00  0.000000E+00 -1.932017E-13
       251  17  1.000413E+03  2.291990E+02  2.309509E+01 -2.741562E+00  9.807860E-13  7.060345E-14
       251  18  1.000640E+03  2.381184E+02  2.469986E+01 -2.461906E+00  7.531035E-13  2.976018E-13
       251  19  9.979807E+02  1.913585E+02  1.390421E+01 -2.106464E+01 -5.558316E+00  5.255996E+00
       251  20  9.975608E+02  1.981837E+02  1.463366E+01 -1.844122E+01 -5.922190E+00  4.647884E+00
       251  21  9.976071E+02  2.052573E+02  1.572389E+01 -1.613234E+01 -6.257140E+00  4.039752E+00
       251  22  9.984852E+02  2.042063E+02  1.684292E+01 -1.225106E+01 -3.305508E+00  5.563854E+00
       251  23  9.981418E+02  2.119405E+02  1.779740E+01 -1.064222E+01 -3.528430E+00  4.926822E+00
       251  24  9.982686E+02  2.199272E+02  1.912205E+01 -9.347939E+00 -3.722427E+00  4.289769E+00
       251  25  1.000661E+03  2.205360E+02  2.186989E+01 -3.335785E+00 -1.052625E+00  5.730756E+00
       251  26  1.000413E+03  2.291990E+02  2.309509E+01 -2.741562E+00 -1.134589E+00  5.064802E+00
       251  27  1.000640E+03  2.381184E+02  2.469986E+01 -2.461906E+00 -1.187629E+00  4.398826E+00
       252   1  9.985483E+02  1.683329E+02  1.084557E+01 -2.620621E+01  4.408255E+00 -6.525979E+00
       252   2  9.981171E+02  1.773155E+02  1.189613E+01 -2.409365E+01  4.876074E+00 -6.059145E+00
       252   3  9.980472E+02  1.864901E+02  1.322505E+01 -2.239233E+01  5.321559E+00 -5.592310E+00
       252   4  9.988853E+02  1.784129E+02  1.312488E+01 -1.523290E+01  2.618400E+00 -6.912888E+00
       252   5  9.985582E+02  1.885854E+02  1.447315E+01 -1.390471E+01  2.902047E+00 -6.423719E+00
       252   6  9.985955E+02  1.989528E+02  1.610703E+01 -1.298779E+01  3.163360E+00 -5.934550E+00
       252   7  1.000520E+03  1.911901E+02  1.703360E+01 -4.127678E+00  8.284850E-01 -7.115614E+00
       252   8  1.000323E+03  2.025779E+02  1.873927E+01 -3.583899E+00  9.279544E-01 -6.604111E+00
       252   9  1.000493E+03  2.141639E+02  2.073778E+01 -3.451385E+00  1.005089E+00 -6.092608E+00
       252  10  9.985483E+02  1.683329E+02  1.084557E+01 -2.620621E+01  2.802246E-13  1.751404E-14
       252  11  9.981171E+02  1.773155E+02  1.189613E+01 -2.409365E+01  2.802246E-13  5.363673E-14
       252  12  9.980472E+02  1.864901E+02  1.322505E+01 -2.239233E+01  4.378509E-14  3.509648E-14
       252  13  9.988853E+02  1.784129E+02  1.312488E+01 -1.523290E+01  2.802246E-13  7.005614E-14
       252  14  9.985582E+02  1.885854E+02  1.447315E+01 -1.390471E+01 -3.502807E-13 -1.094627E-15
       252  15  9.985955E+02  1.989528E+02  1.610703E+01 -1.298779E+01  1.576263E-13  1.398386E-13
       252  16  1.000520E+03  1.911901E+02  1.703360E+01 -4.127678E+00 -1.401123E-13 -5.308942E-14
       252  17  1.000323E+03  2.025779E+02  1.873927E+01 -3.583899E+00 -2.101684E-13  7.005614E-14
       252  18  1.000493E+03  2.141639E+02  2.073778E+01 -3.451385E+00 -5.254211E-14 -1.924491E-13
       252  19  9.985483E+02  1.683329E+02  1.084557E+01 -2.620621E+01 -4.408255E+00  6.525979E+00
       252  20  9.981171E+02  1.773155E+02  1.189613E+01 -2.409365E+01 -4.876074E+00  6.059145E+00
       252  21  9.980472E+02  1.864901E+02  1.322505E+01 -2.239233E+01 -5.321559E+00  5.592310E+00
       252  22  9.988853E+02  1.784129E+02  1.312488E+01 -1.523290E+01 -2.618400E+00  6.912888E+00
       252  23  9.985582E+02  1.885854E+02  1.447315E+01 -1.390471E+01 -2.902047E+00  6.423719E+00
       252  24  9.985955E+02  1.989528E+02  1.610703E+01 -1.298779E+01 -3.163360E+00  5.934550E+00
       252  25  1.000520E+03  1.911901E+02  1.703360E+01 -4.127678E+00 -8.284850E-01  7.115614E+00
       252  26  1.000323E+03  2.025779E+02  1.873927E+01 -3.583899E+00 -9.279544E-01  6.604111E+00
       252  27  1.000493E+03  2.141639E+02  2.073778E+01 -3.451385E+00 -1.005089E+00  6.092608E+00
       253   1  8.297515E+02  1.230316E+02 -2.673105E-02 -9.024491E+01  1.965923E+01  7.190221E+00
       253   2  8.404733E+02  1.174940E+02 -3.389895E-01 -1.038874E+02  1.870299E+01  8.324768E+00
       253   3  8.534634E+02  1.128388E+02  2.076403E-02 -1.172724E+02  1.760563E+01  9.459277E+00
       253   4  8.144129E+02  1.209604E+02 -3.639998E-01 -9.477022E+01  2.092943E+01  8.113602E+00
       253   5  8.264013E+02  1.151523E+02 -6.167616E-01 -1.089985E+02  1.989780E+01  9.389249E+00
       253   6  8.406382E+02  1.102069E+02 -2.432306E-01 -1.229693E+02  1.872506E+01  1.066485E+01
       253   7  7.990901E+02  1.186907E+02 -4.503450E-01 -9.980700E+01  2.219963E+01  9.112372E+00
       253   8  8.123344E+02  1.126015E+02 -6.680389E-01 -1.146211E+02  2.109262E+01  1.052912E+01
       253   9  8.278078E+02  1.073556E+02 -3.051592E-01 -1.291776E+02  1.984448E+01  1.194582E+01
       253  10  8.297515E+02  1.230316E+02 -2.673105E-02 -9.024491E+01  7.005614E-14  4.203368E-13
       253  11  8.404733E+02  1.174940E+02 -3.389895E-01 -1.038874E+02 -2.802246E-13  1.217773E-13
       253  12  8.534634E+02  1.128388E+02  2.076403E-02 -1.172724E+02 -8.975943E-13 -5.082491E-13
       253  13  8.144129E+02  1.209604E+02 -3.639998E-01 -9.477022E+01  3.502807E-14  8.056456E-13
       253  14  8.264013E+02  1.151523E+02 -6.167616E-01 -1.089985E+02  3.502807E-14  2.796772E-13
       253  15  8.406382E+02  1.102069E+02 -2.432306E-01 -1.229693E+02 -4.364535E-14  6.964566E-14
       253  16  7.990901E+02  1.186907E+02 -4.503450E-01 -9.980700E+01 -3.502807E-14  4.033701E-13
       253  17  8.123344E+02  1.126015E+02 -6.680389E-01 -1.146211E+02  5.954772E-13  1.042632E-13
       253  18  8.278078E+02  1.073556E+02 -3.051592E-01 -1.291776E+02  5.341781E-13 -5.103699E-14
       253  19  8.297515E+02  1.230316E+02 -2.673105E-02 -9.024491E+01 -1.965923E+01 -7.190221E+00
       253  20  8.404733E+02  1.174940E+02 -3.389895E-01 -1.038874E+02 -1.870299E+01 -8.324768E+00
       253  21  8.534634E+02  1.128388E+02  2.076403E-02 -1.172724E+02 -1.760563E+01 -9.459277E+00
       253  22  8.144129E+02  1.209604E+02 -3.639998E-01 -9.477022E+01 -2.092943E+01 -8.113602E+00
       253  23  8.264013E+02  1.151523E+02 -6.167616E-01 -1.089985E+02 -1.989780E+01 -9.389249E+00
       253  24  8.406382E+02  1.102069E+02 -2.432306E-01 -1.229693E+02 -1.872506E+01 -1.066485E+01
       253  25  7.990901E+02  1.186907E+02 -4.503450E-01 -9.980700E+01 -2.219963E+01 -9.112372E+00
       253  26  8.123344E+02  1.126015E+02 -6.680389E-01 -1.146211E+02 -2.109262E+01 -1.052912E+01
       253  27  8.278078E+02  1.073556E+02 -3.051592E-01 -1.291776E+02 -1.984448E+01 -1.194582E+01
       254   1  8.614437E+02  1.093192E+02 -9.505243E-03 -1.243060E+02  1.690732E+01  1.004409E+01
       254   2  8.758753E+02  1.027590E+02 -1.769152E-01 -1.346829E+02  1.562765E+01  1.096484E+01
       254   3  8.918636E+02  9.679287E+01  7.923965E-02 -1.447758E+02  1.424203E+01  1.188558E+01
       254   4  8.494531E+02  1.065923E+02 -2.254964E-01 -1.302183E+02  1.797900E+01  1.131515E+01
       254   5  8.654108E+02  9.976935E+01 -3.326532E-01 -1.409016E+02  1.661061E+01  1.234184E+01
       254   6  8.829105E+02  9.352576E+01 -5.057987E-02 -1.513007E+02  1.513628E+01  1.336853E+01
       254   7  8.373489E+02  1.034018E+02 -3.566707E-01 -1.367409E+02  1.905067E+01  1.267491E+01
       254   8  8.548204E+02  9.630376E+01 -4.323229E-01 -1.477305E+02  1.759358E+01  1.380755E+01
       254   9  8.738190E+02  8.977040E+01 -1.530796E-01 -1.584360E+02  1.603054E+01  1.494019E+01
       254  10  8.614437E+02  1.093192E+02 -9.505243E-03 -1.243060E+02 -9.807860E-13 -5.254211E-14
       254  11  8.758753E+02  1.027590E+02 -1.769152E-01 -1.346829E+02 -3.502807E-13 -1.215036E-13
       254  12  8.918636E+02  9.679287E+01  7.923965E-02 -1.447758E+02 -1.532478E-13 -1.390177E-13
       254  13  8.494531E+02  1.065923E+02 -2.254964E-01 -1.302183E+02  8.757018E-14 -1.028950E-13
       254  14  8.654108E+02  9.976935E+01 -3.326532E-01 -1.409016E+02 -1.751404E-13 -2.145469E-13
       254  15  8.829105E+02  9.352576E+01 -5.057987E-02 -1.513007E+02 -1.225982E-13 -6.269477E-13
       254  16  8.373489E+02  1.034018E+02 -3.566707E-01 -1.367409E+02  6.655333E-13  2.271351E-13
       254  17  8.548204E+02  9.630376E+01 -4.323229E-01 -1.477305E+02  2.101684E-13 -1.236929E-13
       254  18  8.738190E+02  8.977040E+01 -1.530796E-01 -1.584360E+02 -2.627105E-13 -3.660844E-13
       254  19  8.614437E+02  1.093192E+02 -9.505243E-03 -1.243060E+02 -1.690732E+01 -1.004409E+01
       254  20  8.758753E+02  1.027590E+02 -1.769152E-01 -1.346829E+02 -1.562765E+01 -1.096484E+01
       254  21  8.918636E+02  9.679287E+01  7.923965E-02 -1.447758E+02 -1.424203E+01 -1.188558E+01
       254  22  8.494531E+02  1.065923E+02 -2.254964E-01 -1.302183E+02 -1.797900E+01 -1.131515E+01
       254  23  8.654108E+02  9.976935E+01 -3.326532E-01 -1.409016E+02 -1.661061E+01 -1.234184E+01
       254  24  8.829105E+02  9.352576E+01 -5.057987E-02 -1.513007E+02 -1.513628E+01 -1.336853E+01
       254  25  8.373489E+02  1.034018E+02 -3.566707E-01 -1.367409E+02 -1.905067E+01 -1.267491E+01
       254  26  8.548204E+02  9.630376E+01 -4.323229E-01 -1.477305E+02 -1.759358E+01 -1.380755E+01
       254  27  8.738190E+02  8.977040E+01 -1.530796E-01 -1.584360E+02 -1.603054E+01 -1.494019E+01
       255   1  8.300874E+02  1.013114E+02 -4.467765E-01 -1.406207E+02  1.974684E+01  1.350627E+01
       255   2  8.483518E+02  9.395196E+01 -5.707400E-01 -1.518103E+02  1.823292E+01  1.470245E+01
       255   3  8.683391E+02  8.723595E+01 -2.727944E-01 -1.626433E+02  1.660660E+01  1.589863E+01
       255   4  8.171252E+02  9.704746E+01 -7.023975E-01 -1.473856E+02  2.106172E+01  1.502526E+01
       255   5  8.372595E+02  8.934512E+01 -7.474997E-01 -1.588124E+02  1.942533E+01  1.633384E+01
       255   6  8.591010E+02  8.227060E+01 -4.071056E-01 -1.698825E+02  1.767653E+01  1.764242E+01
       255   7  8.038912E+02  9.190682E+01 -9.861159E-01 -1.549001E+02  2.237665E+01  1.666670E+01
       255   8  8.258784E+02  8.384459E+01 -9.920021E-01 -1.665640E+02  2.061778E+01  1.808768E+01
       255   9  8.495572E+02  7.639459E+01 -6.488045E-01 -1.778712E+02  1.874650E+01  1.950866E+01
       255  10  8.300874E+02  1.013114E+02 -4.467765E-01 -1.406207E+02  1.751404E-13  3.683421E-13
       255  11  8.483518E+02  9.395196E+01 -5.707400E-01 -1.518103E+02  1.050842E-13  6.950883E-14
       255  12  8.683391E+02  8.723595E+01 -2.727944E-01 -1.626433E+02 -1.620048E-13 -1.405228E-13
       255  13  8.171252E+02  9.704746E+01 -7.023975E-01 -1.473856E+02  2.276825E-13  2.101684E-13
       255  14  8.372595E+02  8.934512E+01 -7.474997E-01 -1.588124E+02  2.802246E-13  1.423015E-13
       255  15  8.591010E+02  8.227060E+01 -4.071056E-01 -1.698825E+02  7.005614E-14  1.401123E-13
       255  16  8.038912E+02  9.190682E+01 -9.861159E-01 -1.549001E+02  2.101684E-13 -3.141580E-13
       255  17  8.258784E+02  8.384459E+01 -9.920021E-01 -1.665640E+02  3.853088E-13  6.814054E-14
       255  18  8.495572E+02  7.639459E+01 -6.488045E-01 -1.778712E+02  4.991500E-13  6.131965E-13
       255  19  8.300874E+02  1.013114E+02 -4.467765E-01 -1.406207E+02 -1.974684E+01 -1.350627E+01
       255  20  8.483518E+02  9.395196E+01 -5.707400E-01 -1.518103E+02 -1.823292E+01 -1.470245E+01
       255  21  8.683391E+02  8.723595E+01 -2.727944E-01 -1.626433E+02 -1.660660E+01 -1.589863E+01
       255  22  8.171252E+02  9.704746E+01 -7.023975E-01 -1.473856E+02 -2.106172E+01 -1.502526E+01
       255  23  8.372595E+02  8.934512E+01 -7.474997E-01 -1.588124E+02 -1.942533E+01 -1.633384E+01
       255  24  8.591010E+02  8.227060E+01 -4.071056E-01 -1.698825E+02 -1.767653E+01 -1.764242E+01
       255  25  8.038912E+02  9.190682E+01 -9.861159E-01 -1.549001E+02 -2.237665E+01 -1.666670E+01
       255  26  8.258784E+02  8.384459E+01 -9.920021E-01 -1.665640E+02 -2.061778E+01 -1.808768E+01
       255  27  8.495572E+02  7.639459E+01 -6.488045E-01 -1.778712E+02 -1.874650E+01 -1.950866E+01
       256   1  7.897986E+02  1.171696E+02 -5.284233E-01 -1.028253E+02  2.303664E+01  9.722876E+00
       256   2  8.035259E+02  1.107445E+02 -8.596408E-01 -1.180329E+02  2.188896E+01  1.122811E+01
       256   3  8.199794E+02  1.053686E+02 -4.206357E-01 -1.329065E+02  2.057828E+01  1.273329E+01
       256   4  7.726346E+02  1.137900E+02 -9.533444E-01 -1.081426E+02  2.463379E+01  1.084291E+01
       256   5  7.879565E+02  1.070000E+02 -1.204897E+00 -1.239729E+02  2.337846E+01  1.251112E+01
       256   6  8.059820E+02  1.012367E+02 -7.390131E-01 -1.394692E+02  2.196013E+01  1.417927E+01
       256   7  7.553678E+02  1.098765E+02 -1.184839E+00 -1.141061E+02  2.623099E+01  1.207058E+01
       256   8  7.722694E+02  1.027067E+02 -1.391570E+00 -1.305590E+02  2.486801E+01  1.390176E+01
       256   9  7.918521E+02  9.654109E+01 -9.336490E-01 -1.466780E+02  2.334203E+01  1.573288E+01
       256  10  7.897986E+02  1.171696E+02 -5.284233E-01 -1.028253E+02  3.152526E-13 -1.696672E-14
       256  11  8.035259E+02  1.107445E+02 -8.596408E-01 -1.180329E+02  4.203368E-13  7.005614E-14
       256  12  8.199794E+02  1.053686E+02 -4.206357E-01 -1.329065E+02  2.057899E-13 -7.039821E-14
       256  13  7.726346E+02  1.137900E+02 -9.533444E-01 -1.081426E+02  5.254211E-14  7.005614E-14
       256  14  7.879565E+02  1.070000E+02 -1.204897E+00 -1.239729E+02  1.050842E-13  1.751404E-13
       256  15  8.059820E+02  1.012367E+02 -7.390131E-01 -1.394692E+02  9.869034E-14  1.410701E-13
       256  16  7.553678E+02  1.098765E+02 -1.184839E+00 -1.141061E+02 -1.401123E-13 -2.282298E-13
       256  17  7.722694E+02  1.027067E+02 -1.391570E+00 -1.305590E+02 -1.751404E-13  6.814054E-14
       256  18  7.918521E+02  9.654109E+01 -9.336490E-01 -1.466780E+02 -4.378509E-14  5.079754E-13
       256  19  7.897986E+02  1.171696E+02 -5.284233E-01 -1.028253E+02 -2.303664E+01 -9.722876E+00
       256  20  8.035259E+02  1.107445E+02 -8.596408E-01 -1.180329E+02 -2.188896E+01 -1.122811E+01
       256  21  8.199794E+02  1.053686E+02 -4.206357E-01 -1.329065E+02 -2.057828E+01 -1.273329E+01
       256  22  7.726346E+02  1.137900E+02 -9.533444E-01 -1.081426E+02 -2.463379E+01 -1.084291E+01
       256  23  7.879565E+02  1.070000E+02 -1.204897E+00 -1.239729E+02 -2.337846E+01 -1.251112E+01
       256  24  8.059820E+02  1.012367E+02 -7.390131E-01 -1.394692E+02 -2.196013E+01 -1.417927E+01
       256  25  7.553678E+02  1.098765E+02 -1.184839E+00 -1.141061E+02 -2.623099E+01 -1.207058E+01
       256  26  7.722694E+02  1.027067E+02 -1.391570E+00 -1.305590E+02 -2.486801E+01 -1.390176E+01
       256  27  7.918521E+02  9.654109E+01 -9.336490E-01 -1.466780E+02 -2.334203E+01 -1.573288E+01
       257   1  8.016216E+02  2.607250E+01 -3.005905E+00 -2.246528E+02  2.492494E+01  3.181447E+01
       257   2  7.649022E+02  3.609308E+01 -3.597840E+00 -2.131107E+02  2.780591E+01  2.981003E+01
       257   3  7.300047E+02  4.673541E+01 -3.939222E+00 -2.010164E+02  3.057665E+01  2.780559E+01
       257   4  8.109239E+02  3.914796E+01 -2.148104E+00 -2.143174E+02  2.372117E+01  2.899712E+01
       257   5  7.771241E+02  4.862308E+01 -2.692769E+00 -2.027418E+02  2.636463E+01  2.710292E+01
       257   6  7.451615E+02  5.873523E+01 -2.951173E+00 -1.906141E+02  2.889786E+01  2.520872E+01
       257   7  8.194429E+02  5.017331E+01 -1.850631E+00 -2.051620E+02  2.251744E+01  2.641725E+01
       257   8  7.885955E+02  5.913588E+01 -2.271131E+00 -1.935530E+02  2.492340E+01  2.463328E+01
       257   9  7.596006E+02  6.875079E+01 -2.369659E+00 -1.813919E+02  2.721912E+01  2.284932E+01
       257  10  8.016216E+02  2.607250E+01 -3.005905E+00 -2.246528E+02  2.101684E-13  3.327667E-13
       257  11  7.649022E+02  3.609308E+01 -3.597840E+00 -2.131107E+02  1.751404E-13 -5.254211E-14
       257  12  7.300047E+02  4.673541E+01 -3.939222E+00 -2.010164E+02  6.086127E-13 -2.280929E-13
       257  13  8.109239E+02  3.914796E+01 -2.148104E+00 -2.143174E+02  1.401123E-13 -3.831195E-13
       257  14  7.771241E+02  4.862308E+01 -2.692769E+00 -2.027418E+02  5.954772E-13 -3.393344E-14
       257  15  7.451615E+02  5.873523E+01 -2.951173E+00 -1.906141E+02  1.225982E-13  1.368284E-15
       257  16  8.194429E+02  5.017331E+01 -1.850631E+00 -2.051620E+02  2.802246E-13 -7.180754E-13
       257  17  7.885955E+02  5.913588E+01 -2.271131E+00 -1.935530E+02  1.401123E-13 -5.144748E-14
       257  18  7.596006E+02  6.875079E+01 -2.369659E+00 -1.813919E+02 -1.007057E-13  5.443034E-13
       257  19  8.016216E+02  2.607250E+01 -3.005905E+00 -2.246528E+02 -2.492494E+01 -3.181447E+01
       257  20  7.649022E+02  3.609308E+01 -3.597840E+00 -2.131107E+02 -2.780591E+01 -2.981003E+01
       257  21  7.300047E+02  4.673541E+01 -3.939222E+00 -2.010164E+02 -3.057665E+01 -2.780559E+01
       257  22  8.109239E+02  3.914796E+01 -2.148104E+00 -2.143174E+02 -2.372117E+01 -2.899712E+01
       257  23  7.771241E+02  4.862308E+01 -2.692769E+00 -2.027418E+02 -2.636463E+01 -2.710292E+01
       257  24  7.451615E+02  5.873523E+01 -2.951173E+00 -1.906141E+02 -2.889786E+01 -2.520872E+01
       257  25  8.194429E+02  5.017331E+01 -1.850631E+00 -2.051620E+02 -2.251744E+01 -2.641725E+01
       257  26  7.885955E+02  5.913588E+01 -2.271131E+00 -1.935530E+02 -2.492340E+01 -2.463328E+01
       257  27  7.596006E+02  6.875079E+01 -2.369659E+00 -1.813919E+02 -2.721912E+01 -2.284932E+01
       258   1  7.107038E+02  5.329956E+01 -3.954139E+00 -1.917110E+02  3.212986E+01  2.639567E+01
       258   2  6.790583E+02  6.220121E+01 -4.770528E+00 -1.722101E+02  3.462179E+01  2.350626E+01
       258   3  6.512392E+02  7.251415E+01 -4.711266E+00 -1.521512E+02  3.688742E+01  2.061676E+01
       258   4  7.273421E+02  6.463730E+01 -3.078035E+00 -1.815310E+02  3.031675E+01  2.390269E+01
       258   5  6.983264E+02  7.288547E+01 -3.874442E+00 -1.627280E+02  3.258462E+01  2.123953E+01
       258   6  6.731686E+02  8.257627E+01 -3.721921E+00 -1.433671E+02  3.462620E+01  1.857628E+01
       258   7  7.434671E+02  7.444291E+01 -2.379178E+00 -1.724351E+02  2.850370E+01  2.163371E+01
       258   8  7.171122E+02  8.206864E+01 -3.083073E+00 -1.543301E+02  3.054753E+01  1.919681E+01
       258   9  6.946466E+02  9.116833E+01 -2.764761E+00 -1.356674E+02  3.236506E+01  1.675983E+01
       258  10  7.107038E+02  5.329956E+01 -3.954139E+00 -1.917110E+02  4.203368E-13  2.616159E-13
       258  11  6.790583E+02  6.220121E+01 -4.770528E+00 -1.722101E+02  3.502807E-14 -1.833501E-14
       258  12  6.512392E+02  7.251415E+01 -4.711266E+00 -1.521512E+02  2.933601E-13 -1.755508E-13
       258  13  7.273421E+02  6.463730E+01 -3.078035E+00 -1.815310E+02 -1.751404E-13  1.762350E-13
       258  14  6.983264E+02  7.288547E+01 -3.874442E+00 -1.627280E+02 -1.401123E-13 -1.094627E-15
       258  15  6.731686E+02  8.257627E+01 -3.721921E+00 -1.433671E+02 -1.481765E-14 -4.898457E-13
       258  16  7.434671E+02  7.444291E+01 -2.379178E+00 -1.724351E+02 -1.751404E-13  2.271351E-13
       258  17  7.171122E+02  8.206864E+01 -3.083073E+00 -1.543301E+02 -1.926544E-13  0.000000E+00
       258  18  6.946466E+02  9.116833E+01 -2.764761E+00 -1.356674E+02 -2.977386E-13 -4.387403E-13
       258  19  7.107038E+02  5.329956E+01 -3.954139E+00 -1.917110E+02 -3.212986E+01 -2.639567E+01
       258  20  6.790583E+02  6.220121E+01 -4.770528E+00 -1.722101E+02 -3.462179E+01 -2.350626E+01
       258  21  6.512392E+02  7.251415E+01 -4.711266E+00 -1.521512E+02 -3.688742E+01 -2.061676E+01
       258  22  7.273421E+02  6.463730E+01 -3.078035E+00 -1.815310E+02 -3.031675E+01 -2.390269E+01
       258  23  6.983264E+02  7.288547E+01 -3.874442E+00 -1.627280E+02 -3.258462E+01 -2.123953E+01
       258  24  6.731686E+02  8.257627E+01 -3.721921E+00 -1.433671E+02 -3.462620E+01 -1.857628E+01
       258  25  7.434671E+02  7.444291E+01 -2.379178E+00 -1.724351E+02 -2.850370E+01 -2.163371E+01
       258  26  7.171122E+02  8.206864E+01 -3.083073E+00 -1.543301E+02 -3.054753E+01 -1.919681E+01
       258  27  6.946466E+02  9.116833E+01 -2.764761E+00 -1.356674E+02 -3.236506E+01 -1.675983E+01
       259   1  7.527552E+02  7.942646E+01 -2.018067E+00 -1.672478E+02  2.748491E+01  2.042180E+01
       259   2  7.279294E+02  8.679481E+01 -2.617615E+00 -1.494835E+02  2.940741E+01  1.810624E+01
       259   3  7.062979E+02  9.534891E+01 -2.460672E+00 -1.312878E+02  3.113913E+01  1.579061E+01
       259   4  7.681655E+02  8.687408E+01 -1.581335E+00 -1.587286E+02  2.585609E+01  1.848136E+01
       259   5  7.453491E+02  9.372647E+01 -2.177018E+00 -1.416221E+02  2.762378E+01  1.635656E+01
       259   6  7.257536E+02  1.017911E+02 -1.954404E+00 -1.240844E+02  2.920069E+01  1.423168E+01
       259   7  7.832824E+02  9.333553E+01 -1.136346E+00 -1.510413E+02  2.422726E+01  1.669573E+01
       259   8  7.624970E+02  9.969344E+01 -1.678004E+00 -1.345927E+02  2.584016E+01  1.476167E+01
       259   9  7.449589E+02  1.072900E+02 -1.339559E+00 -1.177129E+02  2.726226E+01  1.282755E+01
       259  10  7.527552E+02  7.942646E+01 -2.018067E+00 -1.672478E+02  3.502807E-13  4.553649E-13
       259  11  7.279294E+02  8.679481E+01 -2.617615E+00 -1.494835E+02  1.401123E-13  6.978248E-14
       259  12  7.062979E+02  9.534891E+01 -2.460672E+00 -1.312878E+02 -7.443465E-14 -2.454017E-13
       259  13  7.681655E+02  8.687408E+01 -1.581335E+00 -1.587286E+02  3.502807E-14  6.294106E-13
       259  14  7.453491E+02  9.372647E+01 -2.177018E+00 -1.416221E+02  2.101684E-13  1.751404E-13
       259  15  7.257536E+02  1.017911E+02 -1.954404E+00 -1.240844E+02 -4.719368E-14 -2.457438E-13
       259  16  7.832824E+02  9.333553E+01 -1.136346E+00 -1.510413E+02 -3.853088E-13  3.683421E-13
       259  17  7.624970E+02  9.969344E+01 -1.678004E+00 -1.345927E+02 -1.751404E-13  7.032980E-14
       259  18  7.449589E+02  1.072900E+02 -1.339559E+00 -1.177129E+02 -2.014114E-13 -1.574211E-13
       259  19  7.527552E+02  7.942646E+01 -2.018067E+00 -1.672478E+02 -2.748491E+01 -2.042180E+01
       259  20  7.279294E+02  8.679481E+01 -2.617615E+00 -1.494835E+02 -2.940741E+01 -1.810624E+01
       259  21  7.062979E+02  9.534891E+01 -2.460672E+00 -1.312878E+02 -3.113913E+01 -1.579061E+01
       259  22  7.681655E+02  8.687408E+01 -1.581335E+00 -1.587286E+02 -2.585609E+01 -1.848136E+01
       259  23  7.453491E+02  9.372647E+01 -2.177018E+00 -1.416221E+02 -2.762378E+01 -1.635656E+01
       259  24  7.257536E+02  1.017911E+02 -1.954404E+00 -1.240844E+02 -2.920069E+01 -1.423168E+01
       259  25  7.832824E+02  9.333553E+01 -1.136346E+00 -1.510413E+02 -2.422726E+01 -1.669573E+01
       259  26  7.624970E+02  9.969344E+01 -1.678004E+00 -1.345927E+02 -2.584016E+01 -1.476167E+01
       259  27  7.449589E+02  1.072900E+02 -1.339559E+00 -1.177129E+02 -2.726226E+01 -1.282755E+01
       260   1  8.250686E+02  5.602923E+01 -1.510802E+00 -1.997817E+02  2.180171E+01  2.501917E+01
       260   2  7.956161E+02  6.465082E+01 -1.943798E+00 -1.881564E+02  2.409710E+01  2.330089E+01
       260   3  7.679538E+02  7.390326E+01 -2.064156E+00 -1.760843E+02  2.627699E+01  2.158261E+01
       260   4  8.347365E+02  6.496670E+01 -1.033991E+00 -1.907244E+02  2.060778E+01  2.275112E+01
       260   5  8.075810E+02  7.312102E+01 -1.450199E+00 -1.792245E+02  2.273300E+01  2.114833E+01
       260   6  7.822316E+02  8.192223E+01 -1.516340E+00 -1.672779E+02  2.474273E+01  1.954555E+01
       260   7  8.438890E+02  7.248022E+01 -8.515895E-01 -1.826026E+02  1.941385E+01  2.065323E+01
       260   8  8.190540E+02  8.019091E+01 -1.195864E+00 -1.712281E+02  2.136891E+01  1.916594E+01
       260   9  7.960412E+02  8.856452E+01 -1.152645E+00 -1.594069E+02  2.320847E+01  1.767864E+01
       260  10  8.250686E+02  5.602923E+01 -1.510802E+00 -1.997817E+02  1.050842E-13 -6.666280E-13
       260  11  7.956161E+02  6.465082E+01 -1.943798E+00 -1.881564E+02 -1.401123E-13 -3.557538E-14
       260  12  7.679538E+02  7.390326E+01 -2.064156E+00 -1.760843E+02  4.290939E-13  5.960245E-13
       260  13  8.347365E+02  6.496670E+01 -1.033991E+00 -1.907244E+02 -3.502807E-14  1.401123E-13
       260  14  8.075810E+02  7.312102E+01 -1.450199E+00 -1.792245E+02 -3.853088E-13 -7.443465E-14
       260  15  7.822316E+02  8.192223E+01 -1.516340E+00 -1.672779E+02 -1.576263E-13 -1.094627E-15
       260  16  8.438890E+02  7.248022E+01 -8.515895E-01 -1.826026E+02 -4.903930E-13  4.225261E-13
       260  17  8.190540E+02  8.019091E+01 -1.195864E+00 -1.712281E+02 -8.406737E-13 -3.229150E-14
       260  18  7.960412E+02  8.856452E+01 -1.152645E+00 -1.594069E+02 -5.429351E-13 -4.015914E-13
       260  19  8.250686E+02  5.602923E+01 -1.510802E+00 -1.997817E+02 -2.180171E+01 -2.501917E+01
       260  20  7.956161E+02  6.465082E+01 -1.943798E+00 -1.881564E+02 -2.409710E+01 -2.330089E+01
       260  21  7.679538E+02  7.390326E+01 -2.064156E+00 -1.760843E+02 -2.627699E+01 -2.158261E+01
       260  22  8.347365E+02  6.496670E+01 -1.033991E+00 -1.907244E+02 -2.060778E+01 -2.275112E+01
       260  23  8.075810E+02  7.312102E+01 -1.450199E+00 -1.792245E+02 -2.273300E+01 -2.114833E+01
       260  24  7.822316E+02  8.192223E+01 -1.516340E+00 -1.672779E+02 -2.474273E+01 -1.954555E+01
       260  25  8.438890E+02  7.248022E+01 -8.515895E-01 -1.826026E+02 -1.941385E+01 -2.065323E+01
       260  26  8.190540E+02  8.019091E+01 -1.195864E+00 -1.712281E+02 -2.136891E+01 -1.916594E+01
       260  27  7.960412E+02  8.856452E+01 -1.152645E+00 -1.594069E+02 -2.320847E+01 -1.767864E+01
       261   1  8.326502E+02  1.264911E+02  6.794408E-02 -7.913595E+01  1.947940E+01  6.039405E+00
       261   2  8.243679E+02  1.292730E+02 -2.731106E-01 -6.369168E+01  2.017642E+01  4.836059E+00
       261   3  8.183195E+02  1.329168E+02  2.487798E-02 -4.811105E+01  2.072906E+01  3.632712E+00
       261   4  8.466567E+02  1.276277E+02  4.162389E-02 -7.522679E+01  1.848012E+01  5.287651E+00
       261   5  8.390271E+02  1.302458E+02 -3.163781E-01 -6.050254E+01  1.914222E+01  4.228674E+00
       261   6  8.336514E+02  1.337458E+02  1.146660E-02 -4.564193E+01  1.965995E+01  3.169696E+00
       261   7  8.608537E+02  1.290225E+02  3.905365E-01 -7.158956E+01  1.748080E+01  4.570820E+00
       261   8  8.538816E+02  1.314816E+02  2.691880E-02 -5.758534E+01  1.810799E+01  3.656212E+00
       261   9  8.491836E+02  1.348427E+02  3.959510E-01 -4.344475E+01  1.859081E+01  2.741604E+00
       261  10  8.326502E+02  1.264911E+02  6.794408E-02 -7.913595E+01 -5.604491E-13 -1.242949E-12
       261  11  8.243679E+02  1.292730E+02 -2.731106E-01 -6.369168E+01 -1.401123E-12  3.448076E-14
       261  12  8.183195E+02  1.329168E+02  2.487798E-02 -4.811105E+01 -5.867202E-13  1.155858E-12
       261  13  8.466567E+02  1.276277E+02  4.162389E-02 -7.522679E+01 -2.451965E-13 -6.655333E-13
       261  14  8.390271E+02  1.302458E+02 -3.163781E-01 -6.050254E+01 -6.655333E-13  1.379230E-13
       261  15  8.336514E+02  1.337458E+02  1.146660E-02 -4.564193E+01 -3.327667E-13  7.347685E-13
       261  16  8.608537E+02  1.290225E+02  3.905365E-01 -7.158956E+01 -1.401123E-13  2.112630E-13
       261  17  8.538816E+02  1.314816E+02  2.691880E-02 -5.758534E+01 -2.101684E-13  5.308942E-14
       261  18  8.491836E+02  1.348427E+02  3.959510E-01 -4.344475E+01  7.180754E-13 -5.261052E-14
       261  19  8.326502E+02  1.264911E+02  6.794408E-02 -7.913595E+01 -1.947940E+01 -6.039405E+00
       261  20  8.243679E+02  1.292730E+02 -2.731106E-01 -6.369168E+01 -2.017642E+01 -4.836059E+00
       261  21  8.183195E+02  1.329168E+02  2.487798E-02 -4.811105E+01 -2.072906E+01 -3.632712E+00
       261  22  8.466567E+02  1.276277E+02  4.162389E-02 -7.522679E+01 -1.848012E+01 -5.287651E+00
       261  23  8.390271E+02  1.302458E+02 -3.163781E-01 -6.050254E+01 -1.914222E+01 -4.228674E+00
       261  24  8.336514E+02  1.337458E+02  1.146660E-02 -4.564193E+01 -1.965995E+01 -3.169696E+00
       261  25  8.608537E+02  1.290225E+02  3.905365E-01 -7.158956E+01 -1.748080E+01 -4.570820E+00
       261  26  8.538816E+02  1.314816E+02  2.691880E-02 -5.758534E+01 -1.810799E+01 -3.656212E+00
       261  27  8.491836E+02  1.348427E+02  3.959510E-01 -4.344475E+01 -1.859081E+01 -2.741604E+00
       262   1  8.155046E+02  1.342866E+02  5.170105E-02 -3.850777E+01  2.097682E+01  2.927155E+00
       262   2  8.118165E+02  1.349284E+02 -3.117417E-01 -2.177317E+01  2.126834E+01  1.645524E+00
       262   3  8.105821E+02  1.365202E+02  3.734071E-02 -4.989522E+00  2.140428E+01  3.638491E-01
       262   4  8.310679E+02  1.349885E+02  1.157703E-02 -3.658937E+01  1.989399E+01  2.563960E+00
       262   5  8.275996E+02  1.355631E+02 -3.748097E-01 -2.066747E+01  2.017329E+01  1.437900E+00
       262   6  8.266067E+02  1.371093E+02  1.763993E-03 -4.696534E+00  2.029701E+01  3.118023E-01
       262   7  8.468736E+02  1.360541E+02  4.140334E-01 -3.476593E+01  1.881113E+01  2.212991E+00
       262   8  8.436269E+02  1.365632E+02  8.670902E-03 -1.965672E+01  1.907821E+01  1.242502E+00
       262   9  8.428770E+02  1.380654E+02  4.167041E-01 -4.498511E+00  1.918971E+01  2.719810E-01
       262  10  8.155046E+02  1.342866E+02  5.170105E-02 -3.850777E+01 -8.406737E-13 -6.132649E-13
       262  11  8.118165E+02  1.349284E+02 -3.117417E-01 -2.177317E+01 -2.101684E-13 -1.580368E-13
       262  12  8.105821E+02  1.365202E+02  3.734071E-02 -4.989522E+00  4.290939E-13  2.100316E-13
       262  13  8.310679E+02  1.349885E+02  1.157703E-02 -3.658937E+01  0.000000E+00 -3.853088E-13
       262  14  8.275996E+02  1.355631E+02 -3.748097E-01 -2.066747E+01 -4.553649E-13 -3.853088E-13
       262  15  8.266067E+02  1.371093E+02  1.763993E-03 -4.696534E+00 -5.254211E-14 -3.851035E-13
       262  16  8.468736E+02  1.360541E+02  4.140334E-01 -3.476593E+01  4.203368E-13  3.324930E-13
       262  17  8.436269E+02  1.365632E+02  8.670902E-03 -1.965672E+01 -4.203368E-13 -1.579000E-13
       262  18  8.428770E+02  1.380654E+02  4.167041E-01 -4.498511E+00 -7.793746E-13 -9.458263E-13
       262  19  8.155046E+02  1.342866E+02  5.170105E-02 -3.850777E+01 -2.097682E+01 -2.927155E+00
       262  20  8.118165E+02  1.349284E+02 -3.117417E-01 -2.177317E+01 -2.126834E+01 -1.645524E+00
       262  21  8.105821E+02  1.365202E+02  3.734071E-02 -4.989522E+00 -2.140428E+01 -3.638491E-01
       262  22  8.310679E+02  1.349885E+02  1.157703E-02 -3.658937E+01 -1.989399E+01 -2.563960E+00
       262  23  8.275996E+02  1.355631E+02 -3.748097E-01 -2.066747E+01 -2.017329E+01 -1.437900E+00
       262  24  8.266067E+02  1.371093E+02  1.763993E-03 -4.696534E+00 -2.029701E+01 -3.118023E-01
       262  25  8.468736E+02  1.360541E+02  4.140334E-01 -3.476593E+01 -1.881113E+01 -2.212991E+00
       262  26  8.436269E+02  1.365632E+02  8.670902E-03 -1.965672E+01 -1.907821E+01 -1.242502E+00
       262  27  8.428770E+02  1.380654E+02  4.167041E-01 -4.498511E+00 -1.918971E+01 -2.719810E-01
       263   1  8.553091E+02  1.364628E+02  4.733478E-01 -3.374648E+01  1.825898E+01  2.020075E+00
       263   2  8.524591E+02  1.370595E+02  1.770491E-01 -1.907501E+01  1.851002E+01  1.134230E+00
       263   3  8.515342E+02  1.384110E+02  4.714738E-01 -4.366921E+00  1.862574E+01  2.483544E-01
       263   4  8.689098E+02  1.371022E+02  4.451720E-01 -3.205297E+01  1.746609E+01  1.705504E+00
       263   5  8.662390E+02  1.376527E+02  1.293221E-01 -1.810128E+01  1.770890E+01  9.549624E-01
       263   6  8.655121E+02  1.389768E+02  4.480441E-01 -4.112974E+00  1.781641E+01  2.043956E-01
       263   7  8.828225E+02  1.383229E+02  8.758638E-01 -3.043598E+01  1.667319E+01  1.399150E+00
       263   8  8.803321E+02  1.388283E+02  5.431289E-01 -1.720405E+01  1.690779E+01  7.839121E-01
       263   9  8.798044E+02  1.401261E+02  8.888145E-01 -3.935546E+00  1.700708E+01  1.686538E-01
       263  10  8.553091E+02  1.364628E+02  4.733478E-01 -3.374648E+01  2.101684E-13  4.903930E-13
       263  11  8.524591E+02  1.370595E+02  1.770491E-01 -1.907501E+01  6.305053E-13 -1.368284E-16
       263  12  8.515342E+02  1.384110E+02  4.714738E-01 -4.366921E+00 -8.757018E-15 -6.131281E-13
       263  13  8.689098E+02  1.371022E+02  4.451720E-01 -3.205297E+01  1.050842E-13  2.802246E-13
       263  14  8.662390E+02  1.376527E+02  1.293221E-01 -1.810128E+01  2.802246E-13 -2.736568E-16
       263  15  8.655121E+02  1.389768E+02  4.480441E-01 -4.112974E+00  1.751404E-13 -4.551597E-13
       263  16  8.828225E+02  1.383229E+02  8.758638E-01 -3.043598E+01 -1.401123E-13  1.223246E-13
       263  17  8.803321E+02  1.388283E+02  5.431289E-01 -1.720405E+01 -1.401123E-13  1.368284E-16
       263  18  8.798044E+02  1.401261E+02  8.888145E-01 -3.935546E+00 -2.364395E-13  3.420710E-17
       263  19  8.553091E+02  1.364628E+02  4.733478E-01 -3.374648E+01 -1.825898E+01 -2.020075E+00
       263  20  8.524591E+02  1.370595E+02  1.770491E-01 -1.907501E+01 -1.851002E+01 -1.134230E+00
       263  21  8.515342E+02  1.384110E+02  4.714738E-01 -4.366921E+00 -1.862574E+01 -2.483544E-01
       263  22  8.689098E+02  1.371022E+02  4.451720E-01 -3.205297E+01 -1.746609E+01 -1.705504E+00
       263  23  8.662390E+02  1.376527E+02  1.293221E-01 -1.810128E+01 -1.770890E+01 -9.549624E-01
       263  24  8.655121E+02  1.389768E+02  4.480441E-01 -4.112974E+00 -1.781641E+01 -2.043956E-01
       263  25  8.828225E+02  1.383229E+02  8.758638E-01 -3.043598E+01 -1.667319E+01 -1.399150E+00
       263  26  8.803321E+02  1.388283E+02  5.431289E-01 -1.720405E+01 -1.690779E+01 -7.839121E-01
       263  27  8.798044E+02  1.401261E+02  8.888145E-01 -3.935546E+00 -1.700708E+01 -1.686538E-01
       264   1  8.684983E+02  1.296305E+02  4.555809E-01 -6.952372E+01  1.697018E+01  4.174355E+00
       264   2  8.620977E+02  1.321076E+02  1.828836E-01 -5.590100E+01  1.757154E+01  3.338628E+00
       264   3  8.574707E+02  1.352786E+02  4.492245E-01 -4.217588E+01  1.804620E+01  2.502902E+00
       264   4  8.808160E+02  1.305611E+02  4.332912E-01 -6.604213E+01  1.623401E+01  3.521503E+00
       264   5  8.749522E+02  1.329289E+02  1.469133E-01 -5.307205E+01  1.681165E+01  2.812481E+00
       264   6  8.708796E+02  1.360082E+02  4.406350E-01 -3.999957E+01  1.726259E+01  2.103459E+00
       264   7  8.934050E+02  1.319885E+02  8.186564E-01 -6.278119E+01  1.549784E+01  2.892367E+00
       264   8  8.880812E+02  1.342503E+02  5.262837E-01 -5.046375E+01  1.605177E+01  2.310050E+00
       264   9  8.845663E+02  1.372411E+02  8.550721E-01 -3.804391E+01  1.647899E+01  1.727732E+00
       264  10  8.684983E+02  1.296305E+02  4.555809E-01 -6.952372E+01  0.000000E+00  2.282298E-13
       264  11  8.620977E+02  1.321076E+02  1.828836E-01 -5.590100E+01  2.802246E-13 -1.587209E-14
       264  12  8.574707E+02  1.352786E+02  4.492245E-01 -4.217588E+01  2.802246E-13 -4.556386E-13
       264  13  8.808160E+02  1.305611E+02  4.332912E-01 -6.604213E+01  1.926544E-13  1.390177E-13
       264  14  8.749522E+02  1.329289E+02  1.469133E-01 -5.307205E+01  1.401123E-13 -7.334002E-14
       264  15  8.708796E+02  1.360082E+02  4.406350E-01 -3.999957E+01  3.327667E-13 -3.144317E-13
       264  16  8.934050E+02  1.319885E+02  8.186564E-01 -6.278119E+01  1.401123E-13  2.107157E-13
       264  17  8.880812E+02  1.342503E+02  5.262837E-01 -5.046375E+01  7.005614E-14 -1.806135E-14
       264  18  8.845663E+02  1.372411E+02  8.550721E-01 -3.804391E+01  9.632719E-14 -5.220003E-14
       264  19  8.684983E+02  1.296305E+02  4.555809E-01 -6.952372E+01 -1.697018E+01 -4.174355E+00
       264  20  8.620977E+02  1.321076E+02  1.828836E-01 -5.590100E+01 -1.757154E+01 -3.338628E+00
       264  21  8.574707E+02  1.352786E+02  4.492245E-01 -4.217588E+01 -1.804620E+01 -2.502902E+00
       264  22  8.808160E+02  1.305611E+02  4.332912E-01 -6.604213E+01 -1.623401E+01 -3.521503E+00
       264  23  8.749522E+02  1.329289E+02  1.469133E-01 -5.307205E+01 -1.681165E+01 -2.812481E+00
       264  24  8.708796E+02  1.360082E+02  4.406350E-01 -3.999957E+01 -1.726259E+01 -2.103459E+00
       264  25  8.934050E+02  1.319885E+02  8.186564E-01 -6.278119E+01 -1.549784E+01 -2.892367E+00
       264  26  8.880812E+02  1.342503E+02  5.262837E-01 -5.046375E+01 -1.605177E+01 -2.310050E+00
       264  27  8.845663E+02  1.372411E+02  8.550721E-01 -3.804391E+01 -1.647899E+01 -1.727732E+00
       265   1  8.588013E+02  6.746903E+01 -8.302169E-01 -1.877956E+02  1.822274E+01  2.137267E+01
       265   2  8.851569E+02  5.947492E+01 -5.888805E-01 -1.941390E+02  1.612994E+01  2.238437E+01
       265   3  9.120160E+02  5.161573E+01 -3.994931E-01 -2.001165E+02  1.399198E+01  2.339610E+01
       265   4  8.510186E+02  5.982947E+01 -9.376920E-01 -1.958573E+02  1.932163E+01  2.352104E+01
       265   5  8.796569E+02  5.159499E+01 -6.063227E-01 -2.018517E+02  1.707239E+01  2.457795E+01
       265   6  9.087923E+02  4.348912E+01 -3.415585E-01 -2.074802E+02  1.477798E+01  2.563489E+01
       265   7  8.425886E+02  5.047613E+01 -1.488938E+00 -2.048142E+02  2.042052E+01  2.582586E+01
       265   8  8.734878E+02  4.197952E+01 -1.118249E+00 -2.104596E+02  1.801483E+01  2.692797E+01
       265   9  9.048779E+02  3.360521E+01 -8.288207E-01 -2.157392E+02  1.556398E+01  2.803012E+01
       265  10  8.588013E+02  6.746903E+01 -8.302169E-01 -1.877956E+02 -1.401123E-13  1.751404E-13
       265  11  8.851569E+02  5.947492E+01 -5.888805E-01 -1.941390E+02 -3.502807E-13 -3.448076E-14
       265  12  9.120160E+02  5.161573E+01 -3.994931E-01 -2.001165E+02 -2.495750E-13 -1.202722E-13
       265  13  8.510186E+02  5.982947E+01 -9.376920E-01 -1.958573E+02 -7.005614E-14  1.072735E-13
       265  14  8.796569E+02  5.159499E+01 -6.063227E-01 -2.018517E+02  0.000000E+00 -1.028950E-13
       265  15  9.087923E+02  4.348912E+01 -3.415585E-01 -2.074802E+02  5.526716E-14 -2.118104E-13
       265  16  8.425886E+02  5.047613E+01 -1.488938E+00 -2.048142E+02 -1.401123E-13  5.068124E-13
       265  17  8.734878E+02  4.197952E+01 -1.118249E+00 -2.104596E+02  0.000000E+00 -3.667001E-14
       265  18  9.048779E+02  3.360521E+01 -8.288207E-01 -2.157392E+02  2.145469E-13 -5.637330E-13
       265  19  8.588013E+02  6.746903E+01 -8.302169E-01 -1.877956E+02 -1.822274E+01 -2.137267E+01
       265  20  8.851569E+02  5.947492E+01 -5.888805E-01 -1.941390E+02 -1.612994E+01 -2.238437E+01
       265  21  9.120160E+02  5.161573E+01 -3.994931E-01 -2.001165E+02 -1.399198E+01 -2.339610E+01
       265  22  8.510186E+02  5.982947E+01 -9.376920E-01 -1.958573E+02 -1.932163E+01 -2.352104E+01
       265  23  8.796569E+02  5.159499E+01 -6.063227E-01 -2.018517E+02 -1.707239E+01 -2.457795E+01
       265  24  9.087923E+02  4.348912E+01 -3.415585E-01 -2.074802E+02 -1.477798E+01 -2.563489E+01
       265  25  8.425886E+02  5.047613E+01 -1.488938E+00 -2.048142E+02 -2.042052E+01 -2.582586E+01
       265  26  8.734878E+02  4.197952E+01 -1.118249E+00 -2.104596E+02 -1.801483E+01 -2.692797E+01
       265  27  9.048779E+02  3.360521E+01 -8.288207E-01 -2.157392E+02 -1.556398E+01 -2.803012E+01
       266   1  9.279179E+02  4.705826E+01 -3.106767E-01 -2.021346E+02  1.272043E+01  2.385140E+01
       266   2  9.556420E+02  4.031756E+01  1.754371E-01 -2.032271E+02  1.052343E+01  2.440767E+01
       266   3  9.829053E+02  3.333517E+01  3.168548E-01 -2.040981E+02  8.334990E+00  2.496394E+01
       266   4  9.259515E+02  3.890723E+01 -1.987216E-01 -2.092421E+02  1.342541E+01  2.611369E+01
       266   5  9.556719E+02  3.220986E+01  3.556485E-01 -2.096649E+02  1.110641E+01  2.666139E+01
       266   6  9.849324E+02  2.527200E+01  5.680978E-01 -2.098663E+02  8.795971E+00  2.720909E+01
       266   7  9.232431E+02  2.889406E+01 -6.983265E-01 -2.171044E+02  1.413038E+01  2.849797E+01
       266   8  9.549426E+02  2.222308E+01 -1.152361E-01 -2.168576E+02  1.168938E+01  2.903711E+01
       266   9  9.861836E+02  1.531280E+01  1.287090E-01 -2.163893E+02  9.256952E+00  2.957624E+01
       266  10  9.279179E+02  4.705826E+01 -3.106767E-01 -2.021346E+02 -3.502807E-14 -1.598156E-13
       266  11  9.556420E+02  4.031756E+01  1.754371E-01 -2.032271E+02  3.502807E-13 -9.085406E-14
       266  12  9.829053E+02  3.333517E+01  3.168548E-01 -2.040981E+02  8.494307E-13 -2.108526E-13
       266  13  9.259515E+02  3.890723E+01 -1.987216E-01 -2.092421E+02  5.254211E-14 -5.560706E-13
       266  14  9.556719E+02  3.220986E+01  3.556485E-01 -2.096649E+02  1.401123E-13 -2.495750E-13
       266  15  9.849324E+02  2.527200E+01  5.680978E-01 -2.098663E+02  3.502807E-14 -3.480914E-13
       266  16  9.232431E+02  2.889406E+01 -6.983265E-01 -2.171044E+02 -3.502807E-14 -2.659944E-13
       266  17  9.549426E+02  2.222308E+01 -1.152361E-01 -2.168576E+02 -2.802246E-13 -5.965718E-14
       266  18  9.861836E+02  1.531280E+01  1.287090E-01 -2.163893E+02 -5.867202E-13  5.281576E-14
       266  19  9.279179E+02  4.705826E+01 -3.106767E-01 -2.021346E+02 -1.272043E+01 -2.385140E+01
       266  20  9.556420E+02  4.031756E+01  1.754371E-01 -2.032271E+02 -1.052343E+01 -2.440767E+01
       266  21  9.829053E+02  3.333517E+01  3.168548E-01 -2.040981E+02 -8.334990E+00 -2.496394E+01
       266  22  9.259515E+02  3.890723E+01 -1.987216E-01 -2.092421E+02 -1.342541E+01 -2.611369E+01
       266  23  9.556719E+02  3.220986E+01  3.556485E-01 -2.096649E+02 -1.110641E+01 -2.666139E+01
       266  24  9.849324E+02  2.527200E+01  5.680978E-01 -2.098663E+02 -8.795971E+00 -2.720909E+01
       266  25  9.232431E+02  2.889406E+01 -6.983265E-01 -2.171044E+02 -1.413038E+01 -2.849797E+01
       266  26  9.549426E+02  2.222308E+01 -1.152361E-01 -2.168576E+02 -1.168938E+01 -2.903711E+01
       266  27  9.861836E+02  1.531280E+01  1.287090E-01 -2.163893E+02 -9.256952E+00 -2.957624E+01
       267   1  9.220832E+02  2.249735E+01 -9.575157E-01 -2.215794E+02  1.450919E+01  2.995868E+01
       267   2  9.553481E+02  1.603288E+01 -1.919770E-01 -2.208263E+02  1.196324E+01  3.047687E+01
       267   3  9.874301E+02  9.020284E+00 -7.052113E-02 -2.198746E+02  9.480737E+00  3.099505E+01
       267   4  9.221931E+02  1.081395E+01 -8.690024E-01 -2.287837E+02  1.507049E+01  3.260870E+01
       267   5  9.577006E+02  4.535442E+00 -5.211088E-03 -2.269895E+02  1.237994E+01  3.306344E+01
       267   6  9.920340E+02 -2.282384E+00  2.350495E-01 -2.249968E+02  9.752841E+00  3.351818E+01
       267   7  9.212957E+02 -3.323895E+00 -1.683925E+00 -2.368173E+02  1.563180E+01  3.540327E+01
       267   8  9.590260E+02 -9.436471E+00 -7.686860E-01 -2.339820E+02  1.279666E+01  3.579457E+01
       267   9  9.955908E+02 -1.607956E+01 -4.564261E-01 -2.309482E+02  1.002495E+01  3.618587E+01
       267  10  9.220832E+02  2.249735E+01 -9.575157E-01 -2.215794E+02 -7.005614E-14  1.860866E-14
       267  11  9.553481E+02  1.603288E+01 -1.919770E-01 -2.208263E+02  8.757018E-14 -1.083681E-13
       267  12  9.874301E+02  9.020284E+00 -7.052113E-02 -2.198746E+02  4.422294E-13 -5.541550E-14
       267  13  9.221931E+02  1.081395E+01 -8.690024E-01 -2.287837E+02  1.751404E-14 -3.502807E-13
       267  14  9.577006E+02  4.535442E+00 -5.211088E-03 -2.269895E+02  1.751404E-13 -2.473857E-13
       267  15  9.920340E+02 -2.282384E+00  2.350495E-01 -2.249968E+02 -3.502807E-14 -2.906235E-13
       267  16  9.212957E+02 -3.323895E+00 -1.683925E+00 -2.368173E+02  3.853088E-13 -3.283882E-14
       267  17  9.590260E+02 -9.436471E+00 -7.686860E-01 -2.339820E+02  1.751404E-13 -7.115077E-14
       267  18  9.955908E+02 -1.607956E+01 -4.564261E-01 -2.309482E+02 -6.129912E-13  2.482067E-13
       267  19  9.220832E+02  2.249735E+01 -9.575157E-01 -2.215794E+02 -1.450919E+01 -2.995868E+01
       267  20  9.553481E+02  1.603288E+01 -1.919770E-01 -2.208263E+02 -1.196324E+01 -3.047687E+01
       267  21  9.874301E+02  9.020284E+00 -7.052113E-02 -2.198746E+02 -9.480737E+00 -3.099505E+01
       267  22  9.221931E+02  1.081395E+01 -8.690024E-01 -2.287837E+02 -1.507049E+01 -3.260870E+01
       267  23  9.577006E+02  4.535442E+00 -5.211088E-03 -2.269895E+02 -1.237994E+01 -3.306344E+01
       267  24  9.920340E+02 -2.282384E+00  2.350495E-01 -2.249968E+02 -9.752841E+00 -3.351818E+01
       267  25  9.212957E+02 -3.323895E+00 -1.683925E+00 -2.368173E+02 -1.563180E+01 -3.540327E+01
       267  26  9.590260E+02 -9.436471E+00 -7.686860E-01 -2.339820E+02 -1.279666E+01 -3.579457E+01
       267  27  9.955908E+02 -1.607956E+01 -4.564261E-01 -2.309482E+02 -1.002495E+01 -3.618587E+01
       268   1  8.379035E+02  4.448994E+01 -1.783991E+00 -2.101061E+02  2.106270E+01  2.725145E+01
       268   2  8.703796E+02  3.590644E+01 -1.311348E+00 -2.154899E+02  1.853569E+01  2.836897E+01
       268   3  9.029004E+02  2.725275E+01 -1.115279E+00 -2.204598E+02  1.600099E+01  2.948652E+01
       268   4  8.310629E+02  3.329455E+01 -1.994713E+00 -2.190626E+02  2.213745E+01  2.987748E+01
       268   5  8.663006E+02  2.450209E+01 -1.389388E+00 -2.237907E+02  1.940468E+01  3.100272E+01
       268   6  9.015820E+02  1.563833E+01 -1.063146E+00 -2.281048E+02  1.666424E+01  3.212800E+01
       268   7  8.233017E+02  1.975250E+01 -2.926950E+00 -2.290897E+02  2.321223E+01  3.270921E+01
       268   8  8.612726E+02  1.072253E+01 -2.255572E+00 -2.331620E+02  2.027371E+01  3.384218E+01
       268   9  8.992861E+02  1.620142E+00 -1.865785E+00 -2.368204E+02  1.732751E+01  3.497519E+01
       268  10  8.379035E+02  4.448994E+01 -1.783991E+00 -2.101061E+02  1.751404E-13  2.627105E-13
       268  11  8.703796E+02  3.590644E+01 -1.311348E+00 -2.154899E+02  1.926544E-13  7.169808E-14
       268  12  9.029004E+02  2.725275E+01 -1.115279E+00 -2.204598E+02 -2.364395E-13 -1.734984E-13
       268  13  8.310629E+02  3.329455E+01 -1.994713E+00 -2.190626E+02  1.050842E-13  7.224539E-14
       268  14  8.663006E+02  2.450209E+01 -1.389388E+00 -2.237907E+02  2.101684E-13  1.028950E-13
       268  15  9.015820E+02  1.563833E+01 -1.063146E+00 -2.281048E+02  9.444716E-14 -7.087711E-14
       268  16  8.233017E+02  1.975250E+01 -2.926950E+00 -2.290897E+02  1.751404E-13 -1.937490E-13
       268  17  8.612726E+02  1.072253E+01 -2.255572E+00 -2.331620E+02  2.802246E-13  3.831195E-14
       268  18  8.992861E+02  1.620142E+00 -1.865785E+00 -2.368204E+02  5.122855E-13  4.386718E-13
       268  19  8.379035E+02  4.448994E+01 -1.783991E+00 -2.101061E+02 -2.106270E+01 -2.725145E+01
       268  20  8.703796E+02  3.590644E+01 -1.311348E+00 -2.154899E+02 -1.853569E+01 -2.836897E+01
       268  21  9.029004E+02  2.725275E+01 -1.115279E+00 -2.204598E+02 -1.600099E+01 -2.948652E+01
       268  22  8.310629E+02  3.329455E+01 -1.994713E+00 -2.190626E+02 -2.213745E+01 -2.987748E+01
       268  23  8.663006E+02  2.450209E+01 -1.389388E+00 -2.237907E+02 -1.940468E+01 -3.100272E+01
       268  24  9.015820E+02  1.563833E+01 -1.063146E+00 -2.281048E+02 -1.666424E+01 -3.212800E+01
       268  25  8.233017E+02  1.975250E+01 -2.926950E+00 -2.290897E+02 -2.321223E+01 -3.270921E+01
       268  26  8.612726E+02  1.072253E+01 -2.255572E+00 -2.331620E+02 -2.027371E+01 -3.384218E+01
       268  27  8.992861E+02  1.620142E+00 -1.865785E+00 -2.368204E+02 -1.732751E+01 -3.497519E+01
       269   1  8.967690E+02  1.299221E+02  7.808260E-01 -6.962378E+01  1.512140E+01  3.195456E+00
       269   2  9.030285E+02  1.254846E+02  4.956061E-01 -8.039080E+01  1.439194E+01  3.714873E+00
       269   3  9.108164E+02  1.216611E+02  7.280702E-01 -9.100594E+01  1.355167E+01  4.234273E+00
       269   4  8.846074E+02  1.284754E+02  4.251333E-01 -7.317781E+01  1.583999E+01  3.887860E+00
       269   5  8.917261E+02  1.239137E+02  1.804203E-01 -8.447615E+01  1.507383E+01  4.518081E+00
       269   6  9.003578E+02  1.199507E+02  4.174863E-01 -9.562260E+01  1.419685E+01  5.148281E+00
       269   7  8.726567E+02  1.273878E+02  4.134604E-01 -7.707197E+01  1.655858E+01  4.616969E+00
       269   8  8.806295E+02  1.226969E+02  1.973577E-01 -8.890162E+01  1.575571E+01  5.357994E+00
       269   9  8.901000E+02  1.185893E+02  4.271290E-01 -1.005794E+02  1.484203E+01  6.098993E+00
       269  10  8.967690E+02  1.299221E+02  7.808260E-01 -6.962378E+01  0.000000E+00 -5.363673E-14
       269  11  9.030285E+02  1.254846E+02  4.956061E-01 -8.039080E+01  7.005614E-14  7.060345E-14
       269  12  9.108164E+02  1.216611E+02  7.280702E-01 -9.100594E+01 -4.378509E-14 -2.644893E-13
       269  13  8.846074E+02  1.284754E+02  4.251333E-01 -7.317781E+01  1.576263E-13  2.462911E-13
       269  14  8.917261E+02  1.239137E+02  1.804203E-01 -8.447615E+01  2.802246E-13  1.423015E-13
       269  15  9.003578E+02  1.199507E+02  4.174863E-01 -9.562260E+01  2.680566E-13 -2.736568E-16
       269  16  8.726567E+02  1.273878E+02  4.134604E-01 -7.707197E+01 -1.401123E-13  1.806135E-14
       269  17  8.806295E+02  1.226969E+02  1.973577E-01 -8.890162E+01  5.604491E-13  3.448076E-14
       269  18  8.901000E+02  1.185893E+02  4.271290E-01 -1.005794E+02  4.728789E-13  1.561212E-13
       269  19  8.967690E+02  1.299221E+02  7.808260E-01 -6.962378E+01 -1.512140E+01 -3.195456E+00
       269  20  9.030285E+02  1.254846E+02  4.956061E-01 -8.039080E+01 -1.439194E+01 -3.714873E+00
       269  21  9.108164E+02  1.216611E+02  7.280702E-01 -9.100594E+01 -1.355167E+01 -4.234273E+00
       269  22  8.846074E+02  1.284754E+02  4.251333E-01 -7.317781E+01 -1.583999E+01 -3.887860E+00
       269  23  8.917261E+02  1.239137E+02  1.804203E-01 -8.447615E+01 -1.507383E+01 -4.518081E+00
       269  24  9.003578E+02  1.199507E+02  4.174863E-01 -9.562260E+01 -1.419685E+01 -5.148281E+00
       269  25  8.726567E+02  1.273878E+02  4.134604E-01 -7.707197E+01 -1.655858E+01 -4.616969E+00
       269  26  8.806295E+02  1.226969E+02  1.973577E-01 -8.890162E+01 -1.575571E+01 -5.357994E+00
       269  27  8.901000E+02  1.185893E+02  4.271290E-01 -1.005794E+02 -1.484203E+01 -6.098993E+00
       270   1  9.155732E+02  1.187851E+02  6.797388E-01 -9.665586E+01  1.301523E+01  4.497199E+00
       270   2  9.241602E+02  1.132413E+02  4.581745E-01 -1.051140E+02  1.202559E+01  4.928302E+00
       270   3  9.339129E+02  1.081628E+02  6.221261E-01 -1.133950E+02  1.094613E+01  5.359405E+00
       270   4  9.056996E+02  1.170573E+02  4.073536E-01 -1.014990E+02  1.363624E+01  5.465107E+00
       270   5  9.153670E+02  1.113904E+02  2.291488E-01 -1.103348E+02  1.260024E+01  5.986035E+00
       270   6  9.261876E+02  1.061764E+02  4.073499E-01 -1.189936E+02  1.147441E+01  6.506964E+00
       270   7  8.959535E+02  1.155122E+02  3.775428E-01 -1.067670E+02  1.425725E+01  6.479377E+00
       270   8  9.066949E+02  1.097158E+02  2.276729E-01 -1.159805E+02  1.317489E+01  7.090131E+00
       270   9  9.185770E+02  1.043597E+02  4.050989E-01 -1.250169E+02  1.200270E+01  7.700884E+00
       270  10  9.155732E+02  1.187851E+02  6.797388E-01 -9.665586E+01 -2.802246E-13 -2.441019E-13
       270  11  9.241602E+02  1.132413E+02  4.581745E-01 -1.051140E+02  3.502807E-14 -2.134523E-14
       270  12  9.339129E+02  1.081628E+02  6.221261E-01 -1.133950E+02 -7.881316E-14  1.763718E-13
       270  13  9.056996E+02  1.170573E+02  4.073536E-01 -1.014990E+02 -1.751404E-14 -2.101684E-13
       270  14  9.153670E+02  1.113904E+02  2.291488E-01 -1.103348E+02 -1.751404E-13 -6.896151E-14
       270  15  9.261876E+02  1.061764E+02  4.073499E-01 -1.189936E+02 -5.254211E-14  2.747514E-13
       270  16  8.959535E+02  1.155122E+02  3.775428E-01 -1.067670E+02  2.101684E-13 -2.265878E-13
       270  17  9.066949E+02  1.097158E+02  2.276729E-01 -1.159805E+02  3.152526E-13 -2.134523E-14
       270  18  9.185770E+02  1.043597E+02  4.050989E-01 -1.250169E+02  1.401123E-13  5.103699E-14
       270  19  9.155732E+02  1.187851E+02  6.797388E-01 -9.665586E+01 -1.301523E+01 -4.497199E+00
       270  20  9.241602E+02  1.132413E+02  4.581745E-01 -1.051140E+02 -1.202559E+01 -4.928302E+00
       270  21  9.339129E+02  1.081628E+02  6.221261E-01 -1.133950E+02 -1.094613E+01 -5.359405E+00
       270  22  9.056996E+02  1.170573E+02  4.073536E-01 -1.014990E+02 -1.363624E+01 -5.465107E+00
       270  23  9.153670E+02  1.113904E+02  2.291488E-01 -1.103348E+02 -1.260024E+01 -5.986035E+00
       270  24  9.261876E+02  1.061764E+02  4.073499E-01 -1.189936E+02 -1.147441E+01 -6.506964E+00
       270  25  8.959535E+02  1.155122E+02  3.775428E-01 -1.067670E+02 -1.425725E+01 -6.479377E+00
       270  26  9.066949E+02  1.097158E+02  2.276729E-01 -1.159805E+02 -1.317489E+01 -7.090131E+00
       270  27  9.185770E+02  1.043597E+02  4.050989E-01 -1.250169E+02 -1.200270E+01 -7.700884E+00
       271   1  8.899640E+02  1.145684E+02  3.227154E-01 -1.098329E+02  1.468296E+01  7.089466E+00
       271   2  9.012268E+02  1.086098E+02  1.271969E-01 -1.192856E+02  1.357222E+01  7.754875E+00
       271   3  9.138551E+02  1.031836E+02  3.408009E-01 -1.285123E+02  1.236348E+01  8.420283E+00
       271   4  8.790133E+02  1.126588E+02  9.980243E-02 -1.151126E+02  1.551692E+01  8.183401E+00
       271   5  8.915480E+02  1.065090E+02 -4.668715E-02 -1.249153E+02  1.434180E+01  8.946804E+00
       271   6  9.054343E+02  1.008780E+02  1.841778E-01 -1.344921E+02  1.306869E+01  9.710208E+00
       271   7  8.680793E+02  1.106325E+02  4.770265E-02 -1.208980E+02  1.635084E+01  9.341725E+00
       271   8  8.818767E+02  1.042826E+02 -7.065043E-02 -1.310507E+02  1.511136E+01  1.020312E+01
       271   9  8.970122E+02  9.843785E+01  1.565830E-01 -1.409774E+02  1.377388E+01  1.106452E+01
       271  10  8.899640E+02  1.145684E+02  3.227154E-01 -1.098329E+02 -2.101684E-13 -2.971913E-13
       271  11  9.012268E+02  1.086098E+02  1.271969E-01 -1.192856E+02  1.050842E-13 -3.338613E-14
       271  12  9.138551E+02  1.031836E+02  3.408009E-01 -1.285123E+02  2.276825E-13  1.919702E-13
       271  13  8.790133E+02  1.126588E+02  9.980243E-02 -1.151126E+02 -1.576263E-13 -3.502807E-13
       271  14  8.915480E+02  1.065090E+02 -4.668715E-02 -1.249153E+02  1.050842E-13 -7.224539E-14
       271  15  9.054343E+02  1.008780E+02  1.841778E-01 -1.344921E+02 -1.751404E-14  3.160736E-13
       271  16  8.680793E+02  1.106325E+02  4.770265E-02 -1.208980E+02  2.101684E-13 -3.497334E-13
       271  17  8.818767E+02  1.042826E+02 -7.065043E-02 -1.310507E+02  3.502807E-14 -1.641941E-14
       271  18  8.970122E+02  9.843785E+01  1.565830E-01 -1.409774E+02 -6.129912E-14  2.619580E-13
       271  19  8.899640E+02  1.145684E+02  3.227154E-01 -1.098329E+02 -1.468296E+01 -7.089466E+00
       271  20  9.012268E+02  1.086098E+02  1.271969E-01 -1.192856E+02 -1.357222E+01 -7.754875E+00
       271  21  9.138551E+02  1.031836E+02  3.408009E-01 -1.285123E+02 -1.236348E+01 -8.420283E+00
       271  22  8.790133E+02  1.126588E+02  9.980243E-02 -1.151126E+02 -1.551692E+01 -8.183401E+00
       271  23  8.915480E+02  1.065090E+02 -4.668715E-02 -1.249153E+02 -1.434180E+01 -8.946804E+00
       271  24  9.054343E+02  1.008780E+02  1.841778E-01 -1.344921E+02 -1.306869E+01 -9.710208E+00
       271  25  8.680793E+02  1.106325E+02  4.770265E-02 -1.208980E+02 -1.635084E+01 -9.341725E+00
       271  26  8.818767E+02  1.042826E+02 -7.065043E-02 -1.310507E+02 -1.511136E+01 -1.020312E+01
       271  27  8.970122E+02  9.843785E+01  1.565830E-01 -1.409774E+02 -1.377388E+01 -1.106452E+01
       272   1  8.652904E+02  1.267327E+02  3.592052E-01 -7.934872E+01  1.705518E+01  5.055041E+00
       272   2  8.735757E+02  1.218471E+02  6.475805E-02 -9.151879E+01  1.623284E+01  5.864398E+00
       272   3  8.837338E+02  1.177002E+02  3.588508E-01 -1.034899E+02  1.528647E+01  6.673728E+00
       272   4  8.516056E+02  1.252848E+02  4.245996E-02 -8.329737E+01  1.802896E+01  5.841797E+00
       272   5  8.609218E+02  1.202062E+02 -2.049690E-01 -9.602204E+01  1.715376E+01  6.775175E+00
       272   6  8.720935E+02  1.158489E+02  9.594108E-02 -1.085477E+02  1.615453E+01  7.708522E+00
       272   7  8.380379E+02  1.239288E+02  2.295648E-02 -8.765942E+01  1.900270E+01  6.681425E+00
       272   8  8.483777E+02  1.186498E+02 -1.946089E-01 -1.009387E+02  1.807465E+01  7.738823E+00
       272   9  8.605556E+02  1.140749E+02  9.596400E-02 -1.140190E+02  1.702257E+01  8.796186E+00
       272  10  8.652904E+02  1.267327E+02  3.592052E-01 -7.934872E+01  1.401123E-13 -1.581736E-13
       272  11  8.735757E+02  1.218471E+02  6.475805E-02 -9.151879E+01 -3.853088E-13  5.090016E-14
       272  12  8.837338E+02  1.177002E+02  3.588508E-01 -1.034899E+02  1.751404E-14 -5.131065E-14
       272  13  8.516056E+02  1.252848E+02  4.245996E-02 -8.329737E+01  7.005614E-14  2.802246E-13
       272  14  8.609218E+02  1.202062E+02 -2.049690E-01 -9.602204E+01 -3.502807E-14  1.039896E-13
       272  15  8.720935E+02  1.158489E+02  9.594108E-02 -1.085477E+02 -1.331145E-13 -1.401123E-13
       272  16  8.380379E+02  1.239288E+02  2.295648E-02 -8.765942E+01 -4.903930E-13  6.825001E-13
       272  17  8.483777E+02  1.186498E+02 -1.946089E-01 -1.009387E+02 -2.101684E-13  5.527867E-14
       272  18  8.605556E+02  1.140749E+02  9.596400E-02 -1.140190E+02 -1.751404E-14 -3.153895E-13
       272  19  8.652904E+02  1.267327E+02  3.592052E-01 -7.934872E+01 -1.705518E+01 -5.055041E+00
       272  20  8.735757E+02  1.218471E+02  6.475805E-02 -9.151879E+01 -1.623284E+01 -5.864398E+00
       272  21  8.837338E+02  1.177002E+02  3.588508E-01 -1.034899E+02 -1.528647E+01 -6.673728E+00
       272  22  8.516056E+02  1.252848E+02  4.245996E-02 -8.329737E+01 -1.802896E+01 -5.841797E+00
       272  23  8.609218E+02  1.202062E+02 -2.049690E-01 -9.602204E+01 -1.715376E+01 -6.775175E+00
       272  24  8.720935E+02  1.158489E+02  9.594108E-02 -1.085477E+02 -1.615453E+01 -7.708522E+00
       272  25  8.380379E+02  1.239288E+02  2.295648E-02 -8.765942E+01 -1.900270E+01 -6.681425E+00
       272  26  8.483777E+02  1.186498E+02 -1.946089E-01 -1.009387E+02 -1.807465E+01 -7.738823E+00
       272  27  8.605556E+02  1.140749E+02  9.596400E-02 -1.140190E+02 -1.702257E+01 -8.796186E+00
       273   1  9.845401E+02  1.701303E+02  7.684460E+00 -3.226183E+01  1.014346E+01 -2.769214E+00
       273   2  9.853324E+02  1.649100E+02  7.072537E+00 -3.718425E+01  9.631571E+00 -3.182958E+00
       273   3  9.867358E+02  1.599847E+02  6.832014E+00 -4.217188E+01  9.041853E+00 -3.596688E+00
       273   4  9.781422E+02  1.620071E+02  5.844108E+00 -3.630943E+01  1.075843E+01 -2.281719E+00
       273   5  9.793507E+02  1.571105E+02  5.327416E+00 -4.186858E+01  1.021751E+01 -2.617640E+00
       273   6  9.811594E+02  1.524981E+02  5.156893E+00 -4.749293E+01  9.598745E+00 -2.953549E+00
       273   7  9.725478E+02  1.556445E+02  4.921050E+00 -4.046868E+01  1.137339E+01 -1.765171E+00
       273   8  9.741684E+02  1.510676E+02  4.490155E+00 -4.666455E+01  1.080342E+01 -2.023269E+00
       273   9  9.763784E+02  1.467639E+02  4.380200E+00 -5.292560E+01  1.015562E+01 -2.281358E+00
       273  10  9.845401E+02  1.701303E+02  7.684460E+00 -3.226183E+01  7.005614E-13 -3.502807E-14
       273  11  9.853324E+02  1.649100E+02  7.072537E+00 -3.718425E+01  2.802246E-13  3.338613E-14
       273  12  9.867358E+02  1.599847E+02  6.832014E+00 -4.217188E+01  2.364395E-13 -5.302100E-14
       273  13  9.781422E+02  1.620071E+02  5.844108E+00 -3.630943E+01  0.000000E+00  1.094627E-15
       273  14  9.793507E+02  1.571105E+02  5.327416E+00 -4.186858E+01  2.101684E-13  7.224539E-14
       273  15  9.811594E+02  1.524981E+02  5.156893E+00 -4.749293E+01  3.154439E-13  4.189686E-13
       273  16  9.725478E+02  1.556445E+02  4.921050E+00 -4.046868E+01 -2.101684E-13 -3.152526E-13
       273  17  9.741684E+02  1.510676E+02  4.490155E+00 -4.666455E+01 -2.101684E-13  3.530173E-14
       273  18  9.763784E+02  1.467639E+02  4.380200E+00 -5.292560E+01 -1.576263E-13  1.574211E-13
       273  19  9.845401E+02  1.701303E+02  7.684460E+00 -3.226183E+01 -1.014346E+01  2.769214E+00
       273  20  9.853324E+02  1.649100E+02  7.072537E+00 -3.718425E+01 -9.631571E+00  3.182958E+00
       273  21  9.867358E+02  1.599847E+02  6.832014E+00 -4.217188E+01 -9.041853E+00  3.596688E+00
       273  22  9.781422E+02  1.620071E+02  5.844108E+00 -3.630943E+01 -1.075843E+01  2.281719E+00
       273  23  9.793507E+02  1.571105E+02  5.327416E+00 -4.186858E+01 -1.021751E+01  2.617640E+00
       273  24  9.811594E+02  1.524981E+02  5.156893E+00 -4.749293E+01 -9.598745E+00  2.953549E+00
       273  25  9.725478E+02  1.556445E+02  4.921050E+00 -4.046868E+01 -1.137339E+01  1.765171E+00
       273  26  9.741684E+02  1.510676E+02  4.490155E+00 -4.666455E+01 -1.080342E+01  2.023269E+00
       273  27  9.763784E+02  1.467639E+02  4.380200E+00 -5.292560E+01 -1.015562E+01  2.281358E+00
       274   1  9.874262E+02  1.563752E+02  6.477433E+00 -4.480180E+01  8.666240E+00 -3.827833E+00
       274   2  9.886442E+02  1.496100E+02  5.772873E+00 -4.860602E+01  7.976225E+00 -4.144347E+00
       274   3  9.903610E+02  1.430836E+02  5.365813E+00 -5.249257E+01  7.225507E+00 -4.460862E+00
       274   4  9.822208E+02  1.493192E+02  4.949968E+00 -5.044055E+01  9.203399E+00 -3.148783E+00
       274   5  9.839861E+02  1.429675E+02  4.362866E+00 -5.474974E+01  8.474615E+00 -3.404594E+00
       274   6  9.862417E+02  1.368462E+02  4.053588E+00 -5.914126E+01  7.685128E+00 -3.660406E+00
       274   7  9.776525E+02  1.436503E+02  4.159153E+00 -5.622843E+01  9.740540E+00 -2.430952E+00
       274   8  9.799598E+02  1.377067E+02  3.676932E+00 -6.104256E+01  8.972988E+00 -2.626060E+00
       274   9  9.827489E+02  1.319851E+02  3.452862E+00 -6.593903E+01  8.144734E+00 -2.821168E+00
       274  10  9.874262E+02  1.563752E+02  6.477433E+00 -4.480180E+01 -7.005614E-14 -4.373036E-13
       274  11  9.886442E+02  1.496100E+02  5.772873E+00 -4.860602E+01 -1.751404E-13  0.000000E+00
       274  12  9.903610E+02  1.430836E+02  5.365813E+00 -5.249257E+01 -1.751404E-14  2.279561E-13
       274  13  9.822208E+02  1.493192E+02  4.949968E+00 -5.044055E+01 -1.751404E-14 -6.786689E-14
       274  14  9.839861E+02  1.429675E+02  4.362866E+00 -5.474974E+01 -4.203368E-13 -6.677226E-14
       274  15  9.862417E+02  1.368462E+02  4.053588E+00 -5.914126E+01 -1.751404E-14  2.736568E-16
       274  16  9.776525E+02  1.436503E+02  4.159153E+00 -5.622843E+01 -2.802246E-13  6.950883E-14
       274  17  9.799598E+02  1.377067E+02  3.676932E+00 -6.104256E+01  3.502807E-14 -3.283882E-15
       274  18  9.827489E+02  1.319851E+02  3.452862E+00 -6.593903E+01  2.364395E-13  3.639635E-14
       274  19  9.874262E+02  1.563752E+02  6.477433E+00 -4.480180E+01 -8.666240E+00  3.827833E+00
       274  20  9.886442E+02  1.496100E+02  5.772873E+00 -4.860602E+01 -7.976225E+00  4.144347E+00
       274  21  9.903610E+02  1.430836E+02  5.365813E+00 -5.249257E+01 -7.225507E+00  4.460862E+00
       274  22  9.822208E+02  1.493192E+02  4.949968E+00 -5.044055E+01 -9.203399E+00  3.148783E+00
       274  23  9.839861E+02  1.429675E+02  4.362866E+00 -5.474974E+01 -8.474615E+00  3.404594E+00
       274  24  9.862417E+02  1.368462E+02  4.053588E+00 -5.914126E+01 -7.685128E+00  3.660406E+00
       274  25  9.776525E+02  1.436503E+02  4.159153E+00 -5.622843E+01 -9.740540E+00  2.430952E+00
       274  26  9.799598E+02  1.377067E+02  3.676932E+00 -6.104256E+01 -8.972988E+00  2.626060E+00
       274  27  9.827489E+02  1.319851E+02  3.452862E+00 -6.593903E+01 -8.144734E+00  2.821168E+00
       275   1  9.743614E+02  1.406534E+02  3.656056E+00 -5.926378E+01  9.978490E+00 -1.998615E+00
       275   2  9.769615E+02  1.348580E+02  3.197542E+00 -6.439676E+01  9.197878E+00 -2.156142E+00
       275   3  9.801880E+02  1.293435E+02  3.049183E+00 -6.951777E+01  8.348820E+00 -2.313669E+00
       275   4  9.678831E+02  1.359439E+02  2.744063E+00 -6.414855E+01  1.032873E+01 -1.240086E+00
       275   5  9.711673E+02  1.303444E+02  2.358771E+00 -6.973004E+01  9.523843E+00 -1.329167E+00
       275   6  9.750685E+02  1.250165E+02  2.261452E+00 -7.529954E+01  8.650505E+00 -1.418248E+00
       275   7  9.618671E+02  1.322481E+02  2.359220E+00 -6.926540E+01  1.067898E+01 -4.572773E-01
       275   8  9.658321E+02  1.268414E+02  2.039281E+00 -7.529539E+01  9.849807E+00 -4.779127E-01
       275   9  9.704046E+02  1.216966E+02  1.985134E+00 -8.131339E+01  8.952190E+00 -4.985482E-01
       275  10  9.743614E+02  1.406534E+02  3.656056E+00 -5.926378E+01  2.101684E-13 -1.390177E-13
       275  11  9.769615E+02  1.348580E+02  3.197542E+00 -6.439676E+01 -1.050842E-13  8.811749E-14
       275  12  9.801880E+02  1.293435E+02  3.049183E+00 -6.951777E+01 -7.618605E-13  2.970545E-13
       275  13  9.678831E+02  1.359439E+02  2.744063E+00 -6.414855E+01 -1.576263E-13  2.123577E-13
       275  14  9.711673E+02  1.303444E+02  2.358771E+00 -6.973004E+01 -2.101684E-13  3.535646E-13
       275  15  9.750685E+02  1.250165E+02  2.261452E+00 -7.529954E+01 -1.050842E-13  2.769407E-13
       275  16  9.618671E+02  1.322481E+02  2.359220E+00 -6.926540E+01 -2.101684E-13  2.824138E-13
       275  17  9.658321E+02  1.268414E+02  2.039281E+00 -7.529539E+01 -1.401123E-13  8.757018E-14
       275  18  9.704046E+02  1.216966E+02  1.985134E+00 -8.131339E+01  5.341781E-13  7.128760E-14
       275  19  9.743614E+02  1.406534E+02  3.656056E+00 -5.926378E+01 -9.978490E+00  1.998615E+00
       275  20  9.769615E+02  1.348580E+02  3.197542E+00 -6.439676E+01 -9.197878E+00  2.156142E+00
       275  21  9.801880E+02  1.293435E+02  3.049183E+00 -6.951777E+01 -8.348820E+00  2.313669E+00
       275  22  9.678831E+02  1.359439E+02  2.744063E+00 -6.414855E+01 -1.032873E+01  1.240086E+00
       275  23  9.711673E+02  1.303444E+02  2.358771E+00 -6.973004E+01 -9.523843E+00  1.329167E+00
       275  24  9.750685E+02  1.250165E+02  2.261452E+00 -7.529954E+01 -8.650505E+00  1.418248E+00
       275  25  9.618671E+02  1.322481E+02  2.359220E+00 -6.926540E+01 -1.067898E+01  4.572773E-01
       275  26  9.658321E+02  1.268414E+02  2.039281E+00 -7.529539E+01 -9.849807E+00  4.779127E-01
       275  27  9.704046E+02  1.216966E+02  1.985134E+00 -8.131339E+01 -8.952190E+00  4.985482E-01
       276   1  9.685164E+02  1.522989E+02  4.322698E+00 -4.264604E+01  1.164499E+01 -1.454447E+00
       276   2  9.703259E+02  1.478230E+02  3.898258E+00 -4.921807E+01  1.106680E+01 -1.664800E+00
       276   3  9.728992E+02  1.436914E+02  3.856868E+00 -5.578055E+01  1.040234E+01 -1.875147E+00
       276   4  9.605916E+02  1.470571E+02  3.224007E+00 -4.614513E+01  1.204272E+01 -9.105580E-01
       276   5  9.629257E+02  1.427329E+02  2.861132E+00 -5.327582E+01  1.144688E+01 -1.034662E+00
       276   6  9.660116E+02  1.387410E+02  2.853354E+00 -6.039695E+01  1.076479E+01 -1.158762E+00
       276   7  9.532454E+02  1.430914E+02  2.777463E+00 -4.982136E+01  1.244044E+01 -3.490279E-01
       276   8  9.561016E+02  1.389165E+02  2.470428E+00 -5.751072E+01  1.182697E+01 -3.868828E-01
       276   9  9.596976E+02  1.350619E+02  2.490536E+00 -6.519050E+01  1.112723E+01 -4.247364E-01
       276  10  9.685164E+02  1.522989E+02  4.322698E+00 -4.264604E+01  7.005614E-14  5.308942E-14
       276  11  9.703259E+02  1.478230E+02  3.898258E+00 -4.921807E+01 -1.751404E-13 -5.418405E-14
       276  12  9.728992E+02  1.436914E+02  3.856868E+00 -5.578055E+01  2.276825E-13  1.225982E-13
       276  13  9.605916E+02  1.470571E+02  3.224007E+00 -4.614513E+01 -1.751404E-13 -3.491861E-13
       276  14  9.629257E+02  1.427329E+02  2.861132E+00 -5.327582E+01  7.005614E-14 -7.115077E-14
       276  15  9.660116E+02  1.387410E+02  2.853354E+00 -6.039695E+01  1.239133E-13  1.394281E-13
       276  16  9.532454E+02  1.430914E+02  2.777463E+00 -4.982136E+01  0.000000E+00 -3.393344E-14
       276  17  9.561016E+02  1.389165E+02  2.470428E+00 -5.751072E+01 -2.451965E-13 -7.087711E-14
       276  18  9.596976E+02  1.350619E+02  2.490536E+00 -6.519050E+01 -3.240096E-13 -1.050842E-13
       276  19  9.685164E+02  1.522989E+02  4.322698E+00 -4.264604E+01 -1.164499E+01  1.454447E+00
       276  20  9.703259E+02  1.478230E+02  3.898258E+00 -4.921807E+01 -1.106680E+01  1.664800E+00
       276  21  9.728992E+02  1.436914E+02  3.856868E+00 -5.578055E+01 -1.040234E+01  1.875147E+00
       276  22  9.605916E+02  1.470571E+02  3.224007E+00 -4.614513E+01 -1.204272E+01  9.105580E-01
       276  23  9.629257E+02  1.427329E+02  2.861132E+00 -5.327582E+01 -1.144688E+01  1.034662E+00
       276  24  9.660116E+02  1.387410E+02  2.853354E+00 -6.039695E+01 -1.076479E+01  1.158762E+00
       276  25  9.532454E+02  1.430914E+02  2.777463E+00 -4.982136E+01 -1.244044E+01  3.490279E-01
       276  26  9.561016E+02  1.389165E+02  2.470428E+00 -5.751072E+01 -1.182697E+01  3.868828E-01
       276  27  9.596976E+02  1.350619E+02  2.490536E+00 -6.519050E+01 -1.112723E+01  4.247364E-01
