
 stresses (elem, integ.pnt.,sxx,syy,szz,sxy,sxz,syz) for set EALL and time  0.1000000E+01

         1   1  1.032242E+03  3.824735E+01 -2.899835E-01  7.105934E+01 -2.686230E+00  1.704221E+00
         1   2  1.024585E+03  4.718548E+01 -4.868150E-01  7.368230E+01 -1.902507E+00  1.893866E+00
         1   3  1.019884E+03  5.764125E+01  3.906664E-01  7.567251E+01 -1.212818E+00  2.116159E+00
         1   4  1.041005E+03  3.846355E+01 -1.875047E-02  8.415069E+01 -2.743791E+00  5.472388E-01
         1   5  1.029964E+03  4.862114E+01 -1.516446E-01  8.636488E+01 -1.779196E+00  8.786269E-01
         1   6  1.020541E+03  5.951237E+01 -5.264703E-02  8.820265E+01 -8.520424E-01  1.225165E+00
         1   7  1.049614E+03  3.780849E+01  4.134893E-02  9.763865E+01 -2.804892E+00 -6.335644E-01
         1   8  1.035515E+03  4.895487E+01  2.059778E-01  9.966339E+01 -1.676180E+00 -2.144322E-01
         1   9  1.022002E+03  6.018394E+01 -1.088676E-01  1.015227E+02 -5.429336E-01  2.026754E-01
         1  10  1.032242E+03  3.824735E+01 -2.899835E-01  7.105934E+01  4.342698E-13  4.718509E-13
         1  11  1.024585E+03  4.718548E+01 -4.868150E-01  7.368230E+01  6.681074E-13 -2.194185E-13
         1  12  1.019884E+03  5.764125E+01  3.906664E-01  7.567251E+01  3.257024E-13 -8.789788E-13
         1  13  1.041005E+03  3.846355E+01 -1.875047E-02  8.415069E+01 -1.837295E-13  2.338376E-13
         1  14  1.029964E+03  4.862114E+01 -1.516446E-01  8.636488E+01 -3.215267E-13 -2.004322E-13
         1  15  1.020541E+03  5.951237E+01 -5.264703E-02  8.820265E+01 -2.672430E-13 -4.655874E-13
         1  16  1.049614E+03  3.780849E+01  4.134893E-02  9.763865E+01  1.002161E-13  2.004322E-13
         1  17  1.035515E+03  4.895487E+01  2.059778E-01  9.966339E+01 -6.012967E-13 -2.087836E-14
         1  18  1.022002E+03  6.018394E+01 -1.088676E-01  1.015227E+02 -5.136076E-13 -1.273580E-13
         1  19  1.032242E+03  3.824735E+01 -2.899835E-01  7.105934E+01  2.686230E+00 -1.704221E+00
         1  20  1.024585E+03  4.718548E+01 -4.868150E-01  7.368230E+01  1.902507E+00 -1.893866E+00
         1  21  1.019884E+03  5.764125E+01  3.906664E-01  7.567251E+01  1.212818E+00 -2.116159E+00
         1  22  1.041005E+03  3.846355E+01 -1.875047E-02  8.415069E+01  2.743791E+00 -5.472388E-01
         1  23  1.029964E+03  4.862114E+01 -1.516446E-01  8.636488E+01  1.779196E+00 -8.786269E-01
         1  24  1.020541E+03  5.951237E+01 -5.264703E-02  8.820265E+01  8.520424E-01 -1.225165E+00
         1  25  1.049614E+03  3.780849E+01  4.134893E-02  9.763865E+01  2.804892E+00  6.335644E-01
         1  26  1.035515E+03  4.895487E+01  2.059778E-01  9.966339E+01  1.676180E+00  2.144322E-01
         1  27  1.022002E+03  6.018394E+01 -1.088676E-01  1.015227E+02  5.429336E-01 -2.026754E-01
         2   1  1.016303E+03  6.329686E+01  3.955637E-01  7.630686E+01 -7.857106E-01  2.256366E+00
         2   2  1.008296E+03  7.246606E+01 -5.767353E-01  7.559438E+01  4.423755E-02  2.559602E+00
         2   3  1.005475E+03  8.399659E+01  3.720467E-01  7.410685E+01  8.069266E-01  2.886179E+00
         2   4  1.016060E+03  6.577905E+01  1.004654E-01  8.877368E+01 -3.765478E-01  1.287383E+00
         2   5  1.007210E+03  7.684373E+01 -2.527624E-01  8.621368E+01  6.001509E-01  1.721134E+00
         2   6  1.001528E+03  8.921120E+01  1.909403E-01  8.315118E+01  1.564906E+00  2.159705E+00
         2   7  1.014546E+03  6.738753E+01 -2.474461E-01  1.003596E+02  3.876283E-02  3.311659E-01
         2   8  1.005219E+03  8.026035E+01  1.873518E-01  9.626933E+01  1.136931E+00  8.536090E-01
         2   9  9.975632E+02  9.361293E+01  5.219384E-01  9.190270E+01  2.262050E+00  1.363924E+00
         2  10  1.016303E+03  6.329686E+01  3.955637E-01  7.630686E+01  6.681074E-13  2.129592E-13
         2  11  1.008296E+03  7.246606E+01 -5.767353E-01  7.559438E+01  7.015128E-13 -1.106553E-13
         2  12  1.005475E+03  8.399659E+01  3.720467E-01  7.410685E+01  4.676752E-13 -2.573257E-13
         2  13  1.016060E+03  6.577905E+01  1.004654E-01  8.877368E+01  1.419728E-13  2.839457E-13
         2  14  1.007210E+03  7.684373E+01 -2.527624E-01  8.621368E+01 -1.419728E-13  1.002161E-13
         2  15  1.001528E+03  8.921120E+01  1.909403E-01  8.315118E+01 -3.674591E-13 -2.025201E-13
         2  16  1.014546E+03  6.738753E+01 -2.474461E-01  1.003596E+02 -5.010806E-13  5.010806E-13
         2  17  1.005219E+03  8.026035E+01  1.873518E-01  9.626933E+01 -8.852423E-13  2.066957E-13
         2  18  9.975632E+02  9.361293E+01  5.219384E-01  9.190270E+01 -7.015128E-13 -9.343065E-14
         2  19  1.016303E+03  6.329686E+01  3.955637E-01  7.630686E+01  7.857106E-01 -2.256366E+00
         2  20  1.008296E+03  7.246606E+01 -5.767353E-01  7.559438E+01 -4.423755E-02 -2.559602E+00
         2  21  1.005475E+03  8.399659E+01  3.720467E-01  7.410685E+01 -8.069266E-01 -2.886179E+00
         2  22  1.016060E+03  6.577905E+01  1.004654E-01  8.877368E+01  3.765478E-01 -1.287383E+00
         2  23  1.007210E+03  7.684373E+01 -2.527624E-01  8.621368E+01 -6.001509E-01 -1.721134E+00
         2  24  1.001528E+03  8.921120E+01  1.909403E-01  8.315118E+01 -1.564906E+00 -2.159705E+00
         2  25  1.014546E+03  6.738753E+01 -2.474461E-01  1.003596E+02 -3.876283E-02 -3.311659E-01
         2  26  1.005219E+03  8.026035E+01  1.873518E-01  9.626933E+01 -1.136931E+00 -8.536090E-01
         2  27  9.975632E+02  9.361293E+01  5.219384E-01  9.190270E+01 -2.262050E+00 -1.363924E+00
         3   1  1.015717E+03  6.994572E+01  9.179122E-01  1.066269E+02  2.596733E-01 -2.564196E-01
         3   2  9.995164E+02  8.080244E+01 -1.029283E+00  1.020921E+02  1.504261E+00  3.081703E-01
         3   3  9.936990E+02  9.607743E+01  5.668439E-01  9.591107E+01  2.657061E+00  9.160331E-01
         3   4  1.010462E+03  7.179961E+01  5.061100E-01  1.177822E+02  7.807363E-01 -1.332112E+00
         3   5  9.937235E+02  8.448606E+01 -5.136130E-01  1.098783E+02  2.088428E+00 -5.721870E-01
         3   6  9.842840E+02  9.999602E+01  2.881621E-01  1.007624E+02  3.354805E+00  2.085627E-01
         3   7  1.003455E+03  7.283707E+01  2.434295E-02  1.277007E+02  1.338552E+00 -2.331463E+00
         3   8  9.866012E+02  8.733399E+01  6.240049E-02  1.169090E+02  2.699370E+00 -1.411915E+00
         3   9  9.745524E+02  1.033339E+02  4.596785E-01  1.052827E+02  4.058906E+00 -4.916890E-01
         3  10  1.015717E+03  6.994572E+01  9.179122E-01  1.066269E+02  2.338376E-13  1.712025E-13
         3  11  9.995164E+02  8.080244E+01 -1.029283E+00  1.020921E+02  3.674591E-13 -2.192227E-13
         3  12  9.936990E+02  9.607743E+01  5.668439E-01  9.591107E+01  3.674591E-13 -4.848998E-13
         3  13  1.010462E+03  7.179961E+01  5.061100E-01  1.177822E+02  3.382294E-13 -8.351343E-15
         3  14  9.937235E+02  8.448606E+01 -5.136130E-01  1.098783E+02 -7.432695E-13 -1.336215E-13
         3  15  9.842840E+02  9.999602E+01  2.881621E-01  1.007624E+02  1.670269E-14 -2.474085E-13
         3  16  1.003455E+03  7.283707E+01  2.434295E-02  1.277007E+02 -3.340537E-14 -1.252701E-14
         3  17  9.866012E+02  8.733399E+01  6.240049E-02  1.169090E+02  2.338376E-13  4.802022E-14
         3  18  9.745524E+02  1.033339E+02  4.596785E-01  1.052827E+02 -3.319659E-13  9.812828E-14
         3  19  1.015717E+03  6.994572E+01  9.179122E-01  1.066269E+02 -2.596733E-01  2.564196E-01
         3  20  9.995164E+02  8.080244E+01 -1.029283E+00  1.020921E+02 -1.504261E+00 -3.081703E-01
         3  21  9.936990E+02  9.607743E+01  5.668439E-01  9.591107E+01 -2.657061E+00 -9.160331E-01
         3  22  1.010462E+03  7.179961E+01  5.061100E-01  1.177822E+02 -7.807363E-01  1.332112E+00
         3  23  9.937235E+02  8.448606E+01 -5.136130E-01  1.098783E+02 -2.088428E+00  5.721870E-01
         3  24  9.842840E+02  9.999602E+01  2.881621E-01  1.007624E+02 -3.354805E+00 -2.085627E-01
         3  25  1.003455E+03  7.283707E+01  2.434295E-02  1.277007E+02 -1.338552E+00  2.331463E+00
         3  26  9.866012E+02  8.733399E+01  6.240049E-02  1.169090E+02 -2.699370E+00  1.411915E+00
         3  27  9.745524E+02  1.033339E+02  4.596785E-01  1.052827E+02 -4.058906E+00  4.916890E-01
         4   1  1.055017E+03  3.747619E+01  2.251340E-01  1.053087E+02 -2.939937E+00 -1.371101E+00
         4   2  1.035275E+03  4.746696E+01 -9.802917E-01  1.078522E+02 -1.553993E+00 -9.252757E-01
         4   3  1.024066E+03  6.225410E+01  9.565490E-01  1.082247E+02 -3.491230E-01 -3.940403E-01
         4   4  1.063018E+03  3.693463E+01  2.765938E-01  1.176339E+02 -2.899950E+00 -2.896267E+00
         4   5  1.038444E+03  4.888218E+01 -4.081613E-01  1.192173E+02 -1.335591E+00 -2.217601E+00
         4   6  1.019678E+03  6.392704E+01  3.223909E-01  1.192271E+02  1.187222E-01 -1.483437E+00
         4   7  1.070774E+03  3.527838E+01  1.444172E-01  1.302729E+02 -2.856424E+00 -4.397774E+00
         4   8  1.041699E+03  4.868359E+01  1.369924E-01  1.312727E+02 -1.125790E+00 -3.542931E+00
         4   9  1.016174E+03  6.372020E+01  2.724457E-02  1.312084E+02  5.522630E-01 -2.660145E+00
         4  10  1.055017E+03  3.747619E+01  2.251340E-01  1.053087E+02 -6.347020E-13  3.424051E-13
         4  11  1.035275E+03  4.746696E+01 -9.802917E-01  1.078522E+02 -2.672430E-13  7.516208E-14
         4  12  1.024066E+03  6.225410E+01  9.565490E-01  1.082247E+02 -8.351343E-14 -1.868613E-13
         4  13  1.063018E+03  3.693463E+01  2.765938E-01  1.176339E+02  2.359254E-13  2.839457E-13
         4  14  1.038444E+03  4.888218E+01 -4.081613E-01  1.192173E+02 -4.259185E-13 -5.845940E-14
         4  15  1.019678E+03  6.392704E+01  3.223909E-01  1.192271E+02 -2.254863E-13 -4.509725E-13
         4  16  1.070774E+03  3.527838E+01  1.444172E-01  1.302729E+02  5.010806E-13  2.755943E-13
         4  17  1.041699E+03  4.868359E+01  1.369924E-01  1.312727E+02  1.670269E-14 -4.175671E-14
         4  18  1.016174E+03  6.372020E+01  2.724457E-02  1.312084E+02 -4.593238E-14 -5.250907E-13
         4  19  1.055017E+03  3.747619E+01  2.251340E-01  1.053087E+02  2.939937E+00  1.371101E+00
         4  20  1.035275E+03  4.746696E+01 -9.802917E-01  1.078522E+02  1.553993E+00  9.252757E-01
         4  21  1.024066E+03  6.225410E+01  9.565490E-01  1.082247E+02  3.491230E-01  3.940403E-01
         4  22  1.063018E+03  3.693463E+01  2.765938E-01  1.176339E+02  2.899950E+00  2.896267E+00
         4  23  1.038444E+03  4.888218E+01 -4.081613E-01  1.192173E+02  1.335591E+00  2.217601E+00
         4  24  1.019678E+03  6.392704E+01  3.223909E-01  1.192271E+02 -1.187222E-01  1.483437E+00
         4  25  1.070774E+03  3.527838E+01  1.444172E-01  1.302729E+02  2.856424E+00  4.397774E+00
         4  26  1.041699E+03  4.868359E+01  1.369924E-01  1.312727E+02  1.125790E+00  3.542931E+00
         4  27  1.016174E+03  6.372020E+01  2.724457E-02  1.312084E+02 -5.522630E-01  2.660145E+00
         5   1  7.848562E+02 -3.227631E+02 -5.533450E+00  3.475205E+02  1.268550E+01 -6.684201E+01
         5   2  7.942002E+02 -3.851607E+02 -1.974032E+01  3.329448E+02 -3.280794E+00 -8.344859E+01
         5   3  8.199249E+02 -3.968483E+02 -2.786305E+01  3.248352E+02 -1.939145E+01 -9.601372E+01
         5   4  9.516252E+02 -2.892996E+02  3.443451E+00  3.224027E+02  4.139529E+00 -5.812195E+01
         5   5  1.000742E+03 -3.428804E+02 -5.865702E+00  3.015486E+02 -1.041388E+01 -6.879731E+01
         5   6  1.063205E+03 -3.504544E+02 -1.144930E+01  2.861120E+02 -2.524525E+01 -7.634308E+01
         5   7  1.059986E+03 -2.823905E+02 -3.470408E+00  2.858886E+02  5.032531E-02 -4.747126E+01
         5   8  1.150234E+03 -3.248995E+02 -2.380228E+00  2.594786E+02 -1.379119E+01 -5.289367E+01
         5   9  1.251341E+03 -3.253980E+02  4.538700E-01  2.375221E+02 -2.795928E+01 -5.590254E+01
         5  10  7.848562E+02 -3.227631E+02 -5.533450E+00  3.475205E+02 -5.428373E-14  1.085675E-13
         5  11  7.942002E+02 -3.851607E+02 -1.974032E+01  3.329448E+02  7.933776E-14 -6.263507E-14
         5  12  8.199249E+02 -3.968483E+02 -2.786305E+01  3.248352E+02 -1.252701E-13 -2.380133E-13
         5  13  9.516252E+02 -2.892996E+02  3.443451E+00  3.224027E+02 -2.171349E-13 -1.586755E-13
         5  14  1.000742E+03 -3.428804E+02 -5.865702E+00  3.015486E+02 -2.672430E-13 -2.714186E-14
         5  15  1.063205E+03 -3.504544E+02 -1.144930E+01  2.861120E+02 -2.505403E-14 -4.593238E-14
         5  16  1.059986E+03 -2.823905E+02 -3.470408E+00  2.858886E+02 -9.812828E-14 -2.672430E-13
         5  17  1.150234E+03 -3.248995E+02 -2.380228E+00  2.594786E+02  2.839457E-13 -3.758104E-14
         5  18  1.251341E+03 -3.253980E+02  4.538700E-01  2.375221E+02  3.340537E-14  2.484524E-13
         5  19  7.848562E+02 -3.227631E+02 -5.533450E+00  3.475205E+02 -1.268550E+01  6.684201E+01
         5  20  7.942002E+02 -3.851607E+02 -1.974032E+01  3.329448E+02  3.280794E+00  8.344859E+01
         5  21  8.199249E+02 -3.968483E+02 -2.786305E+01  3.248352E+02  1.939145E+01  9.601372E+01
         5  22  9.516252E+02 -2.892996E+02  3.443451E+00  3.224027E+02 -4.139529E+00  5.812195E+01
         5  23  1.000742E+03 -3.428804E+02 -5.865702E+00  3.015486E+02  1.041388E+01  6.879731E+01
         5  24  1.063205E+03 -3.504544E+02 -1.144930E+01  2.861120E+02  2.524525E+01  7.634308E+01
         5  25  1.059986E+03 -2.823905E+02 -3.470408E+00  2.858886E+02 -5.032531E-02  4.747126E+01
         5  26  1.150234E+03 -3.248995E+02 -2.380228E+00  2.594786E+02  1.379119E+01  5.289367E+01
         5  27  1.251341E+03 -3.253980E+02  4.538700E-01  2.375221E+02  2.795928E+01  5.590254E+01
         6   1  8.393516E+02 -3.574242E+02 -2.427302E+01  2.975033E+02 -3.331866E+01 -1.041157E+02
         6   2  7.558829E+02 -1.574659E+02 -3.611870E+01  3.289081E+02 -6.917898E+01 -1.157071E+02
         6   3  7.008005E+02  1.412299E+02 -4.058832E+01  3.962314E+02 -1.053770E+02 -1.178570E+02
         6   4  1.203664E+03 -2.825352E+02  3.059276E+01  2.856114E+02 -4.027365E+01 -8.084651E+01
         6   5  1.228250E+03 -1.770064E+02  1.314417E+01  2.838882E+02 -6.951810E+01 -8.327604E+01
         6   6  1.276759E+03  2.726506E+01  5.736532E+00  3.168692E+02 -9.944731E+01 -7.799906E+01
         6   7  1.293552E+03 -3.485018E+02 -1.687479E+01  2.043942E+02 -3.999620E+01 -5.614258E+01
         6   8  1.437049E+03 -3.185898E+02 -2.232715E+01  1.750463E+02 -6.430085E+01 -5.015255E+01
         6   9  1.600396E+03 -1.907805E+02 -1.521090E+01  1.788871E+02 -8.945249E+01 -3.790439E+01
         6  10  8.393516E+02 -3.574242E+02 -2.427302E+01  2.975033E+02 -2.087836E-13 -2.004322E-13
         6  11  7.558829E+02 -1.574659E+02 -3.611870E+01  3.289081E+02  4.175671E-15 -2.254863E-13
         6  12  7.008005E+02  1.412299E+02 -4.058832E+01  3.962314E+02  2.380133E-13 -3.674591E-13
         6  13  1.203664E+03 -2.825352E+02  3.059276E+01  2.856114E+02 -2.505403E-14 -8.351343E-15
         6  14  1.228250E+03 -1.770064E+02  1.314417E+01  2.838882E+02  4.175671E-14  1.461485E-13
         6  15  1.276759E+03  2.726506E+01  5.736532E+00  3.168692E+02 -1.252701E-13  3.914692E-14
         6  16  1.293552E+03 -3.485018E+02 -1.687479E+01  2.043942E+02  3.714064E-14  2.505403E-13
         6  17  1.437049E+03 -3.185898E+02 -2.232715E+01  1.750463E+02 -2.609795E-13  3.591077E-13
         6  18  1.600396E+03 -1.907805E+02 -1.521090E+01  1.788871E+02 -1.377972E-13  2.380133E-13
         6  19  8.393516E+02 -3.574242E+02 -2.427302E+01  2.975033E+02  3.331866E+01  1.041157E+02
         6  20  7.558829E+02 -1.574659E+02 -3.611870E+01  3.289081E+02  6.917898E+01  1.157071E+02
         6  21  7.008005E+02  1.412299E+02 -4.058832E+01  3.962314E+02  1.053770E+02  1.178570E+02
         6  22  1.203664E+03 -2.825352E+02  3.059276E+01  2.856114E+02  4.027365E+01  8.084651E+01
         6  23  1.228250E+03 -1.770064E+02  1.314417E+01  2.838882E+02  6.951810E+01  8.327604E+01
         6  24  1.276759E+03  2.726506E+01  5.736532E+00  3.168692E+02  9.944731E+01  7.799906E+01
         6  25  1.293552E+03 -3.485018E+02 -1.687479E+01  2.043942E+02  3.999620E+01  5.614258E+01
         6  26  1.437049E+03 -3.185898E+02 -2.232715E+01  1.750463E+02  6.430085E+01  5.015255E+01
         6  27  1.600396E+03 -1.907805E+02 -1.521090E+01  1.788871E+02  8.945249E+01  3.790439E+01
         7   1  1.344832E+03 -3.340017E+02 -2.010033E+01  1.381756E+02 -3.715390E+01 -4.856653E+01
         7   2  1.521589E+03 -2.551985E+02  1.726794E+00  1.193413E+02 -5.779113E+01 -4.116294E+01
         7   3  1.722639E+03 -1.405116E+02  2.208173E+01  6.510082E+01 -7.982336E+01 -2.503027E+01
         7   4  1.463062E+03 -2.751755E+02  7.453596E-01  6.863396E+01 -3.261937E+01 -3.677318E+01
         7   5  1.573453E+03 -2.148281E+02  3.299263E+00  2.651990E+01 -4.631850E+01 -2.657926E+01
         7   6  1.711031E+03 -1.184293E+02  1.239790E+01 -4.554505E+01 -6.152485E+01 -8.776584E+00
         7   7  1.512642E+03 -2.421184E+02  3.098965E+00 -4.407720E+00 -2.726180E+01 -2.481658E+01
         7   8  1.573827E+03 -1.924954E+02 -3.450256E+00 -6.868017E+01 -3.497529E+01 -1.201176E+01
         7   9  1.664112E+03 -1.066585E+02  4.266207E+00 -1.581336E+02 -4.422773E+01  7.418594E+00
         7  10  1.344832E+03 -3.340017E+02 -2.010033E+01  1.381756E+02 -1.085675E-13  8.351343E-14
         7  11  1.521589E+03 -2.551985E+02  1.726794E+00  1.193413E+02  2.505403E-14 -2.171349E-13
         7  12  1.722639E+03 -1.405116E+02  2.208173E+01  6.510082E+01 -1.753782E-13 -4.593238E-14
         7  13  1.463062E+03 -2.751755E+02  7.453596E-01  6.863396E+01 -5.010806E-14 -8.768910E-14
         7  14  1.573453E+03 -2.148281E+02  3.299263E+00  2.651990E+01 -1.670269E-14  1.252701E-14
         7  15  1.711031E+03 -1.184293E+02  1.239790E+01 -4.554505E+01  5.010806E-14 -6.002528E-14
         7  16  1.512642E+03 -2.421184E+02  3.098965E+00 -4.407720E+00 -1.043918E-13 -1.503242E-13
         7  17  1.573827E+03 -1.924954E+02 -3.450256E+00 -6.868017E+01  2.870774E-14 -1.753782E-13
         7  18  1.664112E+03 -1.066585E+02  4.266207E+00 -1.581336E+02  4.175671E-14  1.043918E-13
         7  19  1.344832E+03 -3.340017E+02 -2.010033E+01  1.381756E+02  3.715390E+01  4.856653E+01
         7  20  1.521589E+03 -2.551985E+02  1.726794E+00  1.193413E+02  5.779113E+01  4.116294E+01
         7  21  1.722639E+03 -1.405116E+02  2.208173E+01  6.510082E+01  7.982336E+01  2.503027E+01
         7  22  1.463062E+03 -2.751755E+02  7.453596E-01  6.863396E+01  3.261937E+01  3.677318E+01
         7  23  1.573453E+03 -2.148281E+02  3.299263E+00  2.651990E+01  4.631850E+01  2.657926E+01
         7  24  1.711031E+03 -1.184293E+02  1.239790E+01 -4.554505E+01  6.152485E+01  8.776584E+00
         7  25  1.512642E+03 -2.421184E+02  3.098965E+00 -4.407720E+00  2.726180E+01  2.481658E+01
         7  26  1.573827E+03 -1.924954E+02 -3.450256E+00 -6.868017E+01  3.497529E+01  1.201176E+01
         7  27  1.664112E+03 -1.066585E+02  4.266207E+00 -1.581336E+02  4.422773E+01 -7.418594E+00
         8   1  1.114110E+03 -2.698816E+02 -3.806501E+00  2.628549E+02 -1.080275E+00 -4.416916E+01
         8   2  1.213378E+03 -3.094050E+02 -7.711420E-01  2.288776E+02 -1.365365E+01 -4.928578E+01
         8   3  1.330323E+03 -3.109660E+02  5.516513E+00  1.801632E+02 -2.700093E+01 -4.955931E+01
         8   4  1.199050E+03 -2.300592E+02  2.554100E+00  2.211392E+02 -3.346163E+00 -3.816727E+01
         8   5  1.287223E+03 -2.723254E+02 -8.154381E-01  1.757170E+02 -1.326185E+01 -4.066238E+01
         8   6  1.393373E+03 -2.779998E+02  1.110403E+00  1.175318E+02 -2.400187E+01 -3.899599E+01
         8   7  1.253493E+03 -2.021373E+02  1.591312E+00  1.748110E+02 -4.591709E+00 -3.172338E+01
         8   8  1.336321E+03 -2.445222E+02 -4.077017E+00  1.188400E+02 -1.231031E+01 -3.185235E+01
         8   9  1.437175E+03 -2.514860E+02 -2.422018E+00  5.176836E+01 -2.086123E+01 -2.839795E+01
         8  10  1.114110E+03 -2.698816E+02 -3.806501E+00  2.628549E+02  2.505403E-14 -1.002161E-13
         8  11  1.213378E+03 -3.094050E+02 -7.711420E-01  2.288776E+02  6.681074E-14  1.670269E-14
         8  12  1.330323E+03 -3.109660E+02  5.516513E+00  1.801632E+02  0.000000E+00  1.116992E-13
         8  13  1.199050E+03 -2.300592E+02  2.554100E+00  2.211392E+02  0.000000E+00 -8.351343E-15
         8  14  1.287223E+03 -2.723254E+02 -8.154381E-01  1.757170E+02 -2.004322E-13  6.263507E-14
         8  15  1.393373E+03 -2.779998E+02  1.110403E+00  1.175318E+02  2.338376E-13  2.296619E-14
         8  16  1.253493E+03 -2.021373E+02  1.591312E+00  1.748110E+02  2.087836E-14  1.002161E-13
         8  17  1.336321E+03 -2.445222E+02 -4.077017E+00  1.188400E+02 -1.785100E-13 -2.505403E-14
         8  18  1.437175E+03 -2.514860E+02 -2.422018E+00  5.176836E+01  7.516208E-14 -1.294458E-13
         8  19  1.114110E+03 -2.698816E+02 -3.806501E+00  2.628549E+02  1.080275E+00  4.416916E+01
         8  20  1.213378E+03 -3.094050E+02 -7.711420E-01  2.288776E+02  1.365365E+01  4.928578E+01
         8  21  1.330323E+03 -3.109660E+02  5.516513E+00  1.801632E+02  2.700093E+01  4.955931E+01
         8  22  1.199050E+03 -2.300592E+02  2.554100E+00  2.211392E+02  3.346163E+00  3.816727E+01
         8  23  1.287223E+03 -2.723254E+02 -8.154381E-01  1.757170E+02  1.326185E+01  4.066238E+01
         8  24  1.393373E+03 -2.779998E+02  1.110403E+00  1.175318E+02  2.400187E+01  3.899599E+01
         8  25  1.253493E+03 -2.021373E+02  1.591312E+00  1.748110E+02  4.591709E+00  3.172338E+01
         8  26  1.336321E+03 -2.445222E+02 -4.077017E+00  1.188400E+02  1.231031E+01  3.185235E+01
         8  27  1.437175E+03 -2.514860E+02 -2.422018E+00  5.176836E+01  2.086123E+01  2.839795E+01
         9   1  9.336005E+02  1.504000E+02  1.054384E+00  6.911612E+00  8.105174E+00  1.301265E-01
         9   2  9.358711E+02  1.458597E+02  5.300958E-01  2.871673E+01  7.876909E+00 -2.207077E-02
         9   3  9.403895E+02  1.422311E+02  7.915620E-01  5.045718E+01  7.402649E+00 -1.713253E-01
         9   4  9.529136E+02  1.585006E+02  5.967665E-02  5.106870E+00  8.348146E+00  2.182474E-01
         9   5  9.534012E+02  1.538799E+02 -8.154678E-01  2.288232E+01  8.148227E+00  3.588220E-01
         9   6  9.572466E+02  1.507452E+02 -1.018154E-01  4.057436E+01  7.667617E+00  5.022469E-01
         9   7  9.753840E+02  1.742843E+02  2.043211E+00  4.181477E+00  8.592073E+00  2.511000E-01
         9   8  9.739837E+02  1.695815E+02  7.217904E-01  1.746270E+01  8.420498E+00  7.272188E-01
         9   9  9.771877E+02  1.669969E+02  1.850570E+00  3.064072E+01  7.928507E+00  1.205930E+00
         9  10  9.336005E+02  1.504000E+02  1.054384E+00  6.911612E+00  5.010806E-13  7.848957E-14
         9  11  9.358711E+02  1.458597E+02  5.300958E-01  2.871673E+01  3.340537E-14  1.052400E-13
         9  12  9.403895E+02  1.422311E+02  7.915620E-01  5.045718E+01 -3.925131E-13  2.046731E-13
         9  13  9.529136E+02  1.585006E+02  5.967665E-02  5.106870E+00 -3.079558E-13  2.842066E-13
         9  14  9.534012E+02  1.538799E+02 -8.154678E-01  2.288232E+01  3.340537E-14  2.992782E-13
         9  15  9.572466E+02  1.507452E+02 -1.018154E-01  4.057436E+01 -5.511886E-13  2.673898E-13
         9  16  9.753840E+02  1.742843E+02  2.043211E+00  4.181477E+00 -5.678913E-13  2.431676E-13
         9  17  9.739837E+02  1.695815E+02  7.217904E-01  1.746270E+01  2.004322E-13  1.215512E-13
         9  18  9.771877E+02  1.669969E+02  1.850570E+00  3.064072E+01 -1.461485E-13 -2.511112E-14
         9  19  9.336005E+02  1.504000E+02  1.054384E+00  6.911612E+00 -8.105174E+00 -1.301265E-01
         9  20  9.358711E+02  1.458597E+02  5.300958E-01  2.871673E+01 -7.876909E+00  2.207077E-02
         9  21  9.403895E+02  1.422311E+02  7.915620E-01  5.045718E+01 -7.402649E+00  1.713253E-01
         9  22  9.529136E+02  1.585006E+02  5.967665E-02  5.106870E+00 -8.348146E+00 -2.182474E-01
         9  23  9.534012E+02  1.538799E+02 -8.154678E-01  2.288232E+01 -8.148227E+00 -3.588220E-01
         9  24  9.572466E+02  1.507452E+02 -1.018154E-01  4.057436E+01 -7.667617E+00 -5.022469E-01
         9  25  9.753840E+02  1.742843E+02  2.043211E+00  4.181477E+00 -8.592073E+00 -2.511000E-01
         9  26  9.739837E+02  1.695815E+02  7.217904E-01  1.746270E+01 -8.420498E+00 -7.272188E-01
         9  27  9.771877E+02  1.669969E+02  1.850570E+00  3.064072E+01 -7.928507E+00 -1.205930E+00
        10   1  9.440615E+02  1.368670E+02  2.992931E-01  6.239980E+01  6.943358E+00  4.950953E-02
        10   2  9.543094E+02  1.260770E+02  1.924647E-01  7.811833E+01  6.021578E+00 -9.809150E-02
        10   3  9.648392E+02  1.153591E+02  2.586455E-02  9.366652E+01  4.888740E+00 -2.431706E-01
        10   4  9.606301E+02  1.470859E+02  2.601920E-01  4.957194E+01  7.228493E+00  9.007899E-01
        10   5  9.666278E+02  1.364154E+02 -1.389988E-01  6.273655E+01  6.394658E+00  1.007778E+00
        10   6  9.735840E+02  1.261943E+02 -1.935195E-02  7.566859E+01  5.319490E+00  1.117219E+00
        10   7  9.783124E+02  1.622981E+02  1.569374E+00  3.825779E+01  7.533607E+00  1.634129E+00
        10   8  9.798272E+02  1.517926E+02  5.994697E-01  4.857057E+01  6.786054E+00  2.033273E+00
        10   9  9.830533E+02  1.421456E+02  7.594478E-01  5.858064E+01  5.762535E+00  2.434659E+00
        10  10  9.440615E+02  1.368670E+02  2.992931E-01  6.239980E+01 -6.681074E-14 -1.837295E-13
        10  11  9.543094E+02  1.260770E+02  1.924647E-01  7.811833E+01  3.674591E-13 -1.357093E-14
        10  12  9.648392E+02  1.153591E+02  2.586455E-02  9.366652E+01 -1.544998E-13  1.349264E-13
        10  13  9.606301E+02  1.470859E+02  2.601920E-01  4.957194E+01  3.883374E-13 -3.695469E-13
        10  14  9.666278E+02  1.364154E+02 -1.389988E-01  6.273655E+01  2.380133E-13 -5.010806E-14
        10  15  9.735840E+02  1.261943E+02 -1.935195E-02  7.566859E+01 -4.551482E-13  3.283122E-13
        10  16  9.783124E+02  1.622981E+02  1.569374E+00  3.825779E+01  0.000000E+00 -5.835501E-13
        10  17  9.798272E+02  1.517926E+02  5.994697E-01  4.857057E+01  7.850262E-13 -2.140032E-14
        10  18  9.830533E+02  1.421456E+02  7.594478E-01  5.858064E+01  2.505403E-14  5.060392E-13
        10  19  9.440615E+02  1.368670E+02  2.992931E-01  6.239980E+01 -6.943358E+00 -4.950953E-02
        10  20  9.543094E+02  1.260770E+02  1.924647E-01  7.811833E+01 -6.021578E+00  9.809150E-02
        10  21  9.648392E+02  1.153591E+02  2.586455E-02  9.366652E+01 -4.888740E+00  2.431706E-01
        10  22  9.606301E+02  1.470859E+02  2.601920E-01  4.957194E+01 -7.228493E+00 -9.007899E-01
        10  23  9.666278E+02  1.364154E+02 -1.389988E-01  6.273655E+01 -6.394658E+00 -1.007778E+00
        10  24  9.735840E+02  1.261943E+02 -1.935195E-02  7.566859E+01 -5.319490E+00 -1.117219E+00
        10  25  9.783124E+02  1.622981E+02  1.569374E+00  3.825779E+01 -7.533607E+00 -1.634129E+00
        10  26  9.798272E+02  1.517926E+02  5.994697E-01  4.857057E+01 -6.786054E+00 -2.033273E+00
        10  27  9.830533E+02  1.421456E+02  7.594478E-01  5.858064E+01 -5.762535E+00 -2.434659E+00
        11   1  9.863873E+02  1.734674E+02  2.007354E+00  3.116303E+01  7.784002E+00  2.035894E+00
        11   2  9.887071E+02  1.638315E+02  1.865400E+00  3.942118E+01  7.088296E+00  2.559170E+00
        11   3  9.908884E+02  1.542776E+02  2.160055E+00  4.810156E+01  6.278950E+00  3.083223E+00
        11   4  9.909539E+02  1.983426E+02  2.722127E+00  1.808027E+01  5.833129E+00  2.632786E+00
        11   5  9.916488E+02  1.874428E+02  2.065309E+00  2.297486E+01  5.335034E+00  3.273334E+00
        11   6  9.926186E+02  1.768255E+02  2.091618E+00  2.832994E+01  4.708702E+00  3.914414E+00
        11   7  1.003366E+03  2.404572E+02  1.304666E+01  4.690900E+00  3.932235E+00  2.934705E+00
        11   8  1.002213E+03  2.279325E+02  1.141184E+01  5.802031E+00  3.643891E+00  3.714891E+00
        11   9  1.001816E+03  2.159206E+02  1.073579E+01  7.420571E+00  3.210071E+00  4.495225E+00
        11  10  9.863873E+02  1.734674E+02  2.007354E+00  3.116303E+01 -7.015128E-13 -6.086041E-13
        11  11  9.887071E+02  1.638315E+02  1.865400E+00  3.942118E+01 -9.019450E-13 -1.414509E-13
        11  12  9.908884E+02  1.542776E+02  2.160055E+00  4.810156E+01 -6.472291E-14  3.245280E-13
        11  13  9.909539E+02  1.983426E+02  2.722127E+00  1.808027E+01  2.275741E-13 -4.697630E-13
        11  14  9.916488E+02  1.874428E+02  2.065309E+00  2.297486E+01 -3.173510E-13 -3.904253E-13
        11  15  9.926186E+02  1.768255E+02  2.091618E+00  2.832994E+01  1.294458E-13 -3.186559E-13
        11  16  1.003366E+03  2.404572E+02  1.304666E+01  4.690900E+00  5.678913E-13  3.502344E-13
        11  17  1.002213E+03  2.279325E+02  1.141184E+01  5.802031E+00 -4.342698E-13 -1.832076E-13
        11  18  1.001816E+03  2.159206E+02  1.073579E+01  7.420571E+00 -2.505403E-14 -6.512090E-13
        11  19  9.863873E+02  1.734674E+02  2.007354E+00  3.116303E+01 -7.784002E+00 -2.035894E+00
        11  20  9.887071E+02  1.638315E+02  1.865400E+00  3.942118E+01 -7.088296E+00 -2.559170E+00
        11  21  9.908884E+02  1.542776E+02  2.160055E+00  4.810156E+01 -6.278950E+00 -3.083223E+00
        11  22  9.909539E+02  1.983426E+02  2.722127E+00  1.808027E+01 -5.833129E+00 -2.632786E+00
        11  23  9.916488E+02  1.874428E+02  2.065309E+00  2.297486E+01 -5.335034E+00 -3.273334E+00
        11  24  9.926186E+02  1.768255E+02  2.091618E+00  2.832994E+01 -4.708702E+00 -3.914414E+00
        11  25  1.003366E+03  2.404572E+02  1.304666E+01  4.690900E+00 -3.932235E+00 -2.934705E+00
        11  26  1.002213E+03  2.279325E+02  1.141184E+01  5.802031E+00 -3.643891E+00 -3.714891E+00
        11  27  1.001816E+03  2.159206E+02  1.073579E+01  7.420571E+00 -3.210071E+00 -4.495225E+00
        12   1  9.854170E+02  1.860165E+02  2.809502E+00  3.436101E+00  8.715962E+00  3.093421E-01
        12   2  9.855477E+02  1.821646E+02  2.285907E+00  1.399657E+01  8.487625E+00  9.305060E-01
        12   3  9.863972E+02  1.787962E+02  2.664828E+00  2.471397E+01  8.120600E+00  1.552607E+00
        12   4  9.900219E+02  2.107527E+02  3.101547E+00  1.822059E+00  6.465676E+00  4.291756E-01
        12   5  9.896112E+02  2.064874E+02  2.375176E+00  8.155822E+00  6.360719E+00  1.192445E+00
        12   6  9.905697E+02  2.030098E+02  2.912227E+00  1.466728E+01  6.099764E+00  1.956357E+00
        12   7  1.003553E+03  2.544142E+02  1.426751E+01  4.183193E-01  4.218862E+00  3.486995E-01
        12   8  1.002474E+03  2.495391E+02  1.308838E+01  1.969517E+00  4.247115E+00  1.280395E+00
        12   9  1.003522E+03  2.458031E+02  1.358025E+01  3.725332E+00  4.098932E+00  2.212270E+00
        12  10  9.854170E+02  1.860165E+02  2.809502E+00  3.436101E+00 -6.012967E-13  2.001712E-13
        12  11  9.855477E+02  1.821646E+02  2.285907E+00  1.399657E+01 -8.017289E-13  2.652204E-14
        12  12  9.863972E+02  1.787962E+02  2.664828E+00  2.471397E+01 -7.933776E-13 -2.165069E-13
        12  13  9.900219E+02  2.107527E+02  3.101547E+00  1.822059E+00 -2.427109E-14  3.842923E-13
        12  14  9.896112E+02  2.064874E+02  2.375176E+00  8.155822E+00 -5.845940E-14  6.707172E-14
        12  15  9.905697E+02  2.030098E+02  2.912227E+00  1.466728E+01  3.236145E-13 -1.334421E-13
        12  16  1.003553E+03  2.544142E+02  1.426751E+01  4.183193E-01  7.015128E-13  4.588671E-13
        12  17  1.002474E+03  2.495391E+02  1.308838E+01  1.969517E+00  4.342698E-13  8.873302E-15
        12  18  1.003522E+03  2.458031E+02  1.358025E+01  3.725332E+00  7.933776E-13 -3.085593E-13
        12  19  9.854170E+02  1.860165E+02  2.809502E+00  3.436101E+00 -8.715962E+00 -3.093421E-01
        12  20  9.855477E+02  1.821646E+02  2.285907E+00  1.399657E+01 -8.487625E+00 -9.305060E-01
        12  21  9.863972E+02  1.787962E+02  2.664828E+00  2.471397E+01 -8.120600E+00 -1.552607E+00
        12  22  9.900219E+02  2.107527E+02  3.101547E+00  1.822059E+00 -6.465676E+00 -4.291756E-01
        12  23  9.896112E+02  2.064874E+02  2.375176E+00  8.155822E+00 -6.360719E+00 -1.192445E+00
        12  24  9.905697E+02  2.030098E+02  2.912227E+00  1.466728E+01 -6.099764E+00 -1.956357E+00
        12  25  1.003553E+03  2.544142E+02  1.426751E+01  4.183193E-01 -4.218862E+00 -3.486995E-01
        12  26  1.002474E+03  2.495391E+02  1.308838E+01  1.969517E+00 -4.247115E+00 -1.280395E+00
        12  27  1.003522E+03  2.458031E+02  1.358025E+01  3.725332E+00 -4.098932E+00 -2.212270E+00
        13   1  8.679318E+02  2.890578E+02 -2.357576E+01  5.686692E+02 -1.237331E+02 -1.084826E+02
        13   2  1.576171E+03  3.636530E+02  5.151935E+01  7.779179E+02 -1.334430E+02 -7.265765E+01
        13   3  2.316003E+03  3.445124E+02  1.220353E+02  8.339689E+02 -1.354091E+02 -3.099387E+01
        13   4  1.522131E+03  1.884666E+02  5.970683E+01  3.676398E+02 -1.159445E+02 -6.644688E+01
        13   5  1.897694E+03  2.607276E+02  6.976948E+01  4.382857E+02 -1.181466E+02 -3.094272E+01
        13   6  2.347997E+03  3.045306E+02  1.074877E+02  3.995497E+02 -1.166981E+02  8.122724E+00
        13   7  1.740417E+03 -8.433264E+01  1.507027E+00  1.797625E+02 -1.017580E+02 -2.425919E+01
        13   8  1.927213E+03  4.233413E+01  2.519902E+00  1.470773E+02 -1.009761E+02  1.073765E+01
        13   9  2.230261E+03  2.067414E+02  6.320914E+01  2.363797E+01 -9.972127E+01  4.728519E+01
        13  10  8.679318E+02  2.890578E+02 -2.357576E+01  5.686692E+02 -4.676752E-13 -2.672430E-13
        13  11  1.576171E+03  3.636530E+02  5.151935E+01  7.779179E+02  0.000000E+00 -3.173510E-13
        13  12  2.316003E+03  3.445124E+02  1.220353E+02  8.339689E+02  6.931614E-13 -1.002161E-13
        13  13  1.522131E+03  1.884666E+02  5.970683E+01  3.676398E+02 -2.672430E-13  2.087836E-14
        13  14  1.897694E+03  2.607276E+02  6.976948E+01  4.382857E+02  6.681074E-14  2.476695E-13
        13  15  2.347997E+03  3.045306E+02  1.074877E+02  3.995497E+02  5.678913E-13 -6.889858E-14
        13  16  1.740417E+03 -8.433264E+01  1.507027E+00  1.797625E+02 -5.177832E-13  2.338376E-13
        13  17  1.927213E+03  4.233413E+01  2.519902E+00  1.470773E+02 -1.043918E-13  3.340537E-13
        13  18  2.230261E+03  2.067414E+02  6.320914E+01  2.363797E+01  2.463646E-13  3.382294E-13
        13  19  8.679318E+02  2.890578E+02 -2.357576E+01  5.686692E+02  1.237331E+02  1.084826E+02
        13  20  1.576171E+03  3.636530E+02  5.151935E+01  7.779179E+02  1.334430E+02  7.265765E+01
        13  21  2.316003E+03  3.445124E+02  1.220353E+02  8.339689E+02  1.354091E+02  3.099387E+01
        13  22  1.522131E+03  1.884666E+02  5.970683E+01  3.676398E+02  1.159445E+02  6.644688E+01
        13  23  1.897694E+03  2.607276E+02  6.976948E+01  4.382857E+02  1.181466E+02  3.094272E+01
        13  24  2.347997E+03  3.045306E+02  1.074877E+02  3.995497E+02  1.166981E+02 -8.122724E+00
        13  25  1.740417E+03 -8.433264E+01  1.507027E+00  1.797625E+02  1.017580E+02  2.425919E+01
        13  26  1.927213E+03  4.233413E+01  2.519902E+00  1.470773E+02  1.009761E+02 -1.073765E+01
        13  27  2.230261E+03  2.067414E+02  6.320914E+01  2.363797E+01  9.972127E+01 -4.728519E+01
        14   1  2.890788E+03  3.827814E+02  2.294598E+02  7.670885E+02 -1.207560E+02 -6.114018E+00
        14   2  3.503484E+03  2.967809E+02  2.947290E+02  5.032717E+02 -7.331800E+01  3.079884E+01
        14   3  3.744056E+03  1.282104E+02  2.755060E+02  1.285592E+02 -1.769953E+01  5.227810E+01
        14   4  2.445965E+03  2.559578E+02  6.561475E+01  3.547000E+02 -9.809907E+01  3.073892E+01
        14   5  2.705915E+03  2.354636E+02  7.099006E+01  2.333909E+02 -5.822883E+01  6.220518E+01
        14   6  2.868983E+03  2.270145E+02  9.232986E+01  3.953702E+01 -1.280253E+01  7.586698E+01
        14   7  2.290776E+03  2.589061E+02  5.725233E+01 -1.905809E-01 -7.642895E+01  6.761561E+01
        14   8  2.330657E+03  3.591369E+02  5.345163E+01  1.680877E+01 -4.821582E+01  9.373537E+01
        14   9  2.409224E+03  5.090718E+02  1.070840E+02 -1.345258E+01 -1.592221E+01  9.951648E+01
        14  10  2.890788E+03  3.827814E+02  2.294598E+02  7.670885E+02 -6.681074E-14 -1.670269E-13
        14  11  3.503484E+03  2.967809E+02  2.947290E+02  5.032717E+02  0.000000E+00 -2.505403E-13
        14  12  3.744056E+03  1.282104E+02  2.755060E+02  1.285592E+02  1.085675E-13  1.043918E-13
        14  13  2.445965E+03  2.559578E+02  6.561475E+01  3.547000E+02 -3.340537E-14 -1.513681E-13
        14  14  2.705915E+03  2.354636E+02  7.099006E+01  2.333909E+02  3.340537E-14 -7.985971E-14
        14  15  2.868983E+03  2.270145E+02  9.232986E+01  3.953702E+01  2.421889E-13 -9.838926E-14
        14  16  2.290776E+03  2.589061E+02  5.725233E+01 -1.905809E-01 -1.837295E-13  1.336215E-13
        14  17  2.330657E+03  3.591369E+02  5.345163E+01  1.680877E+01  7.098641E-14 -3.340537E-14
        14  18  2.409224E+03  5.090718E+02  1.070840E+02 -1.345258E+01  2.755943E-13  1.043918E-13
        14  19  2.890788E+03  3.827814E+02  2.294598E+02  7.670885E+02  1.207560E+02  6.114018E+00
        14  20  3.503484E+03  2.967809E+02  2.947290E+02  5.032717E+02  7.331800E+01 -3.079884E+01
        14  21  3.744056E+03  1.282104E+02  2.755060E+02  1.285592E+02  1.769953E+01 -5.227810E+01
        14  22  2.445965E+03  2.559578E+02  6.561475E+01  3.547000E+02  9.809907E+01 -3.073892E+01
        14  23  2.705915E+03  2.354636E+02  7.099006E+01  2.333909E+02  5.822883E+01 -6.220518E+01
        14  24  2.868983E+03  2.270145E+02  9.232986E+01  3.953702E+01  1.280253E+01 -7.586698E+01
        14  25  2.290776E+03  2.589061E+02  5.725233E+01 -1.905809E-01  7.642895E+01 -6.761561E+01
        14  26  2.330657E+03  3.591369E+02  5.345163E+01  1.680877E+01  4.821582E+01 -9.373537E+01
        14  27  2.409224E+03  5.090718E+02  1.070840E+02 -1.345258E+01  1.592221E+01 -9.951648E+01
        15   1  2.172412E+03  2.847118E+02  6.196346E+01 -4.138422E+01 -6.282541E+01  6.882942E+01
        15   2  2.167840E+03  3.469101E+02  4.306321E+01 -2.921267E+01 -3.955650E+01  8.819725E+01
        15   3  2.156026E+03  3.760895E+02  3.818017E+01 -1.131620E+01 -1.505932E+01  1.007262E+02
        15   4  1.892688E+03  2.191366E+02  1.264549E+01 -1.048212E+02 -4.483240E+01  6.679791E+01
        15   5  1.885052E+03  2.820364E+02  6.976377E+00 -6.571793E+01 -2.679592E+01  8.206357E+01
        15   6  1.865976E+03  3.074736E+02  6.666006E+00 -2.021396E+01 -7.549245E+00  9.032060E+01
        15   7  1.722248E+03  1.999762E+02  8.664494E+00 -1.694248E+02 -3.021866E+01  6.483070E+01
        15   8  1.711527E+03  2.624224E+02  1.242189E+01 -1.033253E+02 -1.755094E+01  7.596794E+01
        15   9  1.685189E+03  2.829632E+02  1.288675E+01 -3.013846E+01 -3.693610E+00  7.992397E+01
        15  10  2.172412E+03  2.847118E+02  6.196346E+01 -4.138422E+01 -1.002161E-13 -3.340537E-14
        15  11  2.167840E+03  3.469101E+02  4.306321E+01 -2.921267E+01  2.505403E-14  1.336215E-13
        15  12  2.156026E+03  3.760895E+02  3.818017E+01 -1.131620E+01  1.336215E-13  3.173510E-13
        15  13  1.892688E+03  2.191366E+02  1.264549E+01 -1.048212E+02 -3.340537E-14  3.288341E-14
        15  14  1.885052E+03  2.820364E+02  6.976377E+00 -6.571793E+01  3.340537E-14 -5.063002E-14
        15  15  1.865976E+03  3.074736E+02  6.666006E+00 -2.021396E+01 -4.175671E-15 -1.415814E-13
        15  16  1.722248E+03  1.999762E+02  8.664494E+00 -1.694248E+02  3.758104E-14  2.004322E-13
        15  17  1.711527E+03  2.624224E+02  1.242189E+01 -1.033253E+02 -1.879052E-14  3.340537E-14
        15  18  1.685189E+03  2.829632E+02  1.288675E+01 -3.013846E+01 -1.920809E-13  1.043918E-13
        15  19  2.172412E+03  2.847118E+02  6.196346E+01 -4.138422E+01  6.282541E+01 -6.882942E+01
        15  20  2.167840E+03  3.469101E+02  4.306321E+01 -2.921267E+01  3.955650E+01 -8.819725E+01
        15  21  2.156026E+03  3.760895E+02  3.818017E+01 -1.131620E+01  1.505932E+01 -1.007262E+02
        15  22  1.892688E+03  2.191366E+02  1.264549E+01 -1.048212E+02  4.483240E+01 -6.679791E+01
        15  23  1.885052E+03  2.820364E+02  6.976377E+00 -6.571793E+01  2.679592E+01 -8.206357E+01
        15  24  1.865976E+03  3.074736E+02  6.666006E+00 -2.021396E+01  7.549245E+00 -9.032060E+01
        15  25  1.722248E+03  1.999762E+02  8.664494E+00 -1.694248E+02  3.021866E+01 -6.483070E+01
        15  26  1.711527E+03  2.624224E+02  1.242189E+01 -1.033253E+02  1.755094E+01 -7.596794E+01
        15  27  1.685189E+03  2.829632E+02  1.288675E+01 -3.013846E+01  3.693610E+00 -7.992397E+01
        16   1  1.829774E+03 -6.261993E+01  2.764879E+01  2.792901E+01 -8.738883E+01 -1.025309E+01
        16   2  1.921809E+03  5.127121E+01  1.278287E+01  4.478318E+00 -8.509236E+01  2.032972E+01
        16   3  2.049425E+03  1.849450E+02  2.693230E+01 -4.071161E+01 -8.338374E+01  5.249432E+01
        16   4  1.754184E+03 -6.196205E+01  5.060122E+00 -7.849077E+01 -6.309349E+01  4.832750E+00
        16   5  1.805635E+03  4.379347E+01 -7.631323E-01 -9.025372E+01 -6.018119E+01  2.919197E+01
        16   6  1.880596E+03  1.635580E+02  1.368316E+01 -1.204138E+02 -5.737268E+01  5.392394E+01
        16   7  1.694221E+03 -4.986374E+01  4.769498E+00 -1.841351E+02 -4.408275E+01  1.973583E+01
        16   8  1.711678E+03  4.845015E+01  3.824931E+00 -1.840573E+02 -4.163029E+01  3.797238E+01
        16   9  1.743113E+03  1.560541E+02  1.548206E+01 -1.991702E+02 -3.903522E+01  5.545270E+01
        16  10  1.829774E+03 -6.261993E+01  2.764879E+01  2.792901E+01 -1.002161E-13 -3.340537E-14
        16  11  1.921809E+03  5.127121E+01  1.278287E+01  4.478318E+00 -5.010806E-14 -1.503242E-13
        16  12  2.049425E+03  1.849450E+02  2.693230E+01 -4.071161E+01  2.547160E-13 -5.010806E-14
        16  13  1.754184E+03 -6.196205E+01  5.060122E+00 -7.849077E+01 -1.336215E-13  2.296619E-14
        16  14  1.805635E+03  4.379347E+01 -7.631323E-01 -9.025372E+01  3.340537E-14 -1.265750E-13
        16  15  1.880596E+03  1.635580E+02  1.368316E+01 -1.204138E+02  1.586755E-13  1.411899E-13
        16  16  1.694221E+03 -4.986374E+01  4.769498E+00 -1.841351E+02 -2.192227E-13  1.336215E-13
        16  17  1.711678E+03  4.845015E+01  3.824931E+00 -1.840573E+02 -8.560126E-14  1.670269E-13
        16  18  1.743113E+03  1.560541E+02  1.548206E+01 -1.991702E+02  7.098641E-14  2.213106E-13
        16  19  1.829774E+03 -6.261993E+01  2.764879E+01  2.792901E+01  8.738883E+01  1.025309E+01
        16  20  1.921809E+03  5.127121E+01  1.278287E+01  4.478318E+00  8.509236E+01 -2.032972E+01
        16  21  2.049425E+03  1.849450E+02  2.693230E+01 -4.071161E+01  8.338374E+01 -5.249432E+01
        16  22  1.754184E+03 -6.196205E+01  5.060122E+00 -7.849077E+01  6.309349E+01 -4.832750E+00
        16  23  1.805635E+03  4.379347E+01 -7.631323E-01 -9.025372E+01  6.018119E+01 -2.919197E+01
        16  24  1.880596E+03  1.635580E+02  1.368316E+01 -1.204138E+02  5.737268E+01 -5.392394E+01
        16  25  1.694221E+03 -4.986374E+01  4.769498E+00 -1.841351E+02  4.408275E+01 -1.973583E+01
        16  26  1.711678E+03  4.845015E+01  3.824931E+00 -1.840573E+02  4.163029E+01 -3.797238E+01
        16  27  1.743113E+03  1.560541E+02  1.548206E+01 -1.991702E+02  3.903522E+01 -5.545270E+01
        17   1  8.681293E+02  6.909680E+01 -1.141746E-02  1.875429E+02  9.137431E+00 -1.063209E+01
        17   2  8.543908E+02  6.034785E+01  1.409891E+00  1.985840E+02  1.039006E+01 -1.240723E+01
        17   3  8.381908E+02  4.386036E+01  8.352897E-01  2.119455E+02  1.163189E+01 -1.433493E+01
        17   4  9.146373E+02  4.646648E+01 -1.354821E+00  2.013736E+02  7.207776E+00 -1.250273E+01
        17   5  9.043985E+02  3.368167E+01 -4.394152E-01  2.123991E+02  8.435608E+00 -1.464619E+01
        17   6  8.926332E+02  1.448820E+01 -6.753488E-01  2.256540E+02  9.642758E+00 -1.696929E+01
        17   7  9.727358E+02  3.092272E+01  5.731171E-01  2.109452E+02  4.958574E+00 -1.427373E+01
        17   8  9.659865E+02  1.441596E+01  6.915120E-01  2.219723E+02  6.136537E+00 -1.674928E+01
        17   9  9.585179E+02 -7.342085E+00  4.130016E-01  2.351545E+02  7.283880E+00 -1.942445E+01
        17  10  8.681293E+02  6.909680E+01 -1.141746E-02  1.875429E+02 -6.722831E-13  5.658035E-13
        17  11  8.543908E+02  6.034785E+01  1.409891E+00  1.985840E+02 -1.127431E-13  5.449251E-13
        17  12  8.381908E+02  4.386036E+01  8.352897E-01  2.119455E+02  7.975532E-13 -1.970395E-13
        17  13  9.146373E+02  4.646648E+01 -1.354821E+00  2.013736E+02 -3.006483E-13  2.588916E-13
        17  14  9.043985E+02  3.368167E+01 -4.394152E-01  2.123991E+02 -7.015128E-13  4.426212E-13
        17  15  8.926332E+02  1.448820E+01 -6.753488E-01  2.256540E+02  2.505403E-13  7.307425E-14
        17  16  9.727358E+02  3.092272E+01  5.731171E-01  2.109452E+02  2.338376E-13 -3.340537E-14
        17  17  9.659865E+02  1.441596E+01  6.915120E-01  2.219723E+02  2.505403E-14  2.902092E-13
        17  18  9.585179E+02 -7.342085E+00  4.130016E-01  2.351545E+02 -3.257024E-13  2.891652E-13
        17  19  8.681293E+02  6.909680E+01 -1.141746E-02  1.875429E+02 -9.137431E+00  1.063209E+01
        17  20  8.543908E+02  6.034785E+01  1.409891E+00  1.985840E+02 -1.039006E+01  1.240723E+01
        17  21  8.381908E+02  4.386036E+01  8.352897E-01  2.119455E+02 -1.163189E+01  1.433493E+01
        17  22  9.146373E+02  4.646648E+01 -1.354821E+00  2.013736E+02 -7.207776E+00  1.250273E+01
        17  23  9.043985E+02  3.368167E+01 -4.394152E-01  2.123991E+02 -8.435608E+00  1.464619E+01
        17  24  8.926332E+02  1.448820E+01 -6.753488E-01  2.256540E+02 -9.642758E+00  1.696929E+01
        17  25  9.727358E+02  3.092272E+01  5.731171E-01  2.109452E+02 -4.958574E+00  1.427373E+01
        17  26  9.659865E+02  1.441596E+01  6.915120E-01  2.219723E+02 -6.136537E+00  1.674928E+01
        17  27  9.585179E+02 -7.342085E+00  4.130016E-01  2.351545E+02 -7.283880E+00  1.942445E+01
        18   1  8.255041E+02  3.254622E+01 -4.706864E-01  2.209291E+02  1.251679E+01 -1.569145E+01
        18   2  8.147447E+02  1.757939E+01  2.964105E+00  2.343907E+02  1.396652E+01 -1.833071E+01
        18   3  7.988081E+02 -1.214043E+01  1.683234E+00  2.511419E+02  1.539331E+01 -2.129476E+01
        18   4  8.829022E+02 -1.843127E+00 -2.710990E+00  2.355198E+02  1.015208E+01 -1.844462E+01
        18   5  8.760351E+02 -2.468713E+01 -6.909797E-01  2.480269E+02  1.146259E+01 -2.167156E+01
        18   6  8.654770E+02 -5.993672E+01 -2.097856E+00  2.636170E+02  1.273245E+01 -2.525153E+01
        18   7  9.580069E+02 -2.133493E+01  1.456487E+00  2.423102E+02  7.264074E+00 -2.091448E+01
        18   8  9.550226E+02 -5.143482E+01  1.674930E+00  2.538714E+02  8.411064E+00 -2.465816E+01
        18   9  9.495961E+02 -9.194296E+01 -4.210384E-01  2.683481E+02  9.501167E+00 -2.877249E+01
        18  10  8.255041E+02  3.254622E+01 -4.706864E-01  2.209291E+02  4.426212E-13 -3.361415E-13
        18  11  8.147447E+02  1.757939E+01  2.964105E+00  2.343907E+02  3.340537E-14 -2.150471E-13
        18  12  7.988081E+02 -1.214043E+01  1.683234E+00  2.511419E+02 -5.804183E-13  1.182237E-13
        18  13  8.829022E+02 -1.843127E+00 -2.710990E+00  2.355198E+02  2.171349E-13 -1.837295E-13
        18  14  8.760351E+02 -2.468713E+01 -6.909797E-01  2.480269E+02  6.681074E-14 -1.252701E-13
        18  15  8.654770E+02 -5.993672E+01 -2.097856E+00  2.636170E+02 -1.670269E-13  1.586755E-13
        18  16  9.580069E+02 -2.133493E+01  1.456487E+00  2.423102E+02  1.002161E-13 -6.263507E-15
        18  17  9.550226E+02 -5.143482E+01  1.674930E+00  2.538714E+02 -2.839457E-13 -5.010806E-14
        18  18  9.495961E+02 -9.194296E+01 -4.210384E-01  2.683481E+02 -5.428373E-14  1.150919E-13
        18  19  8.255041E+02  3.254622E+01 -4.706864E-01  2.209291E+02 -1.251679E+01  1.569145E+01
        18  20  8.147447E+02  1.757939E+01  2.964105E+00  2.343907E+02 -1.396652E+01  1.833071E+01
        18  21  7.988081E+02 -1.214043E+01  1.683234E+00  2.511419E+02 -1.539331E+01  2.129476E+01
        18  22  8.829022E+02 -1.843127E+00 -2.710990E+00  2.355198E+02 -1.015208E+01  1.844462E+01
        18  23  8.760351E+02 -2.468713E+01 -6.909797E-01  2.480269E+02 -1.146259E+01  2.167156E+01
        18  24  8.654770E+02 -5.993672E+01 -2.097856E+00  2.636170E+02 -1.273245E+01  2.525153E+01
        18  25  9.580069E+02 -2.133493E+01  1.456487E+00  2.423102E+02 -7.264074E+00  2.091448E+01
        18  26  9.550226E+02 -5.143482E+01  1.674930E+00  2.538714E+02 -8.411064E+00  2.465816E+01
        18  27  9.495961E+02 -9.194296E+01 -4.210384E-01  2.683481E+02 -9.501167E+00  2.877249E+01
        19   1  9.992998E+02 -4.080971E+01 -7.249025E-01  2.409456E+02  5.737508E+00 -2.177927E+01
        19   2  1.004883E+03 -6.638795E+01  2.811216E+00  2.503403E+02  6.607792E+00 -2.517997E+01
        19   3  1.004256E+03 -1.158069E+02 -1.308989E+00  2.656082E+02  7.244153E+00 -2.992997E+01
        19   4  1.070558E+03 -6.331153E+01 -2.821394E+00  2.255817E+02  3.340570E+00 -2.312597E+01
        19   5  1.088356E+03 -9.367898E+01  1.708783E+00  2.268951E+02  3.274497E+00 -2.638739E+01
        19   6  1.101147E+03 -1.447989E+02 -8.934773E-01  2.331869E+02  2.968116E+00 -3.082519E+01
        19   7  1.148265E+03 -7.580866E+01 -2.193739E+00  2.045177E+02  7.082587E-01 -2.434521E+01
        19   8  1.176261E+03 -1.117399E+02  2.030601E+00  1.986993E+02 -1.846397E-01 -2.751337E+01
        19   9  1.200099E+03 -1.658963E+02 -6.279535E-01  1.971569E+02 -1.316583E+00 -3.171376E+01
        19  10  9.992998E+02 -4.080971E+01 -7.249025E-01  2.409456E+02 -3.340537E-14 -2.046079E-13
        19  11  1.004883E+03 -6.638795E+01  2.811216E+00  2.503403E+02  2.338376E-13 -7.098641E-14
        19  12  1.004256E+03 -1.158069E+02 -1.308989E+00  2.656082E+02  2.881213E-13  9.238673E-14
        19  13  1.070558E+03 -6.331153E+01 -2.821394E+00  2.255817E+02  9.186477E-14 -4.175671E-14
        19  14  1.088356E+03 -9.367898E+01  1.708783E+00  2.268951E+02  3.507564E-13 -1.252701E-13
        19  15  1.101147E+03 -1.447989E+02 -8.934773E-01  2.331869E+02  1.837295E-13 -1.962566E-13
        19  16  1.148265E+03 -7.580866E+01 -2.193739E+00  2.045177E+02  0.000000E+00  7.933776E-14
        19  17  1.176261E+03 -1.117399E+02  2.030601E+00  1.986993E+02  8.351343E-14 -1.712025E-13
        19  18  1.200099E+03 -1.658963E+02 -6.279535E-01  1.971569E+02  2.881213E-13 -2.698528E-13
        19  19  9.992998E+02 -4.080971E+01 -7.249025E-01  2.409456E+02 -5.737508E+00  2.177927E+01
        19  20  1.004883E+03 -6.638795E+01  2.811216E+00  2.503403E+02 -6.607792E+00  2.517997E+01
        19  21  1.004256E+03 -1.158069E+02 -1.308989E+00  2.656082E+02 -7.244153E+00  2.992997E+01
        19  22  1.070558E+03 -6.331153E+01 -2.821394E+00  2.255817E+02 -3.340570E+00  2.312597E+01
        19  23  1.088356E+03 -9.367898E+01  1.708783E+00  2.268951E+02 -3.274497E+00  2.638739E+01
        19  24  1.101147E+03 -1.447989E+02 -8.934773E-01  2.331869E+02 -2.968116E+00  3.082519E+01
        19  25  1.148265E+03 -7.580866E+01 -2.193739E+00  2.045177E+02 -7.082587E-01  2.434521E+01
        19  26  1.176261E+03 -1.117399E+02  2.030601E+00  1.986993E+02  1.846397E-01  2.751337E+01
        19  27  1.200099E+03 -1.658963E+02 -6.279535E-01  1.971569E+02  1.316583E+00  3.171376E+01
        20   1  1.006152E+03  1.975167E+01 -3.051183E-02  2.110179E+02  3.604227E+00 -1.481926E+01
        20   2  1.003687E+03  4.260350E+00  1.061712E+00  2.211889E+02  4.717895E+00 -1.747564E+01
        20   3  9.974846E+02 -2.528316E+01 -1.717773E+00  2.342123E+02  5.779979E+00 -2.042959E+01
        20   4  1.064285E+03  4.831899E+00 -8.517152E-01  2.022818E+02  1.248419E+00 -1.592555E+01
        20   5  1.069177E+03 -1.161372E+01  9.218867E-01  2.092947E+02  2.259130E+00 -1.859649E+01
        20   6  1.071520E+03 -3.981164E+01 -5.059313E-02  2.188983E+02  3.212352E+00 -2.154883E+01
        20   7  1.127043E+03 -6.478241E+00 -9.386279E-01  1.906782E+02 -1.063723E+00 -1.704544E+01
        20   8  1.138568E+03 -2.421954E+01  1.047493E+00  1.950010E+02 -1.467668E-01 -1.973817E+01
        20   9  1.148536E+03 -5.174127E+01  1.256176E+00  2.017155E+02  7.081400E-01 -2.269878E+01
        20  10  1.006152E+03  1.975167E+01 -3.051183E-02  2.110179E+02  2.902092E-13 -6.054723E-13
        20  11  1.003687E+03  4.260350E+00  1.061712E+00  2.211889E+02 -1.064796E-13 -3.674591E-13
        20  12  9.974846E+02 -2.528316E+01 -1.717773E+00  2.342123E+02 -3.215267E-13  3.027362E-14
        20  13  1.064285E+03  4.831899E+00 -8.517152E-01  2.022818E+02  5.010806E-13 -1.544998E-13
        20  14  1.069177E+03 -1.161372E+01  9.218867E-01  2.092947E+02 -3.340537E-14 -2.087836E-14
        20  15  1.071520E+03 -3.981164E+01 -5.059313E-02  2.188983E+02 -3.674591E-13  9.604044E-14
        20  16  1.127043E+03 -6.478241E+00 -9.386279E-01  1.906782E+02  4.008645E-13  3.674591E-13
        20  17  1.138568E+03 -2.421954E+01  1.047493E+00  1.950010E+02  3.424051E-13  3.966888E-13
        20  18  1.148536E+03 -5.174127E+01  1.256176E+00  2.017155E+02 -3.841618E-13  3.872935E-13
        20  19  1.006152E+03  1.975167E+01 -3.051183E-02  2.110179E+02 -3.604227E+00  1.481926E+01
        20  20  1.003687E+03  4.260350E+00  1.061712E+00  2.211889E+02 -4.717895E+00  1.747564E+01
        20  21  9.974846E+02 -2.528316E+01 -1.717773E+00  2.342123E+02 -5.779979E+00  2.042959E+01
        20  22  1.064285E+03  4.831899E+00 -8.517152E-01  2.022818E+02 -1.248419E+00  1.592555E+01
        20  23  1.069177E+03 -1.161372E+01  9.218867E-01  2.092947E+02 -2.259130E+00  1.859649E+01
        20  24  1.071520E+03 -3.981164E+01 -5.059313E-02  2.188983E+02 -3.212352E+00  2.154883E+01
        20  25  1.127043E+03 -6.478241E+00 -9.386279E-01  1.906782E+02  1.063723E+00  1.704544E+01
        20  26  1.138568E+03 -2.421954E+01  1.047493E+00  1.950010E+02  1.467668E-01  1.973817E+01
        20  27  1.148536E+03 -5.174127E+01  1.256176E+00  2.017155E+02 -7.081400E-01  2.269878E+01
        21   1  3.348107E+02  5.517682E-01 -1.523147E+01  5.010958E+01  4.361088E+01 -4.912901E+00
        21   2  3.480806E+02 -4.830198E+01 -6.386244E+00  1.372833E+02  4.501816E+01 -1.737698E+01
        21   3  3.625769E+02 -1.096781E+02 -1.114198E+01  2.264186E+02  4.607913E+01 -2.958349E+01
        21   4  4.446419E+02  1.465531E+01  3.285662E+00  1.211879E+02  3.628225E+01 -1.146713E+01
        21   5  4.794126E+02 -3.521901E+01  7.893941E+00  1.918193E+02  3.565846E+01 -2.159360E+01
        21   6  5.180804E+02 -9.662558E+01  1.065671E+00  2.640516E+02  3.460005E+01 -3.139240E+01
        21   7  5.018526E+02  3.029143E+00 -5.616486E+00  1.857767E+02  3.157868E+01 -1.721301E+01
        21   8  5.583823E+02 -4.710864E+01 -1.971694E+00  2.391826E+02  2.895257E+01 -2.491943E+01
        21   9  6.215666E+02 -1.077859E+02 -7.572212E+00  2.937958E+02  2.579917E+01 -3.222260E+01
        21  10  3.348107E+02  5.517682E-01 -1.523147E+01  5.010958E+01  5.177832E-13  1.670269E-14
        21  11  3.480806E+02 -4.830198E+01 -6.386244E+00  1.372833E+02 -6.681074E-14 -6.994250E-14
        21  12  3.625769E+02 -1.096781E+02 -1.114198E+01  2.264186E+02 -2.087836E-13 -2.558904E-13
        21  13  4.446419E+02  1.465531E+01  3.285662E+00  1.211879E+02  7.516208E-13  1.879052E-13
        21  14  4.794126E+02 -3.521901E+01  7.893941E+00  1.918193E+02  3.340537E-14  7.307425E-14
        21  15  5.180804E+02 -9.662558E+01  1.065671E+00  2.640516E+02 -4.426212E-13 -1.608938E-13
        21  16  5.018526E+02  3.029143E+00 -5.616486E+00  1.857767E+02  5.511886E-13  3.533662E-13
        21  17  5.583823E+02 -4.710864E+01 -1.971694E+00  2.391826E+02 -1.169188E-13  2.009542E-13
        21  18  6.215666E+02 -1.077859E+02 -7.572212E+00  2.937958E+02 -7.761529E-13 -7.287851E-14
        21  19  3.348107E+02  5.517682E-01 -1.523147E+01  5.010958E+01 -4.361088E+01  4.912901E+00
        21  20  3.480806E+02 -4.830198E+01 -6.386244E+00  1.372833E+02 -4.501816E+01  1.737698E+01
        21  21  3.625769E+02 -1.096781E+02 -1.114198E+01  2.264186E+02 -4.607913E+01  2.958349E+01
        21  22  4.446419E+02  1.465531E+01  3.285662E+00  1.211879E+02 -3.628225E+01  1.146713E+01
        21  23  4.794126E+02 -3.521901E+01  7.893941E+00  1.918193E+02 -3.565846E+01  2.159360E+01
        21  24  5.180804E+02 -9.662558E+01  1.065671E+00  2.640516E+02 -3.460005E+01  3.139240E+01
        21  25  5.018526E+02  3.029143E+00 -5.616486E+00  1.857767E+02 -3.157868E+01  1.721301E+01
        21  26  5.583823E+02 -4.710864E+01 -1.971694E+00  2.391826E+02 -2.895257E+01  2.491943E+01
        21  27  6.215666E+02 -1.077859E+02 -7.572212E+00  2.937958E+02 -2.579917E+01  3.222260E+01
        22   1  4.229547E+02 -1.493236E+02 -4.658548E+00  2.699391E+02  4.341378E+01 -3.742409E+01
        22   2  5.372242E+02 -2.346251E+02 -1.008759E+01  3.165460E+02  3.217201E+01 -5.038092E+01
        22   3  7.154740E+02 -2.906952E+02 -6.622992E+00  3.443087E+02  1.750832E+01 -6.079204E+01
        22   4  5.944055E+02 -1.330586E+02  8.522018E+00  2.964032E+02  3.187368E+01 -3.763695E+01
        22   5  7.055821E+02 -2.132580E+02 -1.319366E+00  3.227938E+02  2.224976E+01 -4.750856E+01
        22   6  8.892257E+02 -2.583640E+02  6.325079E+00  3.286088E+02  8.971792E+00 -5.462532E+01
        22   7  7.023998E+02 -1.429396E+02 -1.679318E+00  3.155987E+02  2.216327E+01 -3.714757E+01
        22   8  8.079440E+02 -2.180366E+02 -1.459373E+01  3.210141E+02  1.435064E+01 -4.379189E+01
        22   9  9.947112E+02 -2.520084E+02 -1.298394E+00  3.040085E+02  2.642422E+00 -4.745746E+01
        22  10  4.229547E+02 -1.493236E+02 -4.658548E+00  2.699391E+02 -1.670269E-14 -1.482363E-13
        22  11  5.372242E+02 -2.346251E+02 -1.008759E+01  3.165460E+02  2.839457E-13  1.252701E-14
        22  12  7.154740E+02 -2.906952E+02 -6.622992E+00  3.443087E+02  1.336215E-13  2.009542E-13
        22  13  5.944055E+02 -1.330586E+02  8.522018E+00  2.964032E+02 -2.922970E-14 -2.087836E-14
        22  14  7.055821E+02 -2.132580E+02 -1.319366E+00  3.227938E+02  7.516208E-14  3.340537E-14
        22  15  8.892257E+02 -2.583640E+02  6.325079E+00  3.286088E+02  3.006483E-13  1.038698E-13
        22  16  7.023998E+02 -1.429396E+02 -1.679318E+00  3.155987E+02 -2.672430E-13  6.889858E-14
        22  17  8.079440E+02 -2.180366E+02 -1.459373E+01  3.210141E+02 -5.845940E-14  2.922970E-14
        22  18  9.947112E+02 -2.520084E+02 -1.298394E+00  3.040085E+02  3.110875E-13  2.061738E-14
        22  19  4.229547E+02 -1.493236E+02 -4.658548E+00  2.699391E+02 -4.341378E+01  3.742409E+01
        22  20  5.372242E+02 -2.346251E+02 -1.008759E+01  3.165460E+02 -3.217201E+01  5.038092E+01
        22  21  7.154740E+02 -2.906952E+02 -6.622992E+00  3.443087E+02 -1.750832E+01  6.079204E+01
        22  22  5.944055E+02 -1.330586E+02  8.522018E+00  2.964032E+02 -3.187368E+01  3.763695E+01
        22  23  7.055821E+02 -2.132580E+02 -1.319366E+00  3.227938E+02 -2.224976E+01  4.750856E+01
        22  24  8.892257E+02 -2.583640E+02  6.325079E+00  3.286088E+02 -8.971792E+00  5.462532E+01
        22  25  7.023998E+02 -1.429396E+02 -1.679318E+00  3.155987E+02 -2.216327E+01  3.714757E+01
        22  26  8.079440E+02 -2.180366E+02 -1.459373E+01  3.210141E+02 -1.435064E+01  4.379189E+01
        22  27  9.947112E+02 -2.520084E+02 -1.298394E+00  3.040085E+02 -2.642422E+00  4.745746E+01
        23   1  7.871287E+02 -1.396225E+02  2.937534E+00  3.093075E+02  1.923423E+01 -3.707758E+01
        23   2  9.032401E+02 -2.017974E+02 -3.262228E+00  3.016282E+02  1.081614E+01 -4.112468E+01
        23   3  1.064156E+03 -2.371665E+02  3.447614E+00  2.794589E+02  4.690020E-01 -4.368397E+01
        23   4  8.998037E+02 -1.325814E+02  4.133604E+00  2.913197E+02  1.314437E+01 -3.417011E+01
        23   5  9.992125E+02 -1.853516E+02 -3.675953E+00  2.745169E+02  6.658315E+00 -3.709226E+01
        23   6  1.148519E+03 -2.072524E+02  6.485602E+00  2.419351E+02 -1.872283E+00 -3.841277E+01
        23   7  9.899185E+02 -1.299547E+02  1.589602E+00  2.738462E+02  7.343378E+00 -3.115181E+01
        23   8  1.070188E+03 -1.734753E+02 -8.354138E+00  2.476978E+02  2.921290E+00 -3.288426E+01
        23   9  1.205626E+03 -1.819012E+02  4.836221E+00  2.043972E+02 -3.665139E+00 -3.289281E+01
        23  10  7.871287E+02 -1.396225E+02  2.937534E+00  3.093075E+02  1.002161E-13 -2.338376E-13
        23  11  9.032401E+02 -2.017974E+02 -3.262228E+00  3.016282E+02  1.503242E-13 -1.043918E-13
        23  12  1.064156E+03 -2.371665E+02  3.447614E+00  2.794589E+02  1.670269E-13 -1.931248E-14
        23  13  8.998037E+02 -1.325814E+02  4.133604E+00  2.913197E+02 -7.516208E-14  6.263507E-14
        23  14  9.992125E+02 -1.853516E+02 -3.675953E+00  2.745169E+02 -5.010806E-14  8.768910E-14
        23  15  1.148519E+03 -2.072524E+02  6.485602E+00  2.419351E+02 -1.670269E-13  5.950332E-14
        23  16  9.899185E+02 -1.299547E+02  1.589602E+00  2.738462E+02 -1.670269E-13  3.674591E-13
        23  17  1.070188E+03 -1.734753E+02 -8.354138E+00  2.476978E+02 -4.843779E-13  3.152632E-13
        23  18  1.205626E+03 -1.819012E+02  4.836221E+00  2.043972E+02 -2.275741E-13  1.101333E-13
        23  19  7.871287E+02 -1.396225E+02  2.937534E+00  3.093075E+02 -1.923423E+01  3.707758E+01
        23  20  9.032401E+02 -2.017974E+02 -3.262228E+00  3.016282E+02 -1.081614E+01  4.112468E+01
        23  21  1.064156E+03 -2.371665E+02  3.447614E+00  2.794589E+02 -4.690020E-01  4.368397E+01
        23  22  8.998037E+02 -1.325814E+02  4.133604E+00  2.913197E+02 -1.314437E+01  3.417011E+01
        23  23  9.992125E+02 -1.853516E+02 -3.675953E+00  2.745169E+02 -6.658315E+00  3.709226E+01
        23  24  1.148519E+03 -2.072524E+02  6.485602E+00  2.419351E+02  1.872283E+00  3.841277E+01
        23  25  9.899185E+02 -1.299547E+02  1.589602E+00  2.738462E+02 -7.343378E+00  3.115181E+01
        23  26  1.070188E+03 -1.734753E+02 -8.354138E+00  2.476978E+02 -2.921290E+00  3.288426E+01
        23  27  1.205626E+03 -1.819012E+02  4.836221E+00  2.043972E+02  3.665139E+00  3.289281E+01
        24   1  5.572324E+02 -1.918876E+00 -5.341262E+00  2.101415E+02  2.883254E+01 -1.955539E+01
        24   2  6.170585E+02 -5.990288E+01 -6.317138E+00  2.575263E+02  2.637274E+01 -2.678124E+01
        24   3  7.005834E+02 -1.113447E+02 -5.642138E+00  2.991397E+02  2.321715E+01 -3.347039E+01
        24   4  6.814613E+02 -3.835276E+00  5.606954E+00  2.343885E+02  2.224569E+01 -2.124853E+01
        24   5  7.457076E+02 -5.596479E+01  3.140508E+00  2.661139E+02  1.924290E+01 -2.685520E+01
        24   6  8.372755E+02 -9.941574E+01  5.249285E+00  2.912424E+02  1.546381E+01 -3.185370E+01
        24   7  7.586451E+02 -2.432987E+01 -2.826560E+00  2.560982E+02  1.738856E+01 -2.240903E+01
        24   8  8.259938E+02 -7.040807E+01 -5.385466E+00  2.716111E+02  1.390109E+01 -2.632901E+01
        24   9  9.244151E+02 -1.056011E+02 -3.853611E-01  2.796404E+02  9.553222E+00 -2.956366E+01
        24  10  5.572324E+02 -1.918876E+00 -5.341262E+00  2.101415E+02  6.347020E-13  6.576682E-14
        24  11  6.170585E+02 -5.990288E+01 -6.317138E+00  2.575263E+02  2.004322E-13 -3.538881E-13
        24  12  7.005834E+02 -1.113447E+02 -5.642138E+00  2.991397E+02 -2.087836E-13 -5.579741E-13
        24  13  6.814613E+02 -3.835276E+00  5.606954E+00  2.343885E+02  2.505403E-13 -3.340537E-14
        24  14  7.457076E+02 -5.596479E+01  3.140508E+00  2.661139E+02 -1.753782E-13 -2.421889E-13
        24  15  8.372755E+02 -9.941574E+01  5.249285E+00  2.912424E+02 -1.753782E-13 -2.354035E-13
        24  16  7.586451E+02 -2.432987E+01 -2.826560E+00  2.560982E+02  8.351343E-14 -1.137870E-13
        24  17  8.259938E+02 -7.040807E+01 -5.385466E+00  2.716111E+02 -3.340537E-14 -7.516208E-14
        24  18  9.244151E+02 -1.056011E+02 -3.853611E-01  2.796404E+02 -1.503242E-13  1.299678E-13
        24  19  5.572324E+02 -1.918876E+00 -5.341262E+00  2.101415E+02 -2.883254E+01  1.955539E+01
        24  20  6.170585E+02 -5.990288E+01 -6.317138E+00  2.575263E+02 -2.637274E+01  2.678124E+01
        24  21  7.005834E+02 -1.113447E+02 -5.642138E+00  2.991397E+02 -2.321715E+01  3.347039E+01
        24  22  6.814613E+02 -3.835276E+00  5.606954E+00  2.343885E+02 -2.224569E+01  2.124853E+01
        24  23  7.457076E+02 -5.596479E+01  3.140508E+00  2.661139E+02 -1.924290E+01  2.685520E+01
        24  24  8.372755E+02 -9.941574E+01  5.249285E+00  2.912424E+02 -1.546381E+01  3.185370E+01
        24  25  7.586451E+02 -2.432987E+01 -2.826560E+00  2.560982E+02 -1.738856E+01  2.240903E+01
        24  26  8.259938E+02 -7.040807E+01 -5.385466E+00  2.716111E+02 -1.390109E+01  2.632901E+01
        24  27  9.244151E+02 -1.056011E+02 -3.853611E-01  2.796404E+02 -9.553222E+00  2.956366E+01
        25   1  8.429826E+02  8.089853E+01  7.126226E-01  1.748889E+02  1.019714E+01 -1.005339E+01
        25   2  8.003768E+02  9.368548E+01 -2.763555E-01  1.470018E+02  1.198838E+01 -8.103033E+00
        25   3  7.674694E+02  1.102511E+02  7.826428E-01  1.175222E+02  1.342242E+01 -6.127209E+00
        25   4  8.237617E+02  7.003966E+01  5.652167E-01  1.868955E+02  1.158169E+01 -1.182927E+01
        25   5  7.712661E+02  8.251511E+01 -1.173460E+00  1.585560E+02  1.380216E+01 -9.683365E+00
        25   6  7.303891E+02  9.928774E+01 -1.749559E-01  1.286848E+02  1.559495E+01 -7.538482E+00
        25   7  8.040134E+02  5.605078E+01  4.646723E-01  2.017909E+02  1.295116E+01 -1.389605E+01
        25   8  7.419001E+02  6.893492E+01 -1.286075E+00  1.724404E+02  1.560753E+01 -1.148633E+01
        25   9  6.933643E+02  8.657357E+01  3.828417E-01  1.417071E+02  1.776321E+01 -9.115331E+00
        25  10  8.429826E+02  8.089853E+01  7.126226E-01  1.748889E+02 -1.035566E-12  1.586755E-13
        25  11  8.003768E+02  9.368548E+01 -2.763555E-01  1.470018E+02 -3.841618E-13 -2.818578E-14
        25  12  7.674694E+02  1.102511E+02  7.826428E-01  1.175222E+02 -3.883374E-13 -1.265750E-13
        25  13  8.237617E+02  7.003966E+01  5.652167E-01  1.868955E+02  3.168291E-13 -2.046079E-13
        25  14  7.712661E+02  8.251511E+01 -1.173460E+00  1.585560E+02  1.618073E-14 -1.753782E-13
        25  15  7.303891E+02  9.928774E+01 -1.749559E-01  1.286848E+02  9.055987E-14 -1.252701E-13
        25  16  8.040134E+02  5.605078E+01  4.646723E-01  2.017909E+02  1.002161E-12 -1.962566E-13
        25  17  7.419001E+02  6.893492E+01 -1.286075E+00  1.724404E+02  1.085675E-12  0.000000E+00
        25  18  6.933643E+02  8.657357E+01  3.828417E-01  1.417071E+02  2.797700E-13  2.455817E-13
        25  19  8.429826E+02  8.089853E+01  7.126226E-01  1.748889E+02 -1.019714E+01  1.005339E+01
        25  20  8.003768E+02  9.368548E+01 -2.763555E-01  1.470018E+02 -1.198838E+01  8.103033E+00
        25  21  7.674694E+02  1.102511E+02  7.826428E-01  1.175222E+02 -1.342242E+01  6.127209E+00
        25  22  8.237617E+02  7.003966E+01  5.652167E-01  1.868955E+02 -1.158169E+01  1.182927E+01
        25  23  7.712661E+02  8.251511E+01 -1.173460E+00  1.585560E+02 -1.380216E+01  9.683365E+00
        25  24  7.303891E+02  9.928774E+01 -1.749559E-01  1.286848E+02 -1.559495E+01  7.538482E+00
        25  25  8.040134E+02  5.605078E+01  4.646723E-01  2.017909E+02 -1.295116E+01  1.389605E+01
        25  26  7.419001E+02  6.893492E+01 -1.286075E+00  1.724404E+02 -1.560753E+01  1.148633E+01
        25  27  6.933643E+02  8.657357E+01  3.828417E-01  1.417071E+02 -1.776321E+01  9.115331E+00
        26   1  7.510815E+02  1.183319E+02  9.578860E-01  9.498328E+01  1.415209E+01 -5.322826E+00
        26   2  7.317637E+02  1.214875E+02 -9.549608E-01  5.409382E+01  1.494623E+01 -2.867355E+00
        26   3  7.303041E+02  1.315727E+02  2.156665E+00  1.246427E+01  1.506878E+01 -3.639845E-01
        26   4  7.104932E+02  1.102547E+02  1.163923E+00  1.049458E+02  1.653827E+01 -6.742582E+00
        26   5  6.822178E+02  1.117623E+02 -1.909436E+00  5.965108E+01  1.771946E+01 -3.591005E+00
        26   6  6.731185E+02  1.204969E+02 -5.904343E-02  1.387982E+01  1.816868E+01 -4.411667E-01
        26   7  6.694789E+02  9.909786E+01  2.629625E+00  1.172300E+02  1.891958E+01 -8.410140E+00
        26   8  6.327143E+02  9.981468E+01 -6.589418E-01  6.697879E+01  2.049086E+01 -4.492064E+00
        26   9  6.164533E+02  1.079969E+02  8.606257E-01  1.659086E+01  2.126836E+01 -6.353952E-01
        26  10  7.510815E+02  1.183319E+02  9.578860E-01  9.498328E+01 -1.670269E-13  7.265668E-13
        26  11  7.317637E+02  1.214875E+02 -9.549608E-01  5.409382E+01  3.340537E-14  4.123475E-14
        26  12  7.303041E+02  1.315727E+02  2.156665E+00  1.246427E+01 -3.089997E-13 -6.553194E-13
        26  13  7.104932E+02  1.102547E+02  1.163923E+00  1.049458E+02  3.812910E-13  4.739387E-13
        26  14  6.822178E+02  1.117623E+02 -1.909436E+00  5.965108E+01  6.350935E-13  7.307425E-14
        26  15  6.731185E+02  1.204969E+02 -5.904343E-02  1.387982E+01 -7.736410E-14 -3.507564E-13
        26  16  6.694789E+02  9.909786E+01  2.629625E+00  1.172300E+02  3.006483E-13  9.290869E-14
        26  17  6.327143E+02  9.981468E+01 -6.589418E-01  6.697879E+01  9.854584E-13  7.516208E-14
        26  18  6.164533E+02  1.079969E+02  8.606257E-01  1.659086E+01  5.971210E-13  1.683318E-14
        26  19  7.510815E+02  1.183319E+02  9.578860E-01  9.498328E+01 -1.415209E+01  5.322826E+00
        26  20  7.317637E+02  1.214875E+02 -9.549608E-01  5.409382E+01 -1.494623E+01  2.867355E+00
        26  21  7.303041E+02  1.315727E+02  2.156665E+00  1.246427E+01 -1.506878E+01  3.639845E-01
        26  22  7.104932E+02  1.102547E+02  1.163923E+00  1.049458E+02 -1.653827E+01  6.742582E+00
        26  23  6.822178E+02  1.117623E+02 -1.909436E+00  5.965108E+01 -1.771946E+01  3.591005E+00
        26  24  6.731185E+02  1.204969E+02 -5.904343E-02  1.387982E+01 -1.816868E+01  4.411667E-01
        26  25  6.694789E+02  9.909786E+01  2.629625E+00  1.172300E+02 -1.891958E+01  8.410140E+00
        26  26  6.327143E+02  9.981468E+01 -6.589418E-01  6.697879E+01 -2.049086E+01  4.492064E+00
        26  27  6.164533E+02  1.079969E+02  8.606257E-01  1.659086E+01 -2.126836E+01  6.353952E-01
        27   1  6.383796E+02  8.853971E+01  1.376261E+00  1.257572E+02  2.133984E+01 -9.289372E+00
        27   2  5.966908E+02  8.916869E+01 -1.718736E+00  7.155302E+01  2.302877E+01 -4.963587E+00
        27   3  5.825016E+02  1.000148E+02  2.632834E+00  1.754339E+01  2.407386E+01 -7.160955E-01
        27   4  5.840893E+02  6.422135E+01  3.795252E-01  1.402517E+02  2.543506E+01 -1.129241E+01
        27   5  5.282705E+02  6.408326E+01 -3.329422E+00  7.904244E+01  2.829096E+01 -6.141380E+00
        27   6  5.024035E+02  7.470590E+01  9.098369E-01  1.851339E+01  3.034024E+01 -1.150593E+00
        27   7  5.276380E+02  3.121110E+01  8.555146E-02  1.592819E+02  2.951056E+01 -1.429612E+01
        27   8  4.589609E+02  3.250258E+01 -1.732695E+00  9.010895E+01  3.354484E+01 -8.122955E+00
        27   9  4.226798E+02  4.493282E+01  4.846856E+00  2.223806E+01  3.660524E+01 -2.219640E+00
        27  10  6.383796E+02  8.853971E+01  1.376261E+00  1.257572E+02 -1.670269E-14  2.401011E-14
        27  11  5.966908E+02  8.916869E+01 -1.718736E+00  7.155302E+01  1.670269E-14  2.870774E-14
        27  12  5.825016E+02  1.000148E+02  2.632834E+00  1.754339E+01  5.010806E-14  2.609795E-16
        27  13  5.840893E+02  6.422135E+01  3.795252E-01  1.402517E+02 -2.899482E-13  1.336215E-13
        27  14  5.282705E+02  6.408326E+01 -3.329422E+00  7.904244E+01  2.203319E-13  4.175671E-14
        27  15  5.024035E+02  7.470590E+01  9.098369E-01  1.851339E+01 -5.736655E-14 -4.201769E-14
        27  16  5.276380E+02  3.121110E+01  8.555146E-02  1.592819E+02 -2.839457E-13  9.917219E-14
        27  17  4.589609E+02  3.250258E+01 -1.732695E+00  9.010895E+01  1.670269E-13 -3.001264E-15
        27  18  4.226798E+02  4.493282E+01  4.846856E+00  2.223806E+01 -1.712025E-13 -1.072626E-13
        27  19  6.383796E+02  8.853971E+01  1.376261E+00  1.257572E+02 -2.133984E+01  9.289372E+00
        27  20  5.966908E+02  8.916869E+01 -1.718736E+00  7.155302E+01 -2.302877E+01  4.963587E+00
        27  21  5.825016E+02  1.000148E+02  2.632834E+00  1.754339E+01 -2.407386E+01  7.160955E-01
        27  22  5.840893E+02  6.422135E+01  3.795252E-01  1.402517E+02 -2.543506E+01  1.129241E+01
        27  23  5.282705E+02  6.408326E+01 -3.329422E+00  7.904244E+01 -2.829096E+01  6.141380E+00
        27  24  5.024035E+02  7.470590E+01  9.098369E-01  1.851339E+01 -3.034024E+01  1.150593E+00
        27  25  5.276380E+02  3.121110E+01  8.555146E-02  1.592819E+02 -2.951056E+01  1.429612E+01
        27  26  4.589609E+02  3.250258E+01 -1.732695E+00  9.010895E+01 -3.354484E+01  8.122955E+00
        27  27  4.226798E+02  4.493282E+01  4.846856E+00  2.223806E+01 -3.660524E+01  2.219640E+00
        28   1  7.925579E+02  4.567494E+01  2.662536E-01  2.095797E+02  1.377971E+01 -1.507355E+01
        28   2  7.300579E+02  6.137906E+01  1.012484E+00  1.811688E+02  1.660885E+01 -1.272813E+01
        28   3  6.698669E+02  7.685468E+01  5.038641E-01  1.511636E+02  1.976019E+01 -1.034353E+01
        28   4  7.720842E+02  2.378023E+01 -4.206907E-01  2.237578E+02  1.557921E+01 -1.729294E+01
        28   5  6.951375E+02  3.838283E+01 -7.240711E-01  1.963424E+02  1.932336E+01 -1.531775E+01
        28   6  6.235566E+02  5.384089E+01 -3.068940E-01  1.674218E+02  2.325507E+01 -1.330529E+01
        28   7  7.512361E+02 -1.763954E+00 -8.315125E-01  2.425975E+02  1.734017E+01 -2.025646E+01
        28   8  6.602513E+02  1.265792E+01 -8.911429E-01  2.153650E+02  2.201502E+01 -1.851344E+01
        28   9  5.777646E+02  2.896881E+01  1.752645E+00  1.868487E+02  2.673728E+01 -1.675725E+01
        28  10  7.925579E+02  4.567494E+01  2.662536E-01  2.095797E+02  6.012967E-13 -1.837295E-13
        28  11  7.300579E+02  6.137906E+01  1.012484E+00  1.811688E+02  2.338376E-13  8.142559E-14
        28  12  6.698669E+02  7.685468E+01  5.038641E-01  1.511636E+02  2.421889E-13  3.708518E-13
        28  13  7.720842E+02  2.378023E+01 -4.206907E-01  2.237578E+02  2.447987E-13 -8.768910E-14
        28  14  6.951375E+02  3.838283E+01 -7.240711E-01  1.963424E+02 -7.255229E-14  7.516208E-14
        28  15  6.235566E+02  5.384089E+01 -3.068940E-01  1.674218E+02 -1.205725E-13  2.776821E-13
        28  16  7.512361E+02 -1.763954E+00 -8.315125E-01  2.425975E+02 -5.344859E-13 -2.150471E-13
        28  17  6.602513E+02  1.265792E+01 -8.911429E-01  2.153650E+02 -5.511886E-13 -7.672796E-14
        28  18  5.777646E+02  2.896881E+01  1.752645E+00  1.868487E+02 -2.505403E-14  3.966888E-14
        28  19  7.925579E+02  4.567494E+01  2.662536E-01  2.095797E+02 -1.377971E+01  1.507355E+01
        28  20  7.300579E+02  6.137906E+01  1.012484E+00  1.811688E+02 -1.660885E+01  1.272813E+01
        28  21  6.698669E+02  7.685468E+01  5.038641E-01  1.511636E+02 -1.976019E+01  1.034353E+01
        28  22  7.720842E+02  2.378023E+01 -4.206907E-01  2.237578E+02 -1.557921E+01  1.729294E+01
        28  23  6.951375E+02  3.838283E+01 -7.240711E-01  1.963424E+02 -1.932336E+01  1.531775E+01
        28  24  6.235566E+02  5.384089E+01 -3.068940E-01  1.674218E+02 -2.325507E+01  1.330529E+01
        28  25  7.512361E+02 -1.763954E+00 -8.315125E-01  2.425975E+02 -1.734017E+01  2.025646E+01
        28  26  6.602513E+02  1.265792E+01 -8.911429E-01  2.153650E+02 -2.201502E+01  1.851344E+01
        28  27  5.777646E+02  2.896881E+01  1.752645E+00  1.868487E+02 -2.673728E+01  1.675725E+01
        29   1  1.200979E+03 -2.354070E+00 -3.083173E+01 -5.118572E+01  1.934913E+01  7.521565E+00
        29   2  1.305013E+03 -1.075927E+00 -1.022393E+01 -1.249602E+02  1.267006E+01  1.587419E+01
        29   3  1.395428E+03 -8.230323E+00 -4.123049E+00 -1.980683E+02  2.175689E+00  2.421633E+01
        29   4  1.089406E+03 -1.364608E+00 -4.608024E+01 -3.965661E+01  1.771053E+01  1.186659E+01
        29   5  1.225226E+03  1.105558E+01 -1.792017E+01 -1.080006E+02  1.189298E+01  2.396172E+01
        29   6  1.344589E+03  1.278612E+01 -8.950018E+00 -1.756612E+02  2.024261E+00  3.604769E+01
        29   7  9.770056E+02 -1.899293E+00 -6.357346E+01 -4.085489E+01  1.608070E+01  1.525573E+01
        29   8  1.146588E+03  2.282406E+01 -2.581079E+01 -1.034434E+02  1.114445E+01  3.135055E+01
        29   9  1.296806E+03  3.457099E+01 -1.195063E+01 -1.653297E+02  1.904888E+00  4.743790E+01
        29  10  1.200979E+03 -2.354070E+00 -3.083173E+01 -5.118572E+01  4.175671E-14 -4.175671E-14
        29  11  1.305013E+03 -1.075927E+00 -1.022393E+01 -1.249602E+02 -1.377972E-13  0.000000E+00
        29  12  1.395428E+03 -8.230323E+00 -4.123049E+00 -1.980683E+02 -3.622395E-13  7.516208E-14
        29  13  1.089406E+03 -1.364608E+00 -4.608024E+01 -3.965661E+01 -7.046445E-15  1.837295E-13
        29  14  1.225226E+03  1.105558E+01 -1.792017E+01 -1.080006E+02 -5.376177E-14  2.171349E-13
        29  15  1.344589E+03  1.278612E+01 -8.950018E+00 -1.756612E+02 -1.774660E-14  1.503242E-13
        29  16  9.770056E+02 -1.899293E+00 -6.357346E+01 -4.085489E+01 -1.503242E-13  1.085675E-13
        29  17  1.146588E+03  2.282406E+01 -2.581079E+01 -1.034434E+02  5.010806E-14 -5.845940E-14
        29  18  1.296806E+03  3.457099E+01 -1.195063E+01 -1.653297E+02  1.952126E-13 -1.670269E-14
        29  19  1.200979E+03 -2.354070E+00 -3.083173E+01 -5.118572E+01 -1.934913E+01 -7.521565E+00
        29  20  1.305013E+03 -1.075927E+00 -1.022393E+01 -1.249602E+02 -1.267006E+01 -1.587419E+01
        29  21  1.395428E+03 -8.230323E+00 -4.123049E+00 -1.980683E+02 -2.175689E+00 -2.421633E+01
        29  22  1.089406E+03 -1.364608E+00 -4.608024E+01 -3.965661E+01 -1.771053E+01 -1.186659E+01
        29  23  1.225226E+03  1.105558E+01 -1.792017E+01 -1.080006E+02 -1.189298E+01 -2.396172E+01
        29  24  1.344589E+03  1.278612E+01 -8.950018E+00 -1.756612E+02 -2.024261E+00 -3.604769E+01
        29  25  9.770056E+02 -1.899293E+00 -6.357346E+01 -4.085489E+01 -1.608070E+01 -1.525573E+01
        29  26  1.146588E+03  2.282406E+01 -2.581079E+01 -1.034434E+02 -1.114445E+01 -3.135055E+01
        29  27  1.296806E+03  3.457099E+01 -1.195063E+01 -1.653297E+02 -1.904888E+00 -4.743790E+01
        30   1  1.447335E+03 -4.210803E+00 -8.640761E-01 -2.160185E+02 -4.850081E+00  2.365686E+01
        30   2  1.534998E+03 -2.222879E+01 -1.685722E+00 -2.054606E+02 -1.824763E+01  2.235033E+01
        30   3  1.642728E+03 -3.129973E+01  7.393610E+00 -2.008740E+02 -3.394319E+01  2.103736E+01
        30   4  1.409966E+03  2.530099E+01 -5.111116E+00 -1.967732E+02 -4.497289E+00  3.592126E+01
        30   5  1.515862E+03  3.086635E+01 -4.989825E+00 -1.942172E+02 -1.712013E+01  3.707246E+01
        30   6  1.642023E+03  4.471983E+01  2.620945E+00 -1.980705E+02 -3.219600E+01  3.821805E+01
        30   7  1.376507E+03  5.983294E+01 -5.267973E+00 -1.826032E+02 -4.076281E+00  4.743613E+01
        30   8  1.502915E+03  9.177701E+01 -1.274739E+00 -1.886072E+02 -1.592141E+01  5.121373E+01
        30   9  1.649891E+03  1.313977E+02  7.842588E+00 -2.014892E+02 -3.038531E+01  5.498676E+01
        30  10  1.447335E+03 -4.210803E+00 -8.640761E-01 -2.160185E+02 -4.342698E-13 -4.092158E-13
        30  11  1.534998E+03 -2.222879E+01 -1.685722E+00 -2.054606E+02 -4.342698E-13  4.175671E-14
        30  12  1.642728E+03 -3.129973E+01  7.393610E+00 -2.008740E+02 -2.233984E-13  3.591077E-13
        30  13  1.409966E+03  2.530099E+01 -5.111116E+00 -1.967732E+02 -7.307425E-14  1.670269E-14
        30  14  1.515862E+03  3.086635E+01 -4.989825E+00 -1.942172E+02 -9.812828E-14  3.340537E-14
        30  15  1.642023E+03  4.471983E+01  2.620945E+00 -1.980705E+02 -1.398850E-13 -2.338376E-13
        30  16  1.376507E+03  5.983294E+01 -5.267973E+00 -1.826032E+02  1.837295E-13  1.336215E-13
        30  17  1.502915E+03  9.177701E+01 -1.274739E+00 -1.886072E+02  1.002161E-13 -3.340537E-14
        30  18  1.649891E+03  1.313977E+02  7.842588E+00 -2.014892E+02  1.085675E-13 -2.046079E-13
        30  19  1.447335E+03 -4.210803E+00 -8.640761E-01 -2.160185E+02  4.850081E+00 -2.365686E+01
        30  20  1.534998E+03 -2.222879E+01 -1.685722E+00 -2.054606E+02  1.824763E+01 -2.235033E+01
        30  21  1.642728E+03 -3.129973E+01  7.393610E+00 -2.008740E+02  3.394319E+01 -2.103736E+01
        30  22  1.409966E+03  2.530099E+01 -5.111116E+00 -1.967732E+02  4.497289E+00 -3.592126E+01
        30  23  1.515862E+03  3.086635E+01 -4.989825E+00 -1.942172E+02  1.712013E+01 -3.707246E+01
        30  24  1.642023E+03  4.471983E+01  2.620945E+00 -1.980705E+02  3.219600E+01 -3.821805E+01
        30  25  1.376507E+03  5.983294E+01 -5.267973E+00 -1.826032E+02  4.076281E+00 -4.743613E+01
        30  26  1.502915E+03  9.177701E+01 -1.274739E+00 -1.886072E+02  1.592141E+01 -5.121373E+01
        30  27  1.649891E+03  1.313977E+02  7.842588E+00 -2.014892E+02  3.038531E+01 -5.498676E+01
        31   1  1.342206E+03  7.515393E+01 -1.034162E+01 -1.508477E+02 -2.816837E+00  5.367238E+01
        31   2  1.481735E+03  1.198659E+02 -3.558817E+00 -1.570934E+02 -1.257147E+01  5.853237E+01
        31   3  1.630428E+03  1.671060E+02  2.519885E+00 -1.659749E+02 -2.336299E+01  6.339090E+01
        31   4  1.316990E+03  1.006272E+02 -7.312471E+00 -8.725286E+01 -1.478991E+00  6.112962E+01
        31   5  1.459444E+03  1.536162E+02 -2.096226E+00 -8.982728E+01 -6.932464E+00  6.700427E+01
        31   6  1.611588E+03  2.091355E+02  1.884438E+00 -9.522250E+01 -1.348243E+01  7.287799E+01
        31   7  1.279354E+03  9.452674E+01 -1.554387E+01 -2.461642E+01  3.144888E-01  6.357462E+01
        31   8  1.427982E+03  1.592875E+02 -5.392157E+00 -2.356268E+01 -6.876361E-01  7.053512E+01
        31   9  1.586897E+03  2.266119E+02  3.023178E+00 -2.552888E+01 -2.850236E+00  7.749533E+01
        31  10  1.342206E+03  7.515393E+01 -1.034162E+01 -1.508477E+02  2.296619E-13  3.424051E-13
        31  11  1.481735E+03  1.198659E+02 -3.558817E+00 -1.570934E+02  2.922970E-13  2.505403E-14
        31  12  1.630428E+03  1.671060E+02  2.519885E+00 -1.659749E+02  2.233984E-13 -1.252701E-13
        31  13  1.316990E+03  1.006272E+02 -7.312471E+00 -8.725286E+01  3.549321E-14  1.169188E-13
        31  14  1.459444E+03  1.536162E+02 -2.096226E+00 -8.982728E+01  7.724992E-14  8.351343E-14
        31  15  1.611588E+03  2.091355E+02  1.884438E+00 -9.522250E+01  2.714186E-14 -2.505403E-13
        31  16  1.279354E+03  9.452674E+01 -1.554387E+01 -2.461642E+01 -1.962566E-13  1.085675E-13
        31  17  1.427982E+03  1.592875E+02 -5.392157E+00 -2.356268E+01 -1.712025E-13 -5.845940E-14
        31  18  1.586897E+03  2.266119E+02  3.023178E+00 -2.552888E+01 -6.211311E-14  8.351343E-14
        31  19  1.342206E+03  7.515393E+01 -1.034162E+01 -1.508477E+02  2.816837E+00 -5.367238E+01
        31  20  1.481735E+03  1.198659E+02 -3.558817E+00 -1.570934E+02  1.257147E+01 -5.853237E+01
        31  21  1.630428E+03  1.671060E+02  2.519885E+00 -1.659749E+02  2.336299E+01 -6.339090E+01
        31  22  1.316990E+03  1.006272E+02 -7.312471E+00 -8.725286E+01  1.478991E+00 -6.112962E+01
        31  23  1.459444E+03  1.536162E+02 -2.096226E+00 -8.982728E+01  6.932464E+00 -6.700427E+01
        31  24  1.611588E+03  2.091355E+02  1.884438E+00 -9.522250E+01  1.348243E+01 -7.287799E+01
        31  25  1.279354E+03  9.452674E+01 -1.554387E+01 -2.461642E+01 -3.144888E-01 -6.357462E+01
        31  26  1.427982E+03  1.592875E+02 -5.392157E+00 -2.356268E+01  6.876361E-01 -7.053512E+01
        31  27  1.586897E+03  2.266119E+02  3.023178E+00 -2.552888E+01  2.850236E+00 -7.749533E+01
        32   1  8.982437E+02 -1.183057E+01 -8.183110E+01 -3.347385E+01  1.291762E+01  1.729768E+01
        32   2  1.108449E+03  2.928644E+01 -2.903800E+01 -8.533609E+01  8.247404E+00  3.504695E+01
        32   3  1.260137E+03  4.026857E+01 -1.818413E+01 -1.366391E+02  1.645844E+00  5.279351E+01
        32   4  8.469152E+02 -5.280024E+00 -8.512032E+01 -1.494048E+01  7.812089E+00  1.993745E+01
        32   5  1.068639E+03  3.968724E+01 -2.978794E+01 -4.593688E+01  5.498205E+00  3.926620E+01
        32   6  1.227428E+03  5.237041E+01 -1.913781E+01 -7.635452E+01  1.155588E+00  5.859327E+01
        32   7  7.882885E+02 -1.252757E+01 -9.963072E+01 -5.058493E+00  2.732268E+00  1.978069E+01
        32   8  1.023668E+03  3.795967E+01 -3.820464E+01 -1.373018E+01  2.858384E+00  4.080543E+01
        32   9  1.191393E+03  5.388472E+01 -2.433260E+01 -2.180052E+01  8.510827E-01  6.182976E+01
        32  10  8.982437E+02 -1.183057E+01 -8.183110E+01 -3.347385E+01  4.593238E-13  1.169188E-13
        32  11  1.108449E+03  2.928644E+01 -2.903800E+01 -8.533609E+01  3.591077E-13  2.505403E-14
        32  12  1.260137E+03  4.026857E+01 -1.818413E+01 -1.366391E+02  2.374913E-13 -5.845940E-14
        32  13  8.469152E+02 -5.280024E+00 -8.512032E+01 -1.494048E+01  1.174408E-15  0.000000E+00
        32  14  1.068639E+03  3.968724E+01 -2.978794E+01 -4.593688E+01 -5.741548E-15 -1.336215E-13
        32  15  1.227428E+03  5.237041E+01 -1.913781E+01 -7.635452E+01  1.357093E-14  1.002161E-13
        32  16  7.882885E+02 -1.252757E+01 -9.963072E+01 -5.058493E+00 -4.384455E-13  2.254863E-13
        32  17  1.023668E+03  3.795967E+01 -3.820464E+01 -1.373018E+01 -2.922970E-13 -1.336215E-13
        32  18  1.191393E+03  5.388472E+01 -2.433260E+01 -2.180052E+01 -4.139134E-13 -1.670269E-14
        32  19  8.982437E+02 -1.183057E+01 -8.183110E+01 -3.347385E+01 -1.291762E+01 -1.729768E+01
        32  20  1.108449E+03  2.928644E+01 -2.903800E+01 -8.533609E+01 -8.247404E+00 -3.504695E+01
        32  21  1.260137E+03  4.026857E+01 -1.818413E+01 -1.366391E+02 -1.645844E+00 -5.279351E+01
        32  22  8.469152E+02 -5.280024E+00 -8.512032E+01 -1.494048E+01 -7.812089E+00 -1.993745E+01
        32  23  1.068639E+03  3.968724E+01 -2.978794E+01 -4.593688E+01 -5.498205E+00 -3.926620E+01
        32  24  1.227428E+03  5.237041E+01 -1.913781E+01 -7.635452E+01 -1.155588E+00 -5.859327E+01
        32  25  7.882885E+02 -1.252757E+01 -9.963072E+01 -5.058493E+00 -2.732268E+00 -1.978069E+01
        32  26  1.023668E+03  3.795967E+01 -3.820464E+01 -1.373018E+01 -2.858384E+00 -4.080543E+01
        32  27  1.191393E+03  5.388472E+01 -2.433260E+01 -2.180052E+01 -8.510827E-01 -6.182976E+01
        33   1  9.601851E+02  1.126202E+02  1.081825E+00  1.030331E+02  4.981514E+00 -1.101249E+00
        33   2  9.436760E+02  1.218861E+02 -1.813837E-01  8.621575E+01  6.257108E+00 -8.019796E-01
        33   3  9.334531E+02  1.337598E+02  8.841401E-01  6.882479E+01  7.267421E+00 -4.983239E-01
        33   4  9.406018E+02  1.072584E+02  1.269378E-02  1.149876E+02  5.484245E+00 -2.656131E+00
        33   5  9.202232E+02  1.167750E+02 -9.977417E-01  9.594342E+01  6.738083E+00 -2.047298E+00
        33   6  9.060255E+02  1.287692E+02 -8.404738E-02  7.627031E+01  7.715678E+00 -1.429908E+00
        33   7  9.227324E+02  1.042820E+02  9.230655E-01  1.288899E+02  5.987858E+00 -4.200150E+00
        33   8  8.983708E+02  1.140651E+02  4.824465E-02  1.075889E+02  7.220598E+00 -3.269057E+00
        33   9  8.800863E+02  1.261995E+02  6.946365E-01  8.560081E+01  8.165740E+00 -2.324742E+00
        33  10  9.601851E+02  1.126202E+02  1.081825E+00  1.030331E+02 -1.336215E-13  5.637156E-14
        33  11  9.436760E+02  1.218861E+02 -1.813837E-01  8.621575E+01 -1.670269E-14 -1.137870E-13
        33  12  9.334531E+02  1.337598E+02  8.841401E-01  6.882479E+01  3.257024E-13 -2.698528E-13
        33  13  9.406018E+02  1.072584E+02  1.269378E-02  1.149876E+02  1.983444E-14 -2.922970E-13
        33  14  9.202232E+02  1.167750E+02 -9.977417E-01  9.594342E+01  9.082085E-14 -3.006483E-13
        33  15  9.060255E+02  1.287692E+02 -8.404738E-02  7.627031E+01  2.348815E-13 -2.494964E-13
        33  16  9.227324E+02  1.042820E+02  9.230655E-01  1.288899E+02  2.338376E-13 -2.714186E-13
        33  17  8.983708E+02  1.140651E+02  4.824465E-02  1.075889E+02 -1.169188E-13 -1.179627E-13
        33  18  8.800863E+02  1.261995E+02  6.946365E-01  8.560081E+01 -9.186477E-14  1.049137E-13
        33  19  9.601851E+02  1.126202E+02  1.081825E+00  1.030331E+02 -4.981514E+00  1.101249E+00
        33  20  9.436760E+02  1.218861E+02 -1.813837E-01  8.621575E+01 -6.257108E+00  8.019796E-01
        33  21  9.334531E+02  1.337598E+02  8.841401E-01  6.882479E+01 -7.267421E+00  4.983239E-01
        33  22  9.406018E+02  1.072584E+02  1.269378E-02  1.149876E+02 -5.484245E+00  2.656131E+00
        33  23  9.202232E+02  1.167750E+02 -9.977417E-01  9.594342E+01 -6.738083E+00  2.047298E+00
        33  24  9.060255E+02  1.287692E+02 -8.404738E-02  7.627031E+01 -7.715678E+00  1.429908E+00
        33  25  9.227324E+02  1.042820E+02  9.230655E-01  1.288899E+02 -5.987858E+00  4.200150E+00
        33  26  8.983708E+02  1.140651E+02  4.824465E-02  1.075889E+02 -7.220598E+00  3.269057E+00
        33  27  8.800863E+02  1.261995E+02  6.946365E-01  8.560081E+01 -8.165740E+00  2.324742E+00
        34   1  9.282722E+02  1.391846E+02  1.219556E+00  5.556876E+01  7.726512E+00 -5.976221E-01
        34   2  9.198353E+02  1.415373E+02 -2.882004E-01  3.171202E+01  8.301586E+00 -2.669673E-01
        34   3  9.190708E+02  1.470679E+02  1.098647E+00  7.637613E+00  8.538299E+00  6.928618E-02
        34   4  8.991460E+02  1.336595E+02  3.029964E-02  6.192729E+01  8.162572E+00 -1.402547E+00
        34   5  8.896366E+02  1.362025E+02 -1.236560E+00  3.520914E+01  8.738745E+00 -7.044020E-01
        34   6  8.877920E+02  1.418035E+02 -3.099489E-02  8.211251E+00  8.963579E+00  4.624392E-03
        34   7  8.718293E+02  1.317569E+02  1.010183E+00  6.902156E+01  8.598077E+00 -2.221408E+00
        34   8  8.612298E+02  1.345623E+02 -3.007453E-02  3.936152E+01  9.175913E+00 -1.141465E+00
        34   9  8.582960E+02  1.403121E+02  9.843504E-01  9.355038E+00  9.388941E+00 -4.475765E-02
        34  10  9.282722E+02  1.391846E+02  1.219556E+00  5.556876E+01  4.676752E-13  1.795539E-13
        34  11  9.198353E+02  1.415373E+02 -2.882004E-01  3.171202E+01  3.340537E-14  9.238673E-14
        34  12  9.190708E+02  1.470679E+02  1.098647E+00  7.637613E+00 -4.175671E-13  9.656240E-14
        34  13  8.991460E+02  1.336595E+02  3.029964E-02  6.192729E+01  3.079558E-14  3.152632E-13
        34  14  8.896366E+02  1.362025E+02 -1.236560E+00  3.520914E+01  1.957346E-14  2.317498E-13
        34  15  8.877920E+02  1.418035E+02 -3.099489E-02  8.211251E+00  2.126983E-13  2.009542E-13
        34  16  8.718293E+02  1.317569E+02  1.010183E+00  6.902156E+01 -4.342698E-13  1.169188E-13
        34  17  8.612298E+02  1.345623E+02 -3.007453E-02  3.936152E+01 -2.505403E-13  9.134281E-14
        34  18  8.582960E+02  1.403121E+02  9.843504E-01  9.355038E+00  2.463646E-13  8.377441E-14
        34  19  9.282722E+02  1.391846E+02  1.219556E+00  5.556876E+01 -7.726512E+00  5.976221E-01
        34  20  9.198353E+02  1.415373E+02 -2.882004E-01  3.171202E+01 -8.301586E+00  2.669673E-01
        34  21  9.190708E+02  1.470679E+02  1.098647E+00  7.637613E+00 -8.538299E+00 -6.928618E-02
        34  22  8.991460E+02  1.336595E+02  3.029964E-02  6.192729E+01 -8.162572E+00  1.402547E+00
        34  23  8.896366E+02  1.362025E+02 -1.236560E+00  3.520914E+01 -8.738745E+00  7.044020E-01
        34  24  8.877920E+02  1.418035E+02 -3.099489E-02  8.211251E+00 -8.963579E+00 -4.624392E-03
        34  25  8.718293E+02  1.317569E+02  1.010183E+00  6.902156E+01 -8.598077E+00  2.221408E+00
        34  26  8.612298E+02  1.345623E+02 -3.007453E-02  3.936152E+01 -9.175913E+00  1.141465E+00
        34  27  8.582960E+02  1.403121E+02  9.843504E-01  9.355038E+00 -9.388941E+00  4.475765E-02
        35   1  8.533142E+02  1.307390E+02  1.257310E+00  7.308282E+01  9.562926E+00 -2.742922E+00
        35   2  8.399061E+02  1.329168E+02 -5.529717E-01  4.172373E+01  1.014615E+01 -1.432965E+00
        35   3  8.386390E+02  1.399209E+02  1.374000E+00  9.722449E+00  1.035308E+01 -1.023295E-01
        35   4  8.140578E+02  1.260531E+02  1.161007E-01  8.079931E+01  1.106966E+01 -3.663430E+00
        35   5  7.991612E+02  1.288660E+02 -1.535030E+00  4.596030E+01  1.166233E+01 -1.943904E+00
        35   6  7.965831E+02  1.364755E+02  2.075622E-01  1.040237E+01  1.186449E+01 -1.966788E-01
        35   7  7.758069E+02  1.220638E+02  1.264830E+00  8.957504E+01  1.257473E+01 -4.625791E+00
        35   8  7.593423E+02  1.254969E+02 -2.956424E-01  5.113055E+01  1.317794E+01 -2.480228E+00
        35   9  7.553885E+02  1.337052E+02  1.200977E+00  1.188355E+01  1.337585E+01 -2.991722E-01
        35  10  8.533142E+02  1.307390E+02  1.257310E+00  7.308282E+01 -5.678913E-13  2.087836E-15
        35  11  8.399061E+02  1.329168E+02 -5.529717E-01  4.172373E+01  0.000000E+00 -6.106919E-14
        35  12  8.386390E+02  1.399209E+02  1.374000E+00  9.722449E+00  2.421889E-13 -1.880357E-13
        35  13  8.140578E+02  1.260531E+02  1.161007E-01  8.079931E+01 -7.672796E-14  2.233984E-13
        35  14  7.991612E+02  1.288660E+02 -1.535030E+00  4.596030E+01  3.223096E-13 -1.743343E-13
        35  15  7.965831E+02  1.364755E+02  2.075622E-01  1.040237E+01  3.842923E-14 -5.436202E-13
        35  16  7.758069E+02  1.220638E+02  1.264830E+00  8.957504E+01  2.338376E-13  6.002528E-13
        35  17  7.593423E+02  1.254969E+02 -2.956424E-01  5.113055E+01  1.670269E-14 -5.689352E-14
        35  18  7.553885E+02  1.337052E+02  1.200977E+00  1.188355E+01 -5.428373E-14 -8.351343E-13
        35  19  8.533142E+02  1.307390E+02  1.257310E+00  7.308282E+01 -9.562926E+00  2.742922E+00
        35  20  8.399061E+02  1.329168E+02 -5.529717E-01  4.172373E+01 -1.014615E+01  1.432965E+00
        35  21  8.386390E+02  1.399209E+02  1.374000E+00  9.722449E+00 -1.035308E+01  1.023295E-01
        35  22  8.140578E+02  1.260531E+02  1.161007E-01  8.079931E+01 -1.106966E+01  3.663430E+00
        35  23  7.991612E+02  1.288660E+02 -1.535030E+00  4.596030E+01 -1.166233E+01  1.943904E+00
        35  24  7.965831E+02  1.364755E+02  2.075622E-01  1.040237E+01 -1.186449E+01  1.966788E-01
        35  25  7.758069E+02  1.220638E+02  1.264830E+00  8.957504E+01 -1.257473E+01  4.625791E+00
        35  26  7.593423E+02  1.254969E+02 -2.956424E-01  5.113055E+01 -1.317794E+01  2.480228E+00
        35  27  7.553885E+02  1.337052E+02  1.200977E+00  1.188355E+01 -1.337585E+01  2.991722E-01
        36   1  9.094136E+02  1.018532E+02  7.880632E-01  1.371107E+02  6.613005E+00 -5.162449E+00
        36   2  8.809096E+02  1.114689E+02 -6.421745E-01  1.145235E+02  7.998614E+00 -4.044918E+00
        36   3  8.625551E+02  1.252112E+02  1.007032E+00  9.066152E+01  9.088813E+00 -2.911148E+00
        36   4  8.831334E+02  9.513525E+01  1.382337E-01  1.505900E+02  7.928868E+00 -6.999964E+00
        36   5  8.493051E+02  1.060363E+02 -1.149989E+00  1.256118E+02  9.401227E+00 -5.542374E+00
        36   6  8.256376E+02  1.210105E+02  2.883433E-01  9.929009E+01  1.056897E+01 -4.063178E+00
        36   7  8.574138E+02  8.682035E+01  9.230072E-01  1.668746E+02  9.233720E+00 -8.972544E+00
        36   8  8.181274E+02  9.901100E+01 -2.422044E-01  1.394599E+02  1.079571E+01 -7.163780E+00
        36   9  7.890173E+02  1.152266E+02  9.691119E-01  1.106289E+02  1.204358E+01 -5.327520E+00
        36  10  9.094136E+02  1.018532E+02  7.880632E-01  1.371107E+02  3.674591E-13 -1.628512E-13
        36  11  8.809096E+02  1.114689E+02 -6.421745E-01  1.145235E+02  1.670269E-14  8.038167E-14
        36  12  8.625551E+02  1.252112E+02  1.007032E+00  9.066152E+01 -1.461485E-13  2.849896E-13
        36  13  8.831334E+02  9.513525E+01  1.382337E-01  1.505900E+02 -2.505403E-14  1.879052E-13
        36  14  8.493051E+02  1.060363E+02 -1.149989E+00  1.256118E+02 -9.082085E-14  1.962566E-13
        36  15  8.256376E+02  1.210105E+02  2.883433E-01  9.929009E+01 -3.549321E-14  2.437548E-13
        36  16  8.574138E+02  8.682035E+01  9.230072E-01  1.668746E+02 -1.002161E-13  2.943848E-13
        36  17  8.181274E+02  9.901100E+01 -2.422044E-01  1.394599E+02 -2.839457E-13  9.290869E-14
        36  18  7.890173E+02  1.152266E+02  9.691119E-01  1.106289E+02  1.712025E-13 -9.055987E-14
        36  19  9.094136E+02  1.018532E+02  7.880632E-01  1.371107E+02 -6.613005E+00  5.162449E+00
        36  20  8.809096E+02  1.114689E+02 -6.421745E-01  1.145235E+02 -7.998614E+00  4.044918E+00
        36  21  8.625551E+02  1.252112E+02  1.007032E+00  9.066152E+01 -9.088813E+00  2.911148E+00
        36  22  8.831334E+02  9.513525E+01  1.382337E-01  1.505900E+02 -7.928868E+00  6.999964E+00
        36  23  8.493051E+02  1.060363E+02 -1.149989E+00  1.256118E+02 -9.401227E+00  5.542374E+00
        36  24  8.256376E+02  1.210105E+02  2.883433E-01  9.929009E+01 -1.056897E+01  4.063178E+00
        36  25  8.574138E+02  8.682035E+01  9.230072E-01  1.668746E+02 -9.233720E+00  8.972544E+00
        36  26  8.181274E+02  9.901100E+01 -2.422044E-01  1.394599E+02 -1.079571E+01  7.163780E+00
        36  27  7.890173E+02  1.152266E+02  9.691119E-01  1.106289E+02 -1.204358E+01  5.327520E+00
        37   1  1.037142E+03  3.203641E+01 -3.785761E-01  6.806763E+01 -3.193447E+00  1.557206E+00
        37   2  1.047794E+03  3.196238E+01 -1.316306E-01  8.056241E+01 -3.342027E+00  5.066231E-01
        37   3  1.057978E+03  2.975778E+01 -6.910991E-01  9.439672E+01 -3.513517E+00 -7.483630E-01
        37   4  1.044491E+03  2.229453E+01 -5.230185E-01  5.845575E+01 -4.068866E+00  1.630477E+00
        37   5  1.059230E+03  2.267598E+01  1.638793E-01  6.940376E+01 -4.437174E+00  5.819305E-01
        37   6  1.073305E+03  2.088005E+01 -2.471713E-01  8.169798E+01 -4.822483E+00 -6.618312E-01
        37   7  1.050398E+03  1.211243E+01 -1.333427E+00  4.862834E+01 -4.972906E+00  1.710435E+00
        37   8  1.069115E+03  1.287211E+01 -3.213733E-01  5.808197E+01 -5.551388E+00  6.620614E-01
        37   9  1.086976E+03  1.140729E+01 -6.970648E-01  6.888554E+01 -6.141642E+00 -5.725378E-01
        37  10  1.037142E+03  3.203641E+01 -3.785761E-01  6.806763E+01  7.203033E-14  5.678913E-13
        37  11  1.047794E+03  3.196238E+01 -1.316306E-01  8.056241E+01 -2.296619E-13  3.173510E-13
        37  12  1.057978E+03  2.975778E+01 -6.910991E-01  9.439672E+01 -1.503242E-13  2.703747E-13
        37  13  1.044491E+03  2.229453E+01 -5.230185E-01  5.845575E+01  2.338376E-13  0.000000E+00
        37  14  1.059230E+03  2.267598E+01  1.638793E-01  6.940376E+01 -2.672430E-13  1.252701E-14
        37  15  1.073305E+03  2.088005E+01 -2.471713E-01  8.169798E+01 -4.843779E-13  1.210945E-13
        37  16  1.050398E+03  1.211243E+01 -1.333427E+00  4.862834E+01 -2.672430E-13 -6.012967E-13
        37  17  1.069115E+03  1.287211E+01 -3.213733E-01  5.808197E+01 -3.340537E-13 -2.588916E-13
        37  18  1.086976E+03  1.140729E+01 -6.970648E-01  6.888554E+01 -4.092158E-13 -7.620600E-14
        37  19  1.037142E+03  3.203641E+01 -3.785761E-01  6.806763E+01  3.193447E+00 -1.557206E+00
        37  20  1.047794E+03  3.196238E+01 -1.316306E-01  8.056241E+01  3.342027E+00 -5.066231E-01
        37  21  1.057978E+03  2.975778E+01 -6.910991E-01  9.439672E+01  3.513517E+00  7.483630E-01
        37  22  1.044491E+03  2.229453E+01 -5.230185E-01  5.845575E+01  4.068866E+00 -1.630477E+00
        37  23  1.059230E+03  2.267598E+01  1.638793E-01  6.940376E+01  4.437174E+00 -5.819305E-01
        37  24  1.073305E+03  2.088005E+01 -2.471713E-01  8.169798E+01  4.822483E+00  6.618312E-01
        37  25  1.050398E+03  1.211243E+01 -1.333427E+00  4.862834E+01  4.972906E+00 -1.710435E+00
        37  26  1.069115E+03  1.287211E+01 -3.213733E-01  5.808197E+01  5.551388E+00 -6.620614E-01
        37  27  1.086976E+03  1.140729E+01 -6.970648E-01  6.888554E+01  6.141642E+00  5.725378E-01
        38   1  1.066128E+03  3.010005E+01  8.071219E-02  1.015211E+02 -3.772013E+00 -1.505663E+00
        38   2  1.077107E+03  3.026223E+01  3.621336E-01  1.126423E+02 -3.812224E+00 -3.009599E+00
        38   3  1.087462E+03  2.740883E+01 -3.373371E-01  1.256257E+02 -3.867775E+00 -4.650459E+00
        38   4  1.082212E+03  2.011267E+01 -3.413703E-01  8.861677E+01 -5.179093E+00 -1.441214E+00
        38   5  1.099301E+03  2.071631E+01  4.576126E-01  9.822235E+01 -5.398219E+00 -3.015378E+00
        38   6  1.115566E+03  1.834430E+01  4.391744E-02  1.096561E+02 -5.628372E+00 -4.716227E+00
        38   7  1.099291E+03  1.100708E+01 -4.739835E-01  7.496673E+01 -6.670043E+00 -1.353078E+00
        38   8  1.122134E+03  1.182870E+01  5.370663E-01  8.314588E+01 -7.057152E+00 -2.999299E+00
        38   9  1.143969E+03  9.717345E+00  1.093708E-01  9.311600E+01 -7.451630E+00 -4.762185E+00
        38  10  1.066128E+03  3.010005E+01  8.071219E-02  1.015211E+02 -4.238306E-13  2.254863E-13
        38  11  1.077107E+03  3.026223E+01  3.621336E-01  1.126423E+02 -4.593238E-14  2.380133E-13
        38  12  1.087462E+03  2.740883E+01 -3.373371E-01  1.256257E+02  6.263507E-14  1.148310E-14
        38  13  1.082212E+03  2.011267E+01 -3.413703E-01  8.861677E+01  2.004322E-13  1.043918E-13
        38  14  1.099301E+03  2.071631E+01  4.576126E-01  9.822235E+01 -2.672430E-13  2.129592E-13
        38  15  1.115566E+03  1.834430E+01  4.391744E-02  1.096561E+02 -2.505403E-13  1.190066E-13
        38  16  1.099291E+03  1.100708E+01 -4.739835E-01  7.496673E+01 -6.681074E-14 -7.516208E-14
        38  17  1.122134E+03  1.182870E+01  5.370663E-01  8.314588E+01 -1.920809E-13  1.377972E-13
        38  18  1.143969E+03  9.717345E+00  1.093708E-01  9.311600E+01 -3.340537E-14  3.966888E-14
        38  19  1.066128E+03  3.010005E+01  8.071219E-02  1.015211E+02  3.772013E+00  1.505663E+00
        38  20  1.077107E+03  3.026223E+01  3.621336E-01  1.126423E+02  3.812224E+00  3.009599E+00
        38  21  1.087462E+03  2.740883E+01 -3.373371E-01  1.256257E+02  3.867775E+00  4.650459E+00
        38  22  1.082212E+03  2.011267E+01 -3.413703E-01  8.861677E+01  5.179093E+00  1.441214E+00
        38  23  1.099301E+03  2.071631E+01  4.576126E-01  9.822235E+01  5.398219E+00  3.015378E+00
        38  24  1.115566E+03  1.834430E+01  4.391744E-02  1.096561E+02  5.628372E+00  4.716227E+00
        38  25  1.099291E+03  1.100708E+01 -4.739835E-01  7.496673E+01  6.670043E+00  1.353078E+00
        38  26  1.122134E+03  1.182870E+01  5.370663E-01  8.314588E+01  7.057152E+00  2.999299E+00
        38  27  1.143969E+03  9.717345E+00  1.093708E-01  9.311600E+01  7.451630E+00  4.762185E+00
        39   1  1.108476E+03  6.155236E+00 -8.121768E-01  6.436166E+01 -7.615793E+00 -1.372165E+00
        39   2  1.135458E+03  7.814547E+00  6.801200E-01  7.081843E+01 -8.093484E+00 -3.092765E+00
        39   3  1.161163E+03  5.855694E+00  3.446066E-01  7.999043E+01 -8.575917E+00 -4.908726E+00
        39   4  1.122623E+03  2.668942E+00 -4.077587E-01  3.827804E+01 -8.952384E+00 -7.428179E-01
        39   5  1.157213E+03  4.002713E+00  1.734709E+00  4.166358E+01 -9.550500E+00 -1.899073E+00
        39   6  1.190346E+03  1.844926E+00  1.862085E+00  4.776775E+01 -1.015180E+01 -3.171622E+00
        39   7  1.135106E+03 -5.688017E-01 -2.208364E-01  1.126984E+01 -9.810064E+00 -2.487910E-01
        39   8  1.177410E+03  6.043789E-01  3.083301E+00  1.169576E+01 -1.054703E+01 -8.434198E-01
        39   9  1.218085E+03 -1.590021E+00  4.186974E+00  1.483843E+01 -1.128482E+01 -1.574544E+00
        39  10  1.108476E+03  6.155236E+00 -8.121768E-01  6.436166E+01  2.463646E-13 -5.010806E-13
        39  11  1.135458E+03  7.814547E+00  6.801200E-01  7.081843E+01  4.175671E-14 -2.421889E-13
        39  12  1.161163E+03  5.855694E+00  3.446066E-01  7.999043E+01 -3.089997E-13 -6.681074E-14
        39  13  1.122623E+03  2.668942E+00 -4.077587E-01  3.827804E+01  0.000000E+00 -3.758104E-14
        39  14  1.157213E+03  4.002713E+00  1.734709E+00  4.166358E+01  2.672430E-13 -9.186477E-14
        39  15  1.190346E+03  1.844926E+00  1.862085E+00  4.776775E+01  0.000000E+00 -4.593238E-14
        39  16  1.135106E+03 -5.688017E-01 -2.208364E-01  1.126984E+01  1.127431E-13  3.674591E-13
        39  17  1.177410E+03  6.043789E-01  3.083301E+00  1.169576E+01 -1.252701E-14  9.604044E-14
        39  18  1.218085E+03 -1.590021E+00  4.186974E+00  1.483843E+01 -2.839457E-13 -4.488847E-14
        39  19  1.108476E+03  6.155236E+00 -8.121768E-01  6.436166E+01  7.615793E+00  1.372165E+00
        39  20  1.135458E+03  7.814547E+00  6.801200E-01  7.081843E+01  8.093484E+00  3.092765E+00
        39  21  1.161163E+03  5.855694E+00  3.446066E-01  7.999043E+01  8.575917E+00  4.908726E+00
        39  22  1.122623E+03  2.668942E+00 -4.077587E-01  3.827804E+01  8.952384E+00  7.428179E-01
        39  23  1.157213E+03  4.002713E+00  1.734709E+00  4.166358E+01  9.550500E+00  1.899073E+00
        39  24  1.190346E+03  1.844926E+00  1.862085E+00  4.776775E+01  1.015180E+01  3.171622E+00
        39  25  1.135106E+03 -5.688017E-01 -2.208364E-01  1.126984E+01  9.810064E+00  2.487910E-01
        39  26  1.177410E+03  6.043789E-01  3.083301E+00  1.169576E+01  1.054703E+01  8.434198E-01
        39  27  1.218085E+03 -1.590021E+00  4.186974E+00  1.483843E+01  1.128482E+01  1.574544E+00
        40   1  1.052661E+03  6.385003E+00 -2.148813E+00  4.154890E+01 -5.537347E+00  1.679982E+00
        40   2  1.074124E+03  7.741780E+00 -7.488214E-01  4.939688E+01 -6.227532E+00  6.136962E-01
        40   3  1.094493E+03  6.344797E+00 -1.087328E+00  5.917074E+01 -6.925318E+00 -6.052459E-01
        40   4  1.054478E+03  3.810080E+00 -2.307363E+00  2.448734E+01 -6.366386E+00  1.284689E+00
        40   5  1.080823E+03  4.872956E+00 -4.730562E-01  2.881268E+01 -7.217799E+00  5.861611E-01
        40   6  1.105905E+03  3.216409E+00 -6.135623E-01  3.514498E+01 -8.073701E+00 -2.759326E-01
        40   7  1.050276E+03 -1.037982E+00 -5.407449E+00  7.145199E+00 -6.900182E+00  8.203078E-01
        40   8  1.081792E+03 -7.045354E-02 -2.759093E+00  8.025238E+00 -7.921364E+00  4.859286E-01
        40   9  1.111869E+03 -1.795654E+00 -2.325871E+00  1.098700E+01 -8.943600E+00 -2.241025E-02
        40  10  1.052661E+03  6.385003E+00 -2.148813E+00  4.154890E+01  2.922970E-14  6.931614E-13
        40  11  1.074124E+03  7.741780E+00 -7.488214E-01  4.939688E+01  8.351343E-15  2.004322E-13
        40  12  1.094493E+03  6.344797E+00 -1.087328E+00  5.917074E+01 -2.964727E-13 -2.066957E-13
        40  13  1.054478E+03  3.810080E+00 -2.307363E+00  2.448734E+01  3.340537E-14  2.922970E-14
        40  14  1.080823E+03  4.872956E+00 -4.730562E-01  2.881268E+01  6.681074E-14  1.670269E-13
        40  15  1.105905E+03  3.216409E+00 -6.135623E-01  3.514498E+01 -5.678913E-13  1.461485E-13
        40  16  1.050276E+03 -1.037982E+00 -5.407449E+00  7.145199E+00 -1.795539E-13 -6.096480E-13
        40  17  1.081792E+03 -7.045354E-02 -2.759093E+00  8.025238E+00  7.098641E-14 -7.098641E-14
        40  18  1.111869E+03 -1.795654E+00 -2.325871E+00  1.098700E+01 -2.421889E-13  4.280063E-13
        40  19  1.052661E+03  6.385003E+00 -2.148813E+00  4.154890E+01  5.537347E+00 -1.679982E+00
        40  20  1.074124E+03  7.741780E+00 -7.488214E-01  4.939688E+01  6.227532E+00 -6.136962E-01
        40  21  1.094493E+03  6.344797E+00 -1.087328E+00  5.917074E+01  6.925318E+00  6.052459E-01
        40  22  1.054478E+03  3.810080E+00 -2.307363E+00  2.448734E+01  6.366386E+00 -1.284689E+00
        40  23  1.080823E+03  4.872956E+00 -4.730562E-01  2.881268E+01  7.217799E+00 -5.861611E-01
        40  24  1.105905E+03  3.216409E+00 -6.135623E-01  3.514498E+01  8.073701E+00  2.759326E-01
        40  25  1.050276E+03 -1.037982E+00 -5.407449E+00  7.145199E+00  6.900182E+00 -8.203078E-01
        40  26  1.081792E+03 -7.045354E-02 -2.759093E+00  8.025238E+00  7.921364E+00 -4.859286E-01
        40  27  1.111869E+03 -1.795654E+00 -2.325871E+00  1.098700E+01  8.943600E+00  2.241025E-02
        41   1  1.250480E+03 -1.642566E+02 -3.157944E+00  1.624689E+02 -2.838223E+00 -2.980758E+01
        41   2  1.335973E+03 -1.254017E+02 -6.675029E-01  1.022951E+02 -4.050784E+00 -2.656462E+01
        41   3  1.407450E+03 -9.269896E+01 -5.151626E-01  4.597541E+01 -4.104794E+00 -2.349565E+01
        41   4  1.226651E+03 -1.164544E+02 -2.937793E-01  1.732869E+02 -2.037779E+00 -2.750468E+01
        41   5  1.314941E+03 -8.668808E+01  3.777633E+00  1.207973E+02 -3.852265E+00 -2.535739E+01
        41   6  1.386589E+03 -6.517405E+01  2.509914E+00  7.280187E+01 -4.432594E+00 -2.342571E+01
        41   7  1.197303E+03 -7.841487E+01 -2.310802E+00  1.816168E+02 -1.136893E+00 -2.475901E+01
        41   8  1.288436E+03 -5.888762E+01  3.331644E+00  1.372182E+02 -3.584911E+00 -2.377585E+01
        41   9  1.360154E+03 -4.988826E+01  5.368492E-01  9.803038E+01 -4.718845E+00 -2.305734E+01
        41  10  1.250480E+03 -1.642566E+02 -3.157944E+00  1.624689E+02  1.670269E-13 -1.445826E-13
        41  11  1.335973E+03 -1.254017E+02 -6.675029E-01  1.022951E+02  1.002161E-13  1.148310E-14
        41  12  1.407450E+03 -9.269896E+01 -5.151626E-01  4.597541E+01  2.213106E-13  7.829384E-14
        41  13  1.226651E+03 -1.164544E+02 -2.937793E-01  1.732869E+02 -1.377972E-13 -6.681074E-14
        41  14  1.314941E+03 -8.668808E+01  3.777633E+00  1.207973E+02  1.691147E-13  6.681074E-14
        41  15  1.386589E+03 -6.517405E+01  2.509914E+00  7.280187E+01 -6.681074E-14  1.482363E-13
        41  16  1.197303E+03 -7.841487E+01 -2.310802E+00  1.816168E+02 -2.004322E-13 -2.505403E-14
        41  17  1.288436E+03 -5.888762E+01  3.331644E+00  1.372182E+02 -2.505403E-13  4.175671E-14
        41  18  1.360154E+03 -4.988826E+01  5.368492E-01  9.803038E+01 -1.837295E-13  1.785100E-13
        41  19  1.250480E+03 -1.642566E+02 -3.157944E+00  1.624689E+02  2.838223E+00  2.980758E+01
        41  20  1.335973E+03 -1.254017E+02 -6.675029E-01  1.022951E+02  4.050784E+00  2.656462E+01
        41  21  1.407450E+03 -9.269896E+01 -5.151626E-01  4.597541E+01  4.104794E+00  2.349565E+01
        41  22  1.226651E+03 -1.164544E+02 -2.937793E-01  1.732869E+02  2.037779E+00  2.750468E+01
        41  23  1.314941E+03 -8.668808E+01  3.777633E+00  1.207973E+02  3.852265E+00  2.535739E+01
        41  24  1.386589E+03 -6.517405E+01  2.509914E+00  7.280187E+01  4.432594E+00  2.342571E+01
        41  25  1.197303E+03 -7.841487E+01 -2.310802E+00  1.816168E+02  1.136893E+00  2.475901E+01
        41  26  1.288436E+03 -5.888762E+01  3.331644E+00  1.372182E+02  3.584911E+00  2.377585E+01
        41  27  1.360154E+03 -4.988826E+01  5.368492E-01  9.803038E+01  4.718845E+00  2.305734E+01
        42   1  1.447487E+03 -5.673459E+01  4.952147E+00  1.920356E+01 -3.639615E+00 -2.389130E+01
        42   2  1.519094E+03 -3.316875E+01  8.054764E+00  3.966370E+00 -1.510920E+00 -1.730003E+01
        42   3  1.626850E+03  6.734674E+00  3.528575E+01 -8.187083E+00  4.537638E-01 -1.068412E+01
        42   4  1.425853E+03 -4.259361E+01  4.059688E+00  4.938417E+01 -4.480744E+00 -2.451614E+01
        42   5  1.504181E+03 -2.701835E+01  6.789649E+00  2.491881E+01 -3.514868E+00 -1.782728E+01
        42   6  1.621528E+03  5.512719E+00  3.428917E+01  3.473136E+00 -2.773303E+00 -1.109921E+01
        42   7  1.403673E+03 -2.726046E+01  4.140860E+00  7.551673E+01 -5.208964E+00 -2.413621E+01
        42   8  1.489463E+03 -1.977661E+01  7.860860E+00  4.091877E+01 -5.449846E+00 -1.728825E+01
        42   9  1.617418E+03  5.306693E+00  3.708255E+01  9.212932E+00 -5.983468E+00 -1.038128E+01
        42  10  1.447487E+03 -5.673459E+01  4.952147E+00  1.920356E+01  1.670269E-13  1.837295E-13
        42  11  1.519094E+03 -3.316875E+01  8.054764E+00  3.966370E+00  1.336215E-13 -4.802022E-14
        42  12  1.626850E+03  6.734674E+00  3.528575E+01 -8.187083E+00  3.298780E-13 -2.442768E-13
        42  13  1.425853E+03 -4.259361E+01  4.059688E+00  4.938417E+01 -3.340537E-14  1.837295E-13
        42  14  1.504181E+03 -2.701835E+01  6.789649E+00  2.491881E+01  5.219589E-14 -8.351343E-14
        42  15  1.621528E+03  5.512719E+00  3.428917E+01  3.473136E+00  9.134281E-15 -4.634995E-13
        42  16  1.403673E+03 -2.726046E+01  4.140860E+00  7.551673E+01 -2.672430E-13  4.175671E-13
        42  17  1.489463E+03 -1.977661E+01  7.860860E+00  4.091877E+01 -2.672430E-13  3.340537E-14
        42  18  1.617418E+03  5.306693E+00  3.708255E+01  9.212932E+00 -5.219589E-13 -4.133915E-13
        42  19  1.447487E+03 -5.673459E+01  4.952147E+00  1.920356E+01  3.639615E+00  2.389130E+01
        42  20  1.519094E+03 -3.316875E+01  8.054764E+00  3.966370E+00  1.510920E+00  1.730003E+01
        42  21  1.626850E+03  6.734674E+00  3.528575E+01 -8.187083E+00 -4.537638E-01  1.068412E+01
        42  22  1.425853E+03 -4.259361E+01  4.059688E+00  4.938417E+01  4.480744E+00  2.451614E+01
        42  23  1.504181E+03 -2.701835E+01  6.789649E+00  2.491881E+01  3.514868E+00  1.782728E+01
        42  24  1.621528E+03  5.512719E+00  3.428917E+01  3.473136E+00  2.773303E+00  1.109921E+01
        42  25  1.403673E+03 -2.726046E+01  4.140860E+00  7.551673E+01  5.208964E+00  2.413621E+01
        42  26  1.489463E+03 -1.977661E+01  7.860860E+00  4.091877E+01  5.449846E+00  1.728825E+01
        42  27  1.617418E+03  5.306693E+00  3.708255E+01  9.212932E+00  5.983468E+00  1.038128E+01
        43   1  1.397100E+03 -1.716508E+01  6.959687E+00  8.484050E+01 -6.188973E+00 -2.318566E+01
        43   2  1.481751E+03 -1.494529E+01  9.992764E+00  4.894898E+01 -7.068926E+00 -1.637799E+01
        43   3  1.590608E+03 -6.076211E-02  3.126442E+01  1.192601E+01 -7.700017E+00 -9.624544E+00
        43   4  1.369398E+03 -1.036286E+01  5.026643E+00  9.311353E+01 -7.365849E+00 -2.110508E+01
        43   5  1.449156E+03 -9.820811E+00  8.482084E+00  5.438678E+01 -8.541715E+00 -1.480154E+01
        43   6  1.553481E+03  3.188793E+00  2.927019E+01  1.432180E+01 -9.430213E+00 -8.569495E+00
        43   7  1.341251E+03 -6.002408E+00  3.654610E+00  1.016913E+02 -8.499793E+00 -1.864227E+01
        43   8  1.415997E+03 -7.282593E+00  7.585324E+00  5.991761E+01 -9.991888E+00 -1.287524E+01
        43   9  1.515743E+03  3.726807E+00  2.797140E+01  1.656310E+01 -1.115574E+01 -7.201000E+00
        43  10  1.397100E+03 -1.716508E+01  6.959687E+00  8.484050E+01  3.674591E-13  3.799861E-13
        43  11  1.481751E+03 -1.494529E+01  9.992764E+00  4.894898E+01  3.340537E-14 -5.637156E-14
        43  12  1.590608E+03 -6.076211E-02  3.126442E+01  1.192601E+01  1.002161E-13 -3.653712E-13
        43  13  1.369398E+03 -1.036286E+01  5.026643E+00  9.311353E+01  1.190066E-13  1.837295E-13
        43  14  1.449156E+03 -9.820811E+00  8.482084E+00  5.438678E+01  2.202667E-13  1.169188E-13
        43  15  1.553481E+03  3.188793E+00  2.927019E+01  1.432180E+01  1.226603E-13 -5.845940E-14
        43  16  1.341251E+03 -6.002408E+00  3.654610E+00  1.016913E+02 -1.670269E-13 -9.186477E-14
        43  17  1.415997E+03 -7.282593E+00  7.585324E+00  5.991761E+01  2.338376E-13  8.351343E-15
        43  18  1.515743E+03  3.726807E+00  2.797140E+01  1.656310E+01  8.351343E-15  9.082085E-14
        43  19  1.397100E+03 -1.716508E+01  6.959687E+00  8.484050E+01  6.188973E+00  2.318566E+01
        43  20  1.481751E+03 -1.494529E+01  9.992764E+00  4.894898E+01  7.068926E+00  1.637799E+01
        43  21  1.590608E+03 -6.076211E-02  3.126442E+01  1.192601E+01  7.700017E+00  9.624544E+00
        43  22  1.369398E+03 -1.036286E+01  5.026643E+00  9.311353E+01  7.365849E+00  2.110508E+01
        43  23  1.449156E+03 -9.820811E+00  8.482084E+00  5.438678E+01  8.541715E+00  1.480154E+01
        43  24  1.553481E+03  3.188793E+00  2.927019E+01  1.432180E+01  9.430213E+00  8.569495E+00
        43  25  1.341251E+03 -6.002408E+00  3.654610E+00  1.016913E+02  8.499793E+00  1.864227E+01
        43  26  1.415997E+03 -7.282593E+00  7.585324E+00  5.991761E+01  9.991888E+00  1.287524E+01
        43  27  1.515743E+03  3.726807E+00  2.797140E+01  1.656310E+01  1.115574E+01  7.201000E+00
        44   1  1.190442E+03 -5.733700E+01 -9.055286E-01  1.837864E+02 -7.755378E-01 -2.318647E+01
        44   2  1.266956E+03 -4.917772E+01 -8.570972E-01  1.458004E+02 -3.011662E+00 -2.272999E+01
        44   3  1.345075E+03 -4.037313E+01 -1.673191E-01  1.077622E+02 -4.992621E+00 -2.232916E+01
        44   4  1.179931E+03 -2.783279E+01  8.235814E-01  1.811274E+02 -1.677752E+00 -2.047204E+01
        44   5  1.252396E+03 -2.333384E+01  2.066418E+00  1.478044E+02 -4.020348E+00 -2.031638E+01
        44   6  1.325561E+03 -1.888627E+01  3.061223E+00  1.146945E+02 -6.084885E+00 -2.022993E+01
        44   7  1.165143E+03 -9.912721E+00 -5.877386E-01  1.778930E+02 -2.535198E+00 -1.756020E+01
        44   8  1.233149E+03 -1.009925E+01  1.318054E+00  1.495046E+02 -4.996821E+00 -1.772754E+01
        44   9  1.300863E+03 -1.113971E+01  2.029341E+00  1.216366E+02 -7.156231E+00 -1.798033E+01
        44  10  1.190442E+03 -5.733700E+01 -9.055286E-01  1.837864E+02 -2.672430E-13 -1.023039E-13
        44  11  1.266956E+03 -4.917772E+01 -8.570972E-01  1.458004E+02 -2.505403E-13 -7.672796E-14
        44  12  1.345075E+03 -4.037313E+01 -1.673191E-01  1.077622E+02  7.098641E-14  3.444929E-14
        44  13  1.179931E+03 -2.783279E+01  8.235814E-01  1.811274E+02  3.403172E-13 -2.672430E-13
        44  14  1.252396E+03 -2.333384E+01  2.066418E+00  1.478044E+02 -3.549321E-14 -1.753782E-13
        44  15  1.325561E+03 -1.888627E+01  3.061223E+00  1.146945E+02 -6.263507E-14 -1.503242E-13
        44  16  1.165143E+03 -9.912721E+00 -5.877386E-01  1.778930E+02  1.670269E-13 -3.591077E-13
        44  17  1.233149E+03 -1.009925E+01  1.318054E+00  1.495046E+02  5.010806E-14 -1.043918E-13
        44  18  1.300863E+03 -1.113971E+01  2.029341E+00  1.216366E+02 -5.428373E-14  1.252701E-14
        44  19  1.190442E+03 -5.733700E+01 -9.055286E-01  1.837864E+02  7.755378E-01  2.318647E+01
        44  20  1.266956E+03 -4.917772E+01 -8.570972E-01  1.458004E+02  3.011662E+00  2.272999E+01
        44  21  1.345075E+03 -4.037313E+01 -1.673191E-01  1.077622E+02  4.992621E+00  2.232916E+01
        44  22  1.179931E+03 -2.783279E+01  8.235814E-01  1.811274E+02  1.677752E+00  2.047204E+01
        44  23  1.252396E+03 -2.333384E+01  2.066418E+00  1.478044E+02  4.020348E+00  2.031638E+01
        44  24  1.325561E+03 -1.888627E+01  3.061223E+00  1.146945E+02  6.084885E+00  2.022993E+01
        44  25  1.165143E+03 -9.912721E+00 -5.877386E-01  1.778930E+02  2.535198E+00  1.756020E+01
        44  26  1.233149E+03 -1.009925E+01  1.318054E+00  1.495046E+02  4.996821E+00  1.772754E+01
        44  27  1.300863E+03 -1.113971E+01  2.029341E+00  1.216366E+02  7.156231E+00  1.798033E+01
        45   1  1.623981E+03  7.133203E+00  3.569254E+01 -1.398044E+01  3.642377E+00 -1.031918E+01
        45   2  1.519839E+03 -3.603228E+01  7.326032E+00 -1.269146E+01  1.230615E+00 -1.646822E+01
        45   3  1.470675E+03 -5.485038E+01  1.060873E+01 -8.805576E+00 -2.551025E+00 -2.242965E+01
        45   4  1.580935E+03  2.651404E+00  2.649030E+01 -2.187136E+01  7.053922E+00 -8.710837E+00
        45   5  1.500218E+03 -4.204074E+01  8.429892E-01 -3.866217E+01  3.187278E+00 -1.312657E+01
        45   6  1.475668E+03 -6.253215E+01  4.928625E+00 -5.187446E+01 -2.127459E+00 -1.737812E+01
        45   7  1.546168E+03  1.424575E+01  2.793899E+01 -3.609536E+01  1.044303E+01 -5.697291E+00
        45   8  1.488546E+03 -3.438360E+01  3.046231E+00 -7.184852E+01  5.042097E+00 -8.296400E+00
        45   9  1.488483E+03 -5.875439E+01  6.092721E+00 -1.029017E+02 -1.887589E+00 -1.076170E+01
        45  10  1.623981E+03  7.133203E+00  3.569254E+01 -1.398044E+01 -2.338376E-13 -1.440607E-13
        45  11  1.519839E+03 -3.603228E+01  7.326032E+00 -1.269146E+01 -1.169188E-13  2.505403E-14
        45  12  1.470675E+03 -5.485038E+01  1.060873E+01 -8.805576E+00  1.377972E-13  2.922970E-14
        45  13  1.580935E+03  2.651404E+00  2.649030E+01 -2.187136E+01  5.689352E-14 -3.340537E-13
        45  14  1.500218E+03 -4.204074E+01  8.429892E-01 -3.866217E+01  1.137870E-13  1.670269E-14
        45  15  1.475668E+03 -6.253215E+01  4.928625E+00 -5.187446E+01  4.175671E-14 -8.351343E-15
        45  16  1.546168E+03  1.424575E+01  2.793899E+01 -3.609536E+01  1.002161E-13 -1.920809E-13
        45  17  1.488546E+03 -3.438360E+01  3.046231E+00 -7.184852E+01  5.010806E-14 -2.505403E-14
        45  18  1.488483E+03 -5.875439E+01  6.092721E+00 -1.029017E+02 -7.516208E-14  2.213106E-13
        45  19  1.623981E+03  7.133203E+00  3.569254E+01 -1.398044E+01 -3.642377E+00  1.031918E+01
        45  20  1.519839E+03 -3.603228E+01  7.326032E+00 -1.269146E+01 -1.230615E+00  1.646822E+01
        45  21  1.470675E+03 -5.485038E+01  1.060873E+01 -8.805576E+00  2.551025E+00  2.242965E+01
        45  22  1.580935E+03  2.651404E+00  2.649030E+01 -2.187136E+01 -7.053922E+00  8.710837E+00
        45  23  1.500218E+03 -4.204074E+01  8.429892E-01 -3.866217E+01 -3.187278E+00  1.312657E+01
        45  24  1.475668E+03 -6.253215E+01  4.928625E+00 -5.187446E+01  2.127459E+00  1.737812E+01
        45  25  1.546168E+03  1.424575E+01  2.793899E+01 -3.609536E+01 -1.044303E+01  5.697291E+00
        45  26  1.488546E+03 -3.438360E+01  3.046231E+00 -7.184852E+01 -5.042097E+00  8.296400E+00
        45  27  1.488483E+03 -5.875439E+01  6.092721E+00 -1.029017E+02  1.887589E+00  1.076170E+01
        46   1  1.432790E+03 -1.011462E+02  1.829118E+00  1.874247E+01 -4.783315E+00 -2.289354E+01
        46   2  1.371139E+03 -1.379989E+02  3.103130E+00  7.524016E+01 -5.673140E+00 -2.655037E+01
        46   3  1.289637E+03 -1.849800E+02 -3.794301E-02  1.405545E+02 -4.878283E+00 -3.043791E+01
        46   4  1.454495E+03 -1.115456E+02 -3.503273E+00 -3.058953E+01 -5.553939E+00 -1.924591E+01
        46   5  1.423281E+03 -1.568711E+02 -4.550478E-01  2.051276E+01 -9.487400E+00 -2.395647E+01
        46   6  1.369348E+03 -2.129380E+02 -1.471929E+00  8.159209E+01 -1.145223E+01 -2.889026E+01
        46   7  1.494661E+03 -9.089041E+01  5.760026E+00 -9.378972E+01 -6.817645E+00 -1.218390E+01
        46   8  1.491369E+03 -1.503388E+02  4.743937E+00 -4.714177E+01 -1.389183E+01 -1.823228E+01
        46   9  1.462212E+03 -2.210606E+02 -4.650396E-02  1.069023E+01 -1.868436E+01 -2.448042E+01
        46  10  1.432790E+03 -1.011462E+02  1.829118E+00  1.874247E+01  1.670269E-13  6.263507E-15
        46  11  1.371139E+03 -1.379989E+02  3.103130E+00  7.524016E+01 -5.010806E-14 -5.428373E-14
        46  12  1.289637E+03 -1.849800E+02 -3.794301E-02  1.405545E+02  8.351343E-15 -1.461485E-14
        46  13  1.454495E+03 -1.115456E+02 -3.503273E+00 -3.058953E+01 -2.296619E-14  1.002161E-13
        46  14  1.423281E+03 -1.568711E+02 -4.550478E-01  2.051276E+01  1.169188E-13  1.002161E-13
        46  15  1.369348E+03 -2.129380E+02 -1.471929E+00  8.159209E+01 -2.922970E-14 -2.505403E-14
        46  16  1.494661E+03 -9.089041E+01  5.760026E+00 -9.378972E+01 -1.336215E-13  1.169188E-13
        46  17  1.491369E+03 -1.503388E+02  4.743937E+00 -4.714177E+01 -1.336215E-13 -8.351343E-15
        46  18  1.462212E+03 -2.210606E+02 -4.650396E-02  1.069023E+01 -3.758104E-14 -1.231823E-13
        46  19  1.432790E+03 -1.011462E+02  1.829118E+00  1.874247E+01  4.783315E+00  2.289354E+01
        46  20  1.371139E+03 -1.379989E+02  3.103130E+00  7.524016E+01  5.673140E+00  2.655037E+01
        46  21  1.289637E+03 -1.849800E+02 -3.794301E-02  1.405545E+02  4.878283E+00  3.043791E+01
        46  22  1.454495E+03 -1.115456E+02 -3.503273E+00 -3.058953E+01  5.553939E+00  1.924591E+01
        46  23  1.423281E+03 -1.568711E+02 -4.550478E-01  2.051276E+01  9.487400E+00  2.395647E+01
        46  24  1.369348E+03 -2.129380E+02 -1.471929E+00  8.159209E+01  1.145223E+01  2.889026E+01
        46  25  1.494661E+03 -9.089041E+01  5.760026E+00 -9.378972E+01  6.817645E+00  1.218390E+01
        46  26  1.491369E+03 -1.503388E+02  4.743937E+00 -4.714177E+01  1.389183E+01  1.823228E+01
        46  27  1.462212E+03 -2.210606E+02 -4.650396E-02  1.069023E+01  1.868436E+01  2.448042E+01
        47   1  1.498970E+03 -8.127846E+01  5.310319E+00 -1.304985E+02 -5.197631E+00 -7.192460E+00
        47   2  1.506521E+03 -1.433618E+02  6.256050E-01 -8.872604E+01 -1.351724E+01 -1.321687E+01
        47   3  1.524861E+03 -1.982938E+02  8.429823E+00 -4.799186E+01 -2.279927E+01 -1.917273E+01
        47   4  1.478903E+03 -7.185589E+01 -4.091438E+00 -1.636299E+02 -5.848406E+00  2.752887E+00
        47   5  1.516086E+03 -1.177147E+02 -6.850328E+00 -1.365338E+02 -1.659103E+01 -1.524634E+00
        47   6  1.562248E+03 -1.580742E+02 -4.497977E-01 -1.100511E+02 -2.830606E+01 -5.762271E+00
        47   7  1.480494E+03 -2.301084E+01  5.665331E+00 -2.091467E+02 -6.918504E+00  1.560243E+01
        47   8  1.547261E+03 -5.442782E+01  2.494784E+00 -1.969890E+02 -2.021618E+01  1.309223E+01
        47   9  1.621091E+03 -8.198291E+01  5.126880E+00 -1.849638E+02 -3.448922E+01  1.058930E+01
        47  10  1.498970E+03 -8.127846E+01  5.310319E+00 -1.304985E+02 -1.002161E-13  2.505403E-14
        47  11  1.506521E+03 -1.433618E+02  6.256050E-01 -8.872604E+01  0.000000E+00  1.002161E-13
        47  12  1.524861E+03 -1.982938E+02  8.429823E+00 -4.799186E+01 -1.336215E-13 -1.294458E-13
        47  13  1.478903E+03 -7.185589E+01 -4.091438E+00 -1.636299E+02  7.307425E-14 -2.839457E-13
        47  14  1.516086E+03 -1.177147E+02 -6.850328E+00 -1.365338E+02 -5.428373E-14  1.670269E-14
        47  15  1.562248E+03 -1.580742E+02 -4.497977E-01 -1.100511E+02 -6.681074E-14  2.421889E-13
        47  16  1.480494E+03 -2.301084E+01  5.665331E+00 -2.091467E+02  1.670269E-13 -2.755943E-13
        47  17  1.547261E+03 -5.442782E+01  2.494784E+00 -1.969890E+02  1.670269E-13  7.516208E-14
        47  18  1.621091E+03 -8.198291E+01  5.126880E+00 -1.849638E+02  1.753782E-13  4.593238E-13
        47  19  1.498970E+03 -8.127846E+01  5.310319E+00 -1.304985E+02  5.197631E+00  7.192460E+00
        47  20  1.506521E+03 -1.433618E+02  6.256050E-01 -8.872604E+01  1.351724E+01  1.321687E+01
        47  21  1.524861E+03 -1.982938E+02  8.429823E+00 -4.799186E+01  2.279927E+01  1.917273E+01
        47  22  1.478903E+03 -7.185589E+01 -4.091438E+00 -1.636299E+02  5.848406E+00 -2.752887E+00
        47  23  1.516086E+03 -1.177147E+02 -6.850328E+00 -1.365338E+02  1.659103E+01  1.524634E+00
        47  24  1.562248E+03 -1.580742E+02 -4.497977E-01 -1.100511E+02  2.830606E+01  5.762271E+00
        47  25  1.480494E+03 -2.301084E+01  5.665331E+00 -2.091467E+02  6.918504E+00 -1.560243E+01
        47  26  1.547261E+03 -5.442782E+01  2.494784E+00 -1.969890E+02  2.021618E+01 -1.309223E+01
        47  27  1.621091E+03 -8.198291E+01  5.126880E+00 -1.849638E+02  3.448922E+01 -1.058930E+01
        48   1  1.490730E+03  9.503321E+00  1.693309E+01 -4.028838E+01  1.439922E+01 -3.768591E+00
        48   2  1.471138E+03 -2.832825E+01  3.475896E+00 -8.708747E+01  8.872101E+00 -4.911376E+00
        48   3  1.491189E+03 -4.904719E+01  8.695561E+00 -1.326126E+02  1.913541E-01 -5.829298E+00
        48   4  1.390896E+03  2.188083E+00 -2.593555E-01 -3.999603E+01  1.639421E+01 -2.217696E-02
        48   5  1.404054E+03 -2.662919E+01 -6.679362E+00 -9.944115E+01  1.008311E+01  2.308571E+00
        48   6  1.455579E+03 -3.997858E+01  9.376789E-01 -1.569769E+02  3.243104E-01  4.781064E+00
        48   7  1.298335E+03  9.075296E+00 -9.010095E+00 -5.128369E+01  1.837568E+01  4.571914E+00
        48   8  1.345757E+03 -1.113723E+01 -8.342065E+00 -1.238424E+02  1.121371E+01  1.070416E+01
        48   9  1.430255E+03 -1.745670E+01  1.738448E+00 -1.937607E+02  2.843754E-01  1.686496E+01
        48  10  1.490730E+03  9.503321E+00  1.693309E+01 -4.028838E+01 -3.340537E-14 -6.054723E-14
        48  11  1.471138E+03 -2.832825E+01  3.475896E+00 -8.708747E+01  5.010806E-14  1.002161E-13
        48  12  1.491189E+03 -4.904719E+01  8.695561E+00 -1.326126E+02 -3.340537E-14  4.175671E-14
        48  13  1.390896E+03  2.188083E+00 -2.593555E-01 -3.999603E+01 -8.507930E-14 -1.670269E-14
        48  14  1.404054E+03 -2.662919E+01 -6.679362E+00 -9.944115E+01  8.351343E-14  3.006483E-13
        48  15  1.455579E+03 -3.997858E+01  9.376789E-01 -1.569769E+02  8.351343E-15  1.002161E-13
        48  16  1.298335E+03  9.075296E+00 -9.010095E+00 -5.128369E+01 -1.670269E-13  5.845940E-14
        48  17  1.345757E+03 -1.113723E+01 -8.342065E+00 -1.238424E+02 -6.681074E-14 -2.505403E-14
        48  18  1.430255E+03 -1.745670E+01  1.738448E+00 -1.937607E+02 -9.395261E-14 -8.351343E-14
        48  19  1.490730E+03  9.503321E+00  1.693309E+01 -4.028838E+01 -1.439922E+01  3.768591E+00
        48  20  1.471138E+03 -2.832825E+01  3.475896E+00 -8.708747E+01 -8.872101E+00  4.911376E+00
        48  21  1.491189E+03 -4.904719E+01  8.695561E+00 -1.326126E+02 -1.913541E-01  5.829298E+00
        48  22  1.390896E+03  2.188083E+00 -2.593555E-01 -3.999603E+01 -1.639421E+01  2.217696E-02
        48  23  1.404054E+03 -2.662919E+01 -6.679362E+00 -9.944115E+01 -1.008311E+01 -2.308571E+00
        48  24  1.455579E+03 -3.997858E+01  9.376789E-01 -1.569769E+02 -3.243104E-01 -4.781064E+00
        48  25  1.298335E+03  9.075296E+00 -9.010095E+00 -5.128369E+01 -1.837568E+01 -4.571914E+00
        48  26  1.345757E+03 -1.113723E+01 -8.342065E+00 -1.238424E+02 -1.121371E+01 -1.070416E+01
        48  27  1.430255E+03 -1.745670E+01  1.738448E+00 -1.937607E+02 -2.843754E-01 -1.686496E+01
        49   1  3.523864E+02  1.942652E+01  1.353498E+01  1.129462E+01  4.317031E+01  1.871413E+00
        49   2  2.352829E+02 -7.082206E+01  5.556769E+00  1.956975E+01  5.606227E+01 -3.623052E-01
        49   3  8.503755E+01 -2.490246E+02 -2.467280E+01  3.447548E+01  6.896280E+01 -4.395730E+00
        49   4  2.940988E+02 -9.255224E+01 -1.415681E+01  1.309131E+02  4.784895E+01 -1.481530E+01
        49   5  2.073022E+02 -1.703204E+02 -1.097075E+01  1.320833E+02  5.791453E+01 -2.064060E+01
        49   6  7.646957E+01 -3.573363E+02 -4.382252E+01  1.415900E+02  6.803111E+01 -2.869869E+01
        49   7  3.244033E+02 -1.363649E+02 -6.975963E+00  2.179154E+02  4.780340E+01 -2.815861E+01
        49   8  2.699531E+02 -1.990552E+02  3.155702E+00  2.086048E+02  5.462736E+01 -3.785794E+01
        49   9  1.584126E+02 -3.968099E+02 -3.854179E+01  2.098788E+02  6.157380E+01 -5.030709E+01
        49  10  3.523864E+02  1.942652E+01  1.353498E+01  1.129462E+01 -2.286180E-13  4.013864E-13
        49  11  2.352829E+02 -7.082206E+01  5.556769E+00  1.956975E+01  2.922970E-13  1.260531E-13
        49  12  8.503755E+01 -2.490246E+02 -2.467280E+01  3.447548E+01  1.325776E-13 -4.704155E-14
        49  13  2.940988E+02 -9.255224E+01 -1.415681E+01  1.309131E+02 -3.340537E-13  2.025201E-13
        49  14  2.073022E+02 -1.703204E+02 -1.097075E+01  1.320833E+02  8.351343E-15 -2.087836E-14
        49  15  7.646957E+01 -3.573363E+02 -4.382252E+01  1.415900E+02  3.089997E-13 -8.560126E-14
        49  16  3.244033E+02 -1.363649E+02 -6.975963E+00  2.179154E+02 -3.925131E-13 -9.865024E-14
        49  17  2.699531E+02 -1.990552E+02  3.155702E+00  2.086048E+02  2.609795E-14 -2.340986E-13
        49  18  1.584126E+02 -3.968099E+02 -3.854179E+01  2.098788E+02  2.630673E-13 -2.181788E-13
        49  19  3.523864E+02  1.942652E+01  1.353498E+01  1.129462E+01 -4.317031E+01 -1.871413E+00
        49  20  2.352829E+02 -7.082206E+01  5.556769E+00  1.956975E+01 -5.606227E+01  3.623052E-01
        49  21  8.503755E+01 -2.490246E+02 -2.467280E+01  3.447548E+01 -6.896280E+01  4.395730E+00
        49  22  2.940988E+02 -9.255224E+01 -1.415681E+01  1.309131E+02 -4.784895E+01  1.481530E+01
        49  23  2.073022E+02 -1.703204E+02 -1.097075E+01  1.320833E+02 -5.791453E+01  2.064060E+01
        49  24  7.646957E+01 -3.573363E+02 -4.382252E+01  1.415900E+02 -6.803111E+01  2.869869E+01
        49  25  3.244033E+02 -1.363649E+02 -6.975963E+00  2.179154E+02 -4.780340E+01  2.815861E+01
        49  26  2.699531E+02 -1.990552E+02  3.155702E+00  2.086048E+02 -5.462736E+01  3.785794E+01
        49  27  1.584126E+02 -3.968099E+02 -3.854179E+01  2.098788E+02 -6.157380E+01  5.030709E+01
        50   1  2.323260E+01 -3.229622E+02 -1.715781E+01  1.614386E+01  8.077443E+01 -7.481417E+00
        50   2  3.660836E+00 -6.622740E+02 -4.422215E+01  1.030942E+01  6.950841E+01 -2.566881E+00
        50   3 -1.598162E+02 -1.328769E+03 -2.246600E+02 -6.692134E+00  5.833303E+01 -8.403400E+00
        50   4  5.821792E+01 -4.135289E+02 -2.332486E+01  1.198135E+02  8.051560E+01 -3.784544E+01
        50   5  2.042812E+01 -6.524409E+02 -4.052654E+01  2.845875E+01  6.043357E+01 -4.300219E+01
        50   6 -2.014863E+02 -1.310856E+03 -2.581128E+02 -7.959057E+01  4.072551E+01 -5.909047E+01
        50   7  1.250632E+02 -5.006169E+02 -4.656874E+01  2.237324E+02  6.495700E+01 -6.159079E+01
        50   8  9.275121E+01 -5.379410E+02 -2.562416E+01  3.673706E+01  3.591497E+01 -7.695174E+01
        50   9 -1.291186E+02 -1.005455E+03 -2.171491E+02 -1.692798E+02  7.345541E+00 -1.017894E+02
        50  10  2.323260E+01 -3.229622E+02 -1.715781E+01  1.614386E+01  6.002528E-13 -2.526281E-13
        50  11  3.660836E+00 -6.622740E+02 -4.422215E+01  1.030942E+01  1.409289E-13 -7.829384E-14
        50  12 -1.598162E+02 -1.328769E+03 -2.246600E+02 -6.692134E+00 -4.781144E-13  4.567141E-14
        50  13  5.821792E+01 -4.135289E+02 -2.332486E+01  1.198135E+02  2.275741E-13 -2.578477E-13
        50  14  2.042812E+01 -6.524409E+02 -4.052654E+01  2.845875E+01 -1.231823E-13 -9.604044E-14
        50  15 -2.014863E+02 -1.310856E+03 -2.581128E+02 -7.959057E+01 -5.386616E-13  7.464013E-14
        50  16  1.250632E+02 -5.006169E+02 -4.656874E+01  2.237324E+02  4.217428E-13 -2.077397E-13
        50  17  9.275121E+01 -5.379410E+02 -2.562416E+01  3.673706E+01  1.106553E-13 -1.033479E-13
        50  18 -1.291186E+02 -1.005455E+03 -2.171491E+02 -1.692798E+02 -4.676752E-13  1.116992E-13
        50  19  2.323260E+01 -3.229622E+02 -1.715781E+01  1.614386E+01 -8.077443E+01  7.481417E+00
        50  20  3.660836E+00 -6.622740E+02 -4.422215E+01  1.030942E+01 -6.950841E+01  2.566881E+00
        50  21 -1.598162E+02 -1.328769E+03 -2.246600E+02 -6.692134E+00 -5.833303E+01  8.403400E+00
        50  22  5.821792E+01 -4.135289E+02 -2.332486E+01  1.198135E+02 -8.051560E+01  3.784544E+01
        50  23  2.042812E+01 -6.524409E+02 -4.052654E+01  2.845875E+01 -6.043357E+01  4.300219E+01
        50  24 -2.014863E+02 -1.310856E+03 -2.581128E+02 -7.959057E+01 -4.072551E+01  5.909047E+01
        50  25  1.250632E+02 -5.006169E+02 -4.656874E+01  2.237324E+02 -6.495700E+01  6.159079E+01
        50  26  9.275121E+01 -5.379410E+02 -2.562416E+01  3.673706E+01 -3.591497E+01  7.695174E+01
        50  27 -1.291186E+02 -1.005455E+03 -2.171491E+02 -1.692798E+02 -7.345541E+00  1.017894E+02
        51   1  1.624920E+02 -5.712267E+02 -7.838160E+01  2.618454E+02  4.879659E+01 -8.391310E+01
        51   2  7.450722E+01 -6.262558E+02 -9.826923E+01  6.445262E+01  1.587669E+01 -9.667415E+01
        51   3 -1.087717E+01 -6.629720E+02 -1.409063E+02 -1.578901E+02 -1.667282E+01 -1.154116E+02
        51   4  3.712162E+02 -4.174955E+02 -3.039505E+01  2.452381E+02  1.506658E+01 -9.879028E+01
        51   5  2.356860E+02 -3.985093E+02 -7.399062E+01  1.282593E+02 -2.136334E+01 -1.087743E+02
        51   6  1.540632E+02 -2.395226E+02 -8.970416E+01 -1.090745E+01 -5.752718E+01 -1.224755E+02
        51   7  6.181745E+02 -3.524831E+02 -2.957690E+01  2.630907E+02 -1.986870E+01 -1.119897E+02
        51   8  4.692276E+02 -2.297538E+02 -7.288706E+01  2.506690E+02 -5.819168E+01 -1.166037E+02
        51   9  4.226455E+02  1.567286E+02 -3.791906E+01  2.378800E+02 -9.654257E+01 -1.204611E+02
        51  10  1.624920E+02 -5.712267E+02 -7.838160E+01  2.618454E+02  2.192227E-13  4.092158E-13
        51  11  7.450722E+01 -6.262558E+02 -9.826923E+01  6.445262E+01 -1.649390E-13  2.714186E-14
        51  12 -1.087717E+01 -6.629720E+02 -1.409063E+02 -1.578901E+02 -4.410553E-13 -2.093055E-13
        51  13  3.712162E+02 -4.174955E+02 -3.039505E+01  2.452381E+02 -3.236145E-13  1.670269E-13
        51  14  2.356860E+02 -3.985093E+02 -7.399062E+01  1.282593E+02 -7.088202E-13  9.760632E-14
        51  15  1.540632E+02 -2.395226E+02 -8.970416E+01 -1.090745E+01 -5.115197E-13  3.732006E-13
        51  16  6.181745E+02 -3.524831E+02 -2.957690E+01  2.630907E+02 -2.784651E-13 -4.530603E-13
        51  17  4.692276E+02 -2.297538E+02 -7.288706E+01  2.506690E+02 -3.340537E-13 -1.367532E-13
        51  18  4.226455E+02  1.567286E+02 -3.791906E+01  2.378800E+02 -7.829384E-15  4.412673E-13
        51  19  1.624920E+02 -5.712267E+02 -7.838160E+01  2.618454E+02 -4.879659E+01  8.391310E+01
        51  20  7.450722E+01 -6.262558E+02 -9.826923E+01  6.445262E+01 -1.587669E+01  9.667415E+01
        51  21 -1.087717E+01 -6.629720E+02 -1.409063E+02 -1.578901E+02  1.667282E+01  1.154116E+02
        51  22  3.712162E+02 -4.174955E+02 -3.039505E+01  2.452381E+02 -1.506658E+01  9.879028E+01
        51  23  2.356860E+02 -3.985093E+02 -7.399062E+01  1.282593E+02  2.136334E+01  1.087743E+02
        51  24  1.540632E+02 -2.395226E+02 -8.970416E+01 -1.090745E+01  5.752718E+01  1.224755E+02
        51  25  6.181745E+02 -3.524831E+02 -2.957690E+01  2.630907E+02  1.986870E+01  1.119897E+02
        51  26  4.692276E+02 -2.297538E+02 -7.288706E+01  2.506690E+02  5.819168E+01  1.166037E+02
        51  27  4.226455E+02  1.567286E+02 -3.791906E+01  2.378800E+02  9.654257E+01  1.204611E+02
        52   1  3.606975E+02 -1.961658E+02 -1.311279E+01  2.664689E+02  4.555577E+01 -3.738230E+01
        52   2  3.216717E+02 -2.523224E+02 -2.014743E+00  2.547623E+02  4.901038E+01 -4.961968E+01
        52   3  2.606189E+02 -3.590395E+02 -1.017916E+01  2.523881E+02  5.288422E+01 -7.055352E+01
        52   4  4.774785E+02 -2.771510E+02 -1.668522E+01  3.179965E+02  3.736188E+01 -5.555267E+01
        52   5  4.611507E+02 -3.216937E+02 -6.985776E+00  3.043497E+02  3.230510E+01 -6.777183E+01
        52   6  4.183048E+02 -4.222968E+02 -2.676834E+01  3.004433E+02  2.757137E+01 -8.901749E+01
        52   7  6.644918E+02 -3.140863E+02 -7.768381E+00  3.443847E+02  2.206913E+01 -6.848883E+01
        52   8  6.706952E+02 -3.479712E+02 -4.883008E+00  3.280195E+02  8.078625E+00 -8.047968E+01
        52   9  6.459502E+02 -4.434059E+02 -4.167777E+01  3.217946E+02 -5.698626E+00 -1.018316E+02
        52  10  3.606975E+02 -1.961658E+02 -1.311279E+01  2.664689E+02 -3.027362E-13  1.336215E-13
        52  11  3.216717E+02 -2.523224E+02 -2.014743E+00  2.547623E+02  1.712025E-13  3.089997E-13
        52  12  2.606189E+02 -3.590395E+02 -1.017916E+01  2.523881E+02  5.219589E-13  3.027362E-13
        52  13  4.774785E+02 -2.771510E+02 -1.668522E+01  3.179965E+02 -1.670269E-13 -2.922970E-14
        52  14  4.611507E+02 -3.216937E+02 -6.985776E+00  3.043497E+02  4.175671E-14 -1.231823E-13
        52  15  4.183048E+02 -4.222968E+02 -2.676834E+01  3.004433E+02  4.885535E-13 -2.922970E-13
        52  16  6.644918E+02 -3.140863E+02 -7.768381E+00  3.443847E+02  1.513681E-13  6.681074E-14
        52  17  6.706952E+02 -3.479712E+02 -4.883008E+00  3.280195E+02 -1.732904E-13 -2.463646E-13
        52  18  6.459502E+02 -4.434059E+02 -4.167777E+01  3.217946E+02  2.213106E-13 -6.884638E-13
        52  19  3.606975E+02 -1.961658E+02 -1.311279E+01  2.664689E+02 -4.555577E+01  3.738230E+01
        52  20  3.216717E+02 -2.523224E+02 -2.014743E+00  2.547623E+02 -4.901038E+01  4.961968E+01
        52  21  2.606189E+02 -3.590395E+02 -1.017916E+01  2.523881E+02 -5.288422E+01  7.055352E+01
        52  22  4.774785E+02 -2.771510E+02 -1.668522E+01  3.179965E+02 -3.736188E+01  5.555267E+01
        52  23  4.611507E+02 -3.216937E+02 -6.985776E+00  3.043497E+02 -3.230510E+01  6.777183E+01
        52  24  4.183048E+02 -4.222968E+02 -2.676834E+01  3.004433E+02 -2.757137E+01  8.901749E+01
        52  25  6.644918E+02 -3.140863E+02 -7.768381E+00  3.443847E+02 -2.206913E+01  6.848883E+01
        52  26  6.706952E+02 -3.479712E+02 -4.883008E+00  3.280195E+02 -8.078625E+00  8.047968E+01
        52  27  6.459502E+02 -4.434059E+02 -4.167777E+01  3.217946E+02  5.698626E+00  1.018316E+02
        53   1  1.480259E+03 -2.740834E-01  2.257387E+01  1.785769E+01 -1.175443E+01 -6.444154E+00
        53   2  1.430685E+03  2.391245E+00  2.002499E+01  1.623260E+01 -1.226013E+01 -5.368118E+00
        53   3  1.379650E+03  1.161827E+00  1.636266E+01  1.728213E+01 -1.276564E+01 -4.260614E+00
        53   4  1.396872E+03 -4.780090E+00  8.149860E+00  6.075325E+01 -1.056622E+01 -1.172369E+01
        53   5  1.356217E+03 -1.175868E+00  7.142078E+00  5.877570E+01 -1.104385E+01 -9.923228E+00
        53   6  1.314259E+03 -1.486981E+00  5.074647E+00  5.948147E+01 -1.151981E+01 -8.060301E+00
        53   7  1.325243E+03 -1.834819E+00  4.247390E+00  1.019257E+02 -8.773620E+00 -1.718130E+01
        53   8  1.293242E+03  2.378698E+00  3.805255E+00  9.953098E+01 -9.193440E+00 -1.466831E+01
        53   9  1.260103E+03  2.662155E+00  2.361098E+00  9.982543E+01 -9.608832E+00 -1.206266E+01
        53  10  1.480259E+03 -2.740834E-01  2.257387E+01  1.785769E+01 -3.925131E-13  3.340537E-13
        53  11  1.430685E+03  2.391245E+00  2.002499E+01  1.623260E+01 -1.002161E-13  2.338376E-13
        53  12  1.379650E+03  1.161827E+00  1.636266E+01  1.728213E+01  2.672430E-13 -2.192227E-13
        53  13  1.396872E+03 -4.780090E+00  8.149860E+00  6.075325E+01 -5.010806E-14  1.461485E-13
        53  14  1.356217E+03 -1.175868E+00  7.142078E+00  5.877570E+01 -4.008645E-13  1.586755E-13
        53  15  1.314259E+03 -1.486981E+00  5.074647E+00  5.948147E+01 -1.169188E-13  7.933776E-14
        53  16  1.325243E+03 -1.834819E+00  4.247390E+00  1.019257E+02  2.505403E-14 -1.503242E-13
        53  17  1.293242E+03  2.378698E+00  3.805255E+00  9.953098E+01  4.175671E-14  6.681074E-14
        53  18  1.260103E+03  2.662155E+00  2.361098E+00  9.982543E+01 -6.681074E-14  1.148310E-13
        53  19  1.480259E+03 -2.740834E-01  2.257387E+01  1.785769E+01  1.175443E+01  6.444154E+00
        53  20  1.430685E+03  2.391245E+00  2.002499E+01  1.623260E+01  1.226013E+01  5.368118E+00
        53  21  1.379650E+03  1.161827E+00  1.636266E+01  1.728213E+01  1.276564E+01  4.260614E+00
        53  22  1.396872E+03 -4.780090E+00  8.149860E+00  6.075325E+01  1.056622E+01  1.172369E+01
        53  23  1.356217E+03 -1.175868E+00  7.142078E+00  5.877570E+01  1.104385E+01  9.923228E+00
        53  24  1.314259E+03 -1.486981E+00  5.074647E+00  5.948147E+01  1.151981E+01  8.060301E+00
        53  25  1.325243E+03 -1.834819E+00  4.247390E+00  1.019257E+02  8.773620E+00  1.718130E+01
        53  26  1.293242E+03  2.378698E+00  3.805255E+00  9.953098E+01  9.193440E+00  1.466831E+01
        53  27  1.260103E+03  2.662155E+00  2.361098E+00  9.982543E+01  9.608832E+00  1.206266E+01
        54   1  1.345820E+03 -1.088656E+00  1.263811E+01  1.768894E+01 -1.251349E+01 -3.733053E+00
        54   2  1.297481E+03  1.619089E+00  1.083953E+01  1.464413E+01 -1.223195E+01 -2.776992E+00
        54   3  1.247252E+03 -1.256489E-02  6.906846E+00  1.489569E+01 -1.195102E+01 -1.921851E+00
        54   4  1.291302E+03 -4.672935E-01  4.767095E+00  5.804663E+01 -1.121752E+01 -7.127227E+00
        54   5  1.252064E+03  2.501533E+00  4.416976E+00  5.265986E+01 -1.102908E+01 -5.462348E+00
        54   6  1.211176E+03  1.142353E+00  2.135145E+00  5.048260E+01 -1.084249E+01 -3.865745E+00
        54   7  1.240969E+03  3.930027E+00  2.020869E+00  9.699680E+01 -9.366330E+00 -1.069229E+01
        54   8  1.210354E+03  6.795541E+00  2.192486E+00  8.922709E+01 -9.242227E+00 -8.330679E+00
        54   9  1.178321E+03  5.346264E+00  6.336108E-01  8.457907E+01 -9.119871E+00 -6.005583E+00
        54  10  1.345820E+03 -1.088656E+00  1.263811E+01  1.768894E+01 -8.017289E-13  6.681074E-14
        54  11  1.297481E+03  1.619089E+00  1.083953E+01  1.464413E+01 -3.340537E-14  0.000000E+00
        54  12  1.247252E+03 -1.256489E-02  6.906846E+00  1.489569E+01  6.764588E-13 -8.873302E-14
        54  13  1.291302E+03 -4.672935E-01  4.767095E+00  5.804663E+01 -1.169188E-13  2.296619E-13
        54  14  1.252064E+03  2.501533E+00  4.416976E+00  5.265986E+01 -2.004322E-13  1.628512E-13
        54  15  1.211176E+03  1.142353E+00  2.135145E+00  5.048260E+01  4.008645E-13 -9.186477E-14
        54  16  1.240969E+03  3.930027E+00  2.020869E+00  9.699680E+01 -5.845940E-14  2.588916E-13
        54  17  1.210354E+03  6.795541E+00  2.192486E+00  8.922709E+01  3.340537E-14  2.421889E-13
        54  18  1.178321E+03  5.346264E+00  6.336108E-01  8.457907E+01  2.087836E-13  9.395261E-15
        54  19  1.345820E+03 -1.088656E+00  1.263811E+01  1.768894E+01  1.251349E+01  3.733053E+00
        54  20  1.297481E+03  1.619089E+00  1.083953E+01  1.464413E+01  1.223195E+01  2.776992E+00
        54  21  1.247252E+03 -1.256489E-02  6.906846E+00  1.489569E+01  1.195102E+01  1.921851E+00
        54  22  1.291302E+03 -4.672935E-01  4.767095E+00  5.804663E+01  1.121752E+01  7.127227E+00
        54  23  1.252064E+03  2.501533E+00  4.416976E+00  5.265986E+01  1.102908E+01  5.462348E+00
        54  24  1.211176E+03  1.142353E+00  2.135145E+00  5.048260E+01  1.084249E+01  3.865745E+00
        54  25  1.240969E+03  3.930027E+00  2.020869E+00  9.699680E+01  9.366330E+00  1.069229E+01
        54  26  1.210354E+03  6.795541E+00  2.192486E+00  8.922709E+01  9.242227E+00  8.330679E+00
        54  27  1.178321E+03  5.346264E+00  6.336108E-01  8.457907E+01  9.119871E+00  6.005583E+00
        55   1  1.211952E+03  5.085791E+00  8.285161E-01  1.134653E+02 -7.988122E+00 -1.035637E+01
        55   2  1.186374E+03  9.701147E+00  1.645232E+00  1.049593E+02 -7.929291E+00 -8.048329E+00
        55   3  1.158999E+03  9.189022E+00  4.611653E-01  9.855292E+01 -7.875824E+00 -5.829659E+00
        55   4  1.165764E+03  1.184743E+01  3.109481E-01  1.346647E+02 -5.763834E+00 -1.016967E+01
        55   5  1.146420E+03  1.688014E+01  8.750690E-01  1.244081E+02 -5.841101E+00 -7.919854E+00
        55   6  1.125508E+03  1.688855E+01 -2.898116E-01  1.162020E+02 -5.925802E+00 -5.761804E+00
        55   7  1.122162E+03  2.011886E+01  2.259818E-01  1.548720E+02 -3.624281E+00 -9.956868E+00
        55   8  1.109121E+03  2.566427E+01  6.832394E-01  1.428361E+02 -3.840301E+00 -7.763989E+00
        55   9  1.094739E+03  2.629035E+01 -3.163982E-01  1.328007E+02 -4.065923E+00 -5.665185E+00
        55  10  1.211952E+03  5.085791E+00  8.285161E-01  1.134653E+02 -3.340537E-13  1.002161E-13
        55  11  1.186374E+03  9.701147E+00  1.645232E+00  1.049593E+02  8.351343E-15 -1.503242E-13
        55  12  1.158999E+03  9.189022E+00  4.611653E-01  9.855292E+01  2.797700E-13 -1.513681E-13
        55  13  1.165764E+03  1.184743E+01  3.109481E-01  1.346647E+02 -1.169188E-13  4.593238E-14
        55  14  1.146420E+03  1.688014E+01  8.750690E-01  1.244081E+02  1.336215E-13 -1.169188E-13
        55  15  1.125508E+03  1.688855E+01 -2.898116E-01  1.162020E+02  3.173510E-13 -1.670269E-13
        55  16  1.122162E+03  2.011886E+01  2.259818E-01  1.548720E+02 -4.927292E-13  1.252701E-13
        55  17  1.109121E+03  2.566427E+01  6.832394E-01  1.428361E+02 -1.169188E-13 -1.169188E-13
        55  18  1.094739E+03  2.629035E+01 -3.163982E-01  1.328007E+02  5.010806E-13 -2.401011E-13
        55  19  1.211952E+03  5.085791E+00  8.285161E-01  1.134653E+02  7.988122E+00  1.035637E+01
        55  20  1.186374E+03  9.701147E+00  1.645232E+00  1.049593E+02  7.929291E+00  8.048329E+00
        55  21  1.158999E+03  9.189022E+00  4.611653E-01  9.855292E+01  7.875824E+00  5.829659E+00
        55  22  1.165764E+03  1.184743E+01  3.109481E-01  1.346647E+02  5.763834E+00  1.016967E+01
        55  23  1.146420E+03  1.688014E+01  8.750690E-01  1.244081E+02  5.841101E+00  7.919854E+00
        55  24  1.125508E+03  1.688855E+01 -2.898116E-01  1.162020E+02  5.925802E+00  5.761804E+00
        55  25  1.122162E+03  2.011886E+01  2.259818E-01  1.548720E+02  3.624281E+00  9.956868E+00
        55  26  1.109121E+03  2.566427E+01  6.832394E-01  1.428361E+02  3.840301E+00  7.763989E+00
        55  27  1.094739E+03  2.629035E+01 -3.163982E-01  1.328007E+02  4.065923E+00  5.665185E+00
        56   1  1.283706E+03 -7.626253E+00  1.125239E+00  1.217744E+02 -7.326021E+00 -1.664337E+01
        56   2  1.257933E+03  1.931419E+00  2.608074E+00  1.187038E+02 -7.754497E+00 -1.414999E+01
        56   3  1.229282E+03  3.684358E+00  1.440917E+00  1.171546E+02 -8.183789E+00 -1.167019E+01
        56   4  1.219517E+03 -5.359548E+00  2.226502E-01  1.486397E+02 -4.940719E+00 -1.635856E+01
        56   5  1.199615E+03  5.672710E+00  1.359139E+00  1.433168E+02 -5.436590E+00 -1.389546E+01
        56   6  1.177032E+03  9.036155E+00  5.685370E-02  1.394714E+02 -5.933665E+00 -1.144733E+01
        56   7  1.158824E+03 -1.407558E+00 -7.924863E-02  1.745911E+02 -2.595010E+00 -1.606208E+01
        56   8  1.144885E+03  1.117339E+01  8.171971E-01  1.669972E+02 -3.159668E+00 -1.362864E+01
        56   9  1.128462E+03  1.622240E+01 -5.132835E-01  1.608367E+02 -3.725973E+00 -1.121152E+01
        56  10  1.283706E+03 -7.626253E+00  1.125239E+00  1.217744E+02 -1.085675E-13  1.753782E-13
        56  11  1.257933E+03  1.931419E+00  2.608074E+00  1.187038E+02 -1.879052E-13  1.336215E-13
        56  12  1.229282E+03  3.684358E+00  1.440917E+00  1.171546E+02  3.340537E-14  3.653712E-14
        56  13  1.219517E+03 -5.359548E+00  2.226502E-01  1.486397E+02 -3.340537E-14  6.263507E-14
        56  14  1.199615E+03  5.672710E+00  1.359139E+00  1.433168E+02  2.338376E-13  6.681074E-14
        56  15  1.177032E+03  9.036155E+00  5.685370E-02  1.394714E+02 -1.837295E-13  8.142559E-14
        56  16  1.158824E+03 -1.407558E+00 -7.924863E-02  1.745911E+02 -3.340537E-14 -1.169188E-13
        56  17  1.144885E+03  1.117339E+01  8.171971E-01  1.669972E+02 -8.351343E-14 -5.010806E-14
        56  18  1.128462E+03  1.622240E+01 -5.132835E-01  1.608367E+02 -5.010806E-14  4.384455E-14
        56  19  1.283706E+03 -7.626253E+00  1.125239E+00  1.217744E+02  7.326021E+00  1.664337E+01
        56  20  1.257933E+03  1.931419E+00  2.608074E+00  1.187038E+02  7.754497E+00  1.414999E+01
        56  21  1.229282E+03  3.684358E+00  1.440917E+00  1.171546E+02  8.183789E+00  1.167019E+01
        56  22  1.219517E+03 -5.359548E+00  2.226502E-01  1.486397E+02  4.940719E+00  1.635856E+01
        56  23  1.199615E+03  5.672710E+00  1.359139E+00  1.433168E+02  5.436590E+00  1.389546E+01
        56  24  1.177032E+03  9.036155E+00  5.685370E-02  1.394714E+02  5.933665E+00  1.144733E+01
        56  25  1.158824E+03 -1.407558E+00 -7.924863E-02  1.745911E+02  2.595010E+00  1.606208E+01
        56  26  1.144885E+03  1.117339E+01  8.171971E-01  1.669972E+02  3.159668E+00  1.362864E+01
        56  27  1.128462E+03  1.622240E+01 -5.132835E-01  1.608367E+02  3.725973E+00  1.121152E+01
        57   1  1.034691E+03 -1.917014E+00 -6.783399E+00  6.595351E+00 -5.888122E+00  9.073368E-01
        57   2  1.018867E+03 -9.397965E-01 -6.187218E+00  4.175406E+00 -4.704028E+00  1.124986E+00
        57   3  1.001765E+03 -2.085271E+00 -7.739158E+00  2.298312E+00 -3.520571E+00  1.094008E+00
        57   4  1.043235E+03  4.507719E+00 -2.282436E+00  2.096224E+01 -5.364620E+00  1.495400E+00
        57   5  1.029013E+03  5.746204E+00 -1.659113E+00  1.514364E+01 -4.426336E+00  1.841982E+00
        57   6  1.013673E+03  4.997912E+00 -2.825872E+00  9.842306E+00 -3.491167E+00  1.920844E+00
        57   7  1.042626E+03  6.869448E+00 -2.280620E+00  3.581853E+01 -4.742614E+00  2.062196E+00
        57   8  1.029910E+03  8.310325E+00 -1.719207E+00  2.649042E+01 -4.066342E+00  2.544704E+00
        57   9  1.016236E+03  7.898090E+00 -2.590914E+00  1.764943E+01 -3.396237E+00  2.739159E+00
        57  10  1.034691E+03 -1.917014E+00 -6.783399E+00  6.595351E+00 -5.303103E-13 -4.927292E-13
        57  11  1.018867E+03 -9.397965E-01 -6.187218E+00  4.175406E+00  2.630673E-13 -1.461485E-13
        57  12  1.001765E+03 -2.085271E+00 -7.739158E+00  2.298312E+00  7.474452E-13 -1.952126E-13
        57  13  1.043235E+03  4.507719E+00 -2.282436E+00  2.096224E+01  1.002161E-13  1.920809E-13
        57  14  1.029013E+03  5.746204E+00 -1.659113E+00  1.514364E+01  4.509725E-13  2.651551E-13
        57  15  1.013673E+03  4.997912E+00 -2.825872E+00  9.842306E+00  2.338376E-13  2.505403E-14
        57  16  1.042626E+03  6.869448E+00 -2.280620E+00  3.581853E+01  1.670269E-13  8.852423E-13
        57  17  1.029910E+03  8.310325E+00 -1.719207E+00  2.649042E+01  2.755943E-13  8.810667E-13
        57  18  1.016236E+03  7.898090E+00 -2.590914E+00  1.764943E+01 -9.604044E-14  2.401011E-13
        57  19  1.034691E+03 -1.917014E+00 -6.783399E+00  6.595351E+00  5.888122E+00 -9.073368E-01
        57  20  1.018867E+03 -9.397965E-01 -6.187218E+00  4.175406E+00  4.704028E+00 -1.124986E+00
        57  21  1.001765E+03 -2.085271E+00 -7.739158E+00  2.298312E+00  3.520571E+00 -1.094008E+00
        57  22  1.043235E+03  4.507719E+00 -2.282436E+00  2.096224E+01  5.364620E+00 -1.495400E+00
        57  23  1.029013E+03  5.746204E+00 -1.659113E+00  1.514364E+01  4.426336E+00 -1.841982E+00
        57  24  1.013673E+03  4.997912E+00 -2.825872E+00  9.842306E+00  3.491167E+00 -1.920844E+00
        57  25  1.042626E+03  6.869448E+00 -2.280620E+00  3.581853E+01  4.742614E+00 -2.062196E+00
        57  26  1.029910E+03  8.310325E+00 -1.719207E+00  2.649042E+01  4.066342E+00 -2.544704E+00
        57  27  1.016236E+03  7.898090E+00 -2.590914E+00  1.764943E+01  3.396237E+00 -2.739159E+00
        58   1  9.990129E+02 -4.379924E-01 -6.404480E+00  3.375761E-01 -2.511827E+00  9.226003E-01
        58   2  9.983773E+02  4.366192E-01 -4.401413E+00 -5.777231E-01 -1.536754E+00  6.952867E-01
        58   3  9.957200E+02 -2.684223E+00 -5.133424E+00 -1.889593E+00 -5.616283E-01  4.880192E-01
        58   4  1.007229E+03  4.763252E+00 -3.175163E+00  6.162022E+00 -2.646326E+00  1.763969E+00
        58   5  1.004923E+03  3.971322E+00 -2.094192E+00  2.678010E+00 -1.690219E+00  1.452716E+00
        58   6  1.000508E+03 -1.024622E+00 -3.789197E+00 -1.288862E+00 -7.339197E-01  1.157829E+00
        58   7  1.009929E+03  7.489596E+00 -2.956358E+00  1.183605E+01 -2.848352E+00  2.612401E+00
        58   8  1.005749E+03  4.935603E+00 -2.822117E+00  5.666281E+00 -1.914285E+00  2.214354E+00
        58   9  9.993595E+02 -2.052243E+00 -5.515538E+00 -1.082093E+00 -9.799498E-01  1.828640E+00
        58  10  9.990129E+02 -4.379924E-01 -6.404480E+00  3.375761E-01  3.257024E-13 -2.672430E-13
        58  11  9.983773E+02  4.366192E-01 -4.401413E+00 -5.777231E-01  1.920809E-13 -3.507564E-13
        58  12  9.957200E+02 -2.684223E+00 -5.133424E+00 -1.889593E+00  7.098641E-14 -2.902092E-13
        58  13  1.007229E+03  4.763252E+00 -3.175163E+00  6.162022E+00  8.351343E-14 -8.351343E-14
        58  14  1.004923E+03  3.971322E+00 -2.094192E+00  2.678010E+00  1.002161E-13 -1.388411E-13
        58  15  1.000508E+03 -1.024622E+00 -3.789197E+00 -1.288862E+00 -2.004322E-13 -3.627614E-14
        58  16  1.009929E+03  7.489596E+00 -2.956358E+00  1.183605E+01  1.837295E-13  2.505403E-14
        58  17  1.005749E+03  4.935603E+00 -2.822117E+00  5.666281E+00 -8.351343E-15  3.340537E-14
        58  18  9.993595E+02 -2.052243E+00 -5.515538E+00 -1.082093E+00  4.175671E-15  2.066957E-13
        58  19  9.990129E+02 -4.379924E-01 -6.404480E+00  3.375761E-01  2.511827E+00 -9.226003E-01
        58  20  9.983773E+02  4.366192E-01 -4.401413E+00 -5.777231E-01  1.536754E+00 -6.952867E-01
        58  21  9.957200E+02 -2.684223E+00 -5.133424E+00 -1.889593E+00  5.616283E-01 -4.880192E-01
        58  22  1.007229E+03  4.763252E+00 -3.175163E+00  6.162022E+00  2.646326E+00 -1.763969E+00
        58  23  1.004923E+03  3.971322E+00 -2.094192E+00  2.678010E+00  1.690219E+00 -1.452716E+00
        58  24  1.000508E+03 -1.024622E+00 -3.789197E+00 -1.288862E+00  7.339197E-01 -1.157829E+00
        58  25  1.009929E+03  7.489596E+00 -2.956358E+00  1.183605E+01  2.848352E+00 -2.612401E+00
        58  26  1.005749E+03  4.935603E+00 -2.822117E+00  5.666281E+00  1.914285E+00 -2.214354E+00
        58  27  9.993595E+02 -2.052243E+00 -5.515538E+00 -1.082093E+00  9.799498E-01 -1.828640E+00
        59   1  1.010566E+03  1.280018E+01 -2.234797E+00  1.603351E+01 -2.936489E+00  2.851941E+00
        59   2  1.006232E+03  9.927308E+00 -2.181128E+00  8.178365E+00 -2.029864E+00  2.689985E+00
        59   3  9.978485E+02 -1.867559E+00 -6.807442E+00  7.087096E-01 -1.125175E+00  2.457289E+00
        59   4  1.009674E+03  2.212000E+01 -1.727665E+00  2.267241E+01 -2.860979E+00  3.207105E+00
        59   5  1.006413E+03  1.884344E+01 -1.545116E+00  1.251244E+01 -2.042748E+00  3.264371E+00
        59   6  9.989196E+02  6.090313E+00 -6.154160E+00  2.735398E+00 -1.227366E+00  3.247667E+00
        59   7  1.007350E+03  3.083885E+01 -2.099107E+00  2.901297E+01 -2.583219E+00  3.541143E+00
        59   8  1.005163E+03  2.709328E+01 -1.958513E+00  1.636615E+01 -1.855860E+00  3.826868E+00
        59   9  9.985422E+02  1.326503E+01 -6.742112E+00  4.094488E+00 -1.132405E+00  4.035377E+00
        59  10  1.010566E+03  1.280018E+01 -2.234797E+00  1.603351E+01 -7.516208E-14  3.340537E-14
        59  11  1.006232E+03  9.927308E+00 -2.181128E+00  8.178365E+00 -1.503242E-13  1.670269E-14
        59  12  9.978485E+02 -1.867559E+00 -6.807442E+00  7.087096E-01 -1.503242E-13 -1.565877E-13
        59  13  1.009674E+03  2.212000E+01 -1.727665E+00  2.267241E+01 -3.173510E-13 -1.461485E-14
        59  14  1.006413E+03  1.884344E+01 -1.545116E+00  1.251244E+01 -1.837295E-13 -2.714186E-14
        59  15  9.989196E+02  6.090313E+00 -6.154160E+00  2.735398E+00  4.676752E-13  1.200506E-14
        59  16  1.007350E+03  3.083885E+01 -2.099107E+00  2.901297E+01  8.351343E-15 -8.351343E-15
        59  17  1.005163E+03  2.709328E+01 -1.958513E+00  1.636615E+01  1.169188E-13 -7.516208E-14
        59  18  9.985422E+02  1.326503E+01 -6.742112E+00  4.094488E+00  5.010806E-14  1.524120E-13
        59  19  1.010566E+03  1.280018E+01 -2.234797E+00  1.603351E+01  2.936489E+00 -2.851941E+00
        59  20  1.006232E+03  9.927308E+00 -2.181128E+00  8.178365E+00  2.029864E+00 -2.689985E+00
        59  21  9.978485E+02 -1.867559E+00 -6.807442E+00  7.087096E-01  1.125175E+00 -2.457289E+00
        59  22  1.009674E+03  2.212000E+01 -1.727665E+00  2.267241E+01  2.860979E+00 -3.207105E+00
        59  23  1.006413E+03  1.884344E+01 -1.545116E+00  1.251244E+01  2.042748E+00 -3.264371E+00
        59  24  9.989196E+02  6.090313E+00 -6.154160E+00  2.735398E+00  1.227366E+00 -3.247667E+00
        59  25  1.007350E+03  3.083885E+01 -2.099107E+00  2.901297E+01  2.583219E+00 -3.541143E+00
        59  26  1.005163E+03  2.709328E+01 -1.958513E+00  1.636615E+01  1.855860E+00 -3.826868E+00
        59  27  9.985422E+02  1.326503E+01 -6.742112E+00  4.094488E+00  1.132405E+00 -4.035377E+00
        60   1  1.041036E+03  1.274941E+01 -1.496902E+00  4.219861E+01 -4.371568E+00  2.091279E+00
        60   2  1.029239E+03  1.413235E+01 -1.013104E+00  3.213396E+01 -3.834337E+00  2.568511E+00
        60   3  1.016181E+03  1.281764E+01 -2.170731E+00  2.262034E+01 -3.302738E+00  2.840571E+00
        60   4  1.036978E+03  2.296356E+01 -5.751651E-01  5.143673E+01 -3.703355E+00  2.078420E+00
        60   5  1.026948E+03  2.432363E+01 -1.559532E-01  4.015929E+01 -3.371985E+00  2.693403E+00
        60   6  1.015750E+03  2.299769E+01 -1.149013E+00  2.946564E+01 -3.049101E+00  3.087989E+00
        60   7  1.030302E+03  3.213694E+01 -8.509384E-01  6.065229E+01 -2.911925E+00  2.038943E+00
        60   8  1.022138E+03  3.349166E+01 -5.160565E-01  4.809192E+01 -2.800605E+00  2.799373E+00
        60   9  1.012901E+03  3.216493E+01 -1.365912E+00  3.614892E+01 -2.701231E+00  3.323144E+00
        60  10  1.041036E+03  1.274941E+01 -1.496902E+00  4.219861E+01 -8.351343E-14 -4.927292E-13
        60  11  1.029239E+03  1.413235E+01 -1.013104E+00  3.213396E+01  1.169188E-13 -2.964727E-13
        60  12  1.016181E+03  1.281764E+01 -2.170731E+00  2.262034E+01  2.922970E-14 -6.263507E-14
        60  13  1.036978E+03  2.296356E+01 -5.751651E-01  5.143673E+01  2.171349E-13 -8.351343E-14
        60  14  1.026948E+03  2.432363E+01 -1.559532E-01  4.015929E+01  4.342698E-13  2.087836E-14
        60  15  1.015750E+03  2.299769E+01 -1.149013E+00  2.946564E+01 -1.169188E-13 -2.087836E-15
        60  16  1.030302E+03  3.213694E+01 -8.509384E-01  6.065229E+01  1.252701E-13  5.261346E-13
        60  17  1.022138E+03  3.349166E+01 -5.160565E-01  4.809192E+01  4.175671E-13  1.461485E-13
        60  18  1.012901E+03  3.216493E+01 -1.365912E+00  3.614892E+01 -3.340537E-14 -1.043918E-15
        60  19  1.041036E+03  1.274941E+01 -1.496902E+00  4.219861E+01  4.371568E+00 -2.091279E+00
        60  20  1.029239E+03  1.413235E+01 -1.013104E+00  3.213396E+01  3.834337E+00 -2.568511E+00
        60  21  1.016181E+03  1.281764E+01 -2.170731E+00  2.262034E+01  3.302738E+00 -2.840571E+00
        60  22  1.036978E+03  2.296356E+01 -5.751651E-01  5.143673E+01  3.703355E+00 -2.078420E+00
        60  23  1.026948E+03  2.432363E+01 -1.559532E-01  4.015929E+01  3.371985E+00 -2.693403E+00
        60  24  1.015750E+03  2.299769E+01 -1.149013E+00  2.946564E+01  3.049101E+00 -3.087989E+00
        60  25  1.030302E+03  3.213694E+01 -8.509384E-01  6.065229E+01  2.911925E+00 -2.038943E+00
        60  26  1.022138E+03  3.349166E+01 -5.160565E-01  4.809192E+01  2.800605E+00 -2.799373E+00
        60  27  1.012901E+03  3.216493E+01 -1.365912E+00  3.614892E+01  2.701231E+00 -3.323144E+00
        61   1  9.673538E+02  1.028967E+02  3.748981E-01  1.107138E+02  4.253876E+00 -1.088018E+00
        61   2  9.517886E+02  1.005714E+02  5.325860E-01  1.238349E+02  4.765419E+00 -2.712771E+00
        61   3  9.357224E+02  9.535044E+01  4.431150E-01  1.388179E+02  5.280023E+00 -4.302339E+00
        61   4  9.799603E+02  8.556969E+01 -7.746641E-01  1.236682E+02  2.961017E+00 -2.138986E+00
        61   5  9.698460E+02  8.329793E+01 -5.279052E-01  1.372983E+02  3.468378E+00 -3.920626E+00
        61   6  9.591604E+02  7.781246E+01 -6.569392E-01  1.529686E+02  3.978885E+00 -5.667560E+00
        61   7  1.000861E+03  7.259150E+01  2.159309E-01  1.344484E+02  1.483011E+00 -3.092827E+00
        61   8  9.967748E+02  7.059227E+01  6.987223E-01  1.485279E+02  1.985010E+00 -5.039735E+00
        61   9  9.920476E+02  6.503831E+01  6.703720E-01  1.648400E+02  2.490236E+00 -6.952529E+00
        61  10  9.673538E+02  1.028967E+02  3.748981E-01  1.107138E+02 -3.580638E-13  3.006483E-13
        61  11  9.517886E+02  1.005714E+02  5.325860E-01  1.238349E+02  1.043918E-14  1.398850E-13
        61  12  9.357224E+02  9.535044E+01  4.431150E-01  1.388179E+02  2.463646E-13 -1.304897E-13
        61  13  9.799603E+02  8.556969E+01 -7.746641E-01  1.236682E+02 -4.760265E-13  1.503242E-13
        61  14  9.698460E+02  8.329793E+01 -5.279052E-01  1.372983E+02  1.336215E-13  1.879052E-13
        61  15  9.591604E+02  7.781246E+01 -6.569392E-01  1.529686E+02  3.173510E-13  1.670269E-14
        61  16  1.000861E+03  7.259150E+01  2.159309E-01  1.344484E+02  2.672430E-13  3.758104E-14
        61  17  9.967748E+02  7.059227E+01  6.987223E-01  1.485279E+02  1.503242E-13  1.774660E-13
        61  18  9.920476E+02  6.503831E+01  6.703720E-01  1.648400E+02  8.351343E-15  1.821637E-13
        61  19  9.673538E+02  1.028967E+02  3.748981E-01  1.107138E+02 -4.253876E+00  1.088018E+00
        61  20  9.517886E+02  1.005714E+02  5.325860E-01  1.238349E+02 -4.765419E+00  2.712771E+00
        61  21  9.357224E+02  9.535044E+01  4.431150E-01  1.388179E+02 -5.280023E+00  4.302339E+00
        61  22  9.799603E+02  8.556969E+01 -7.746641E-01  1.236682E+02 -2.961017E+00  2.138986E+00
        61  23  9.698460E+02  8.329793E+01 -5.279052E-01  1.372983E+02 -3.468378E+00  3.920626E+00
        61  24  9.591604E+02  7.781246E+01 -6.569392E-01  1.529686E+02 -3.978885E+00  5.667560E+00
        61  25  1.000861E+03  7.259150E+01  2.159309E-01  1.344484E+02 -1.483011E+00  3.092827E+00
        61  26  9.967748E+02  7.059227E+01  6.987223E-01  1.485279E+02 -1.985010E+00  5.039735E+00
        61  27  9.920476E+02  6.503831E+01  6.703720E-01  1.648400E+02 -2.490236E+00  6.952529E+00
        62   1  9.252210E+02  9.247278E+01  5.006695E-01  1.474663E+02  5.830717E+00 -5.342915E+00
        62   2  9.036033E+02  8.711402E+01  6.874645E-01  1.616803E+02  7.075397E+00 -7.362114E+00
        62   3  8.807640E+02  7.577170E+01  3.914495E-01  1.788834E+02  8.311636E+00 -9.478242E+00
        62   4  9.518911E+02  7.405707E+01 -8.521363E-01  1.619564E+02  4.402466E+00 -6.764171E+00
        62   5  9.383470E+02  6.789041E+01 -3.346834E-01  1.755517E+02  5.498324E+00 -8.945116E+00
        62   6  9.233403E+02  5.508431E+01 -7.787301E-01  1.924074E+02  6.584129E+00 -1.123693E+01
        62   7  9.871025E+02  6.059342E+01 -6.052147E-02  1.737807E+02  2.734794E+00 -8.089691E+00
        62   8  9.824605E+02  5.385410E+01  9.683574E-01  1.866242E+02  3.668522E+00 -1.043927E+01
        62   9  9.761133E+02  3.977826E+01  5.441937E-01  2.030208E+02  4.590332E+00 -1.291487E+01
        62  10  9.252210E+02  9.247278E+01  5.006695E-01  1.474663E+02  4.165232E-13 -1.962566E-13
        62  11  9.036033E+02  8.711402E+01  6.874645E-01  1.616803E+02 -1.732904E-13 -4.802022E-14
        62  12  8.807640E+02  7.577170E+01  3.914495E-01  1.788834E+02 -2.630673E-13  1.973005E-13
        62  13  9.518911E+02  7.405707E+01 -8.521363E-01  1.619564E+02  4.760265E-13 -1.210945E-13
        62  14  9.383470E+02  6.789041E+01 -3.346834E-01  1.755517E+02  7.098641E-13 -1.628512E-13
        62  15  9.233403E+02  5.508431E+01 -7.787301E-01  1.924074E+02  1.753782E-13 -4.175671E-15
        62  16  9.871025E+02  6.059342E+01 -6.052147E-02  1.737807E+02  1.085675E-13 -3.340537E-14
        62  17  9.824605E+02  5.385410E+01  9.683574E-01  1.866242E+02  2.171349E-13 -1.419728E-13
        62  18  9.761133E+02  3.977826E+01  5.441937E-01  2.030208E+02 -8.351343E-14 -1.832076E-13
        62  19  9.252210E+02  9.247278E+01  5.006695E-01  1.474663E+02 -5.830717E+00  5.342915E+00
        62  20  9.036033E+02  8.711402E+01  6.874645E-01  1.616803E+02 -7.075397E+00  7.362114E+00
        62  21  8.807640E+02  7.577170E+01  3.914495E-01  1.788834E+02 -8.311636E+00  9.478242E+00
        62  22  9.518911E+02  7.405707E+01 -8.521363E-01  1.619564E+02 -4.402466E+00  6.764171E+00
        62  23  9.383470E+02  6.789041E+01 -3.346834E-01  1.755517E+02 -5.498324E+00  8.945116E+00
        62  24  9.233403E+02  5.508431E+01 -7.787301E-01  1.924074E+02 -6.584129E+00  1.123693E+01
        62  25  9.871025E+02  6.059342E+01 -6.052147E-02  1.737807E+02 -2.734794E+00  8.089691E+00
        62  26  9.824605E+02  5.385410E+01  9.683574E-01  1.866242E+02 -3.668522E+00  1.043927E+01
        62  27  9.761133E+02  3.977826E+01  5.441937E-01  2.030208E+02 -4.590332E+00  1.291487E+01
        63   1  1.010152E+03  5.031896E+01 -3.675037E-01  1.767266E+02  1.661854E+00 -8.549506E+00
        63   2  1.009683E+03  4.262327E+01  4.084466E-01  1.893599E+02  2.513989E+00 -1.096605E+01
        63   3  1.006991E+03  2.730188E+01 -6.153706E-01  2.041504E+02  3.359021E+00 -1.345591E+01
        63   4  1.053427E+03  3.522894E+01 -3.720502E-01  1.734995E+02 -3.360520E-01 -9.689329E+00
        63   5  1.059242E+03  2.876989E+01  5.967116E-01  1.837096E+02  4.080925E-01 -1.209182E+01
        63   6  1.062575E+03  1.398100E+01 -6.737988E-01  1.962544E+02  1.143781E+00 -1.457766E+01
        63   7  1.100720E+03  2.264006E+01 -2.729663E-01  1.685584E+02 -2.447984E+00 -1.078355E+01
        63   8  1.113620E+03  1.781188E+01  1.316610E+00  1.761353E+02 -1.822313E+00 -1.317381E+01
        63   9  1.123769E+03  3.896384E+00  2.089501E-01  1.862388E+02 -1.206682E+00 -1.565841E+01
        63  10  1.010152E+03  5.031896E+01 -3.675037E-01  1.767266E+02 -1.451046E-13  5.303103E-13
        63  11  1.009683E+03  4.262327E+01  4.084466E-01  1.893599E+02 -1.315336E-13 -8.351343E-15
        63  12  1.006991E+03  2.730188E+01 -6.153706E-01  2.041504E+02 -1.503242E-13 -3.309220E-13
        63  13  1.053427E+03  3.522894E+01 -3.720502E-01  1.734995E+02 -1.670269E-14  1.461485E-13
        63  14  1.059242E+03  2.876989E+01  5.967116E-01  1.837096E+02 -2.004322E-13  9.186477E-14
        63  15  1.062575E+03  1.398100E+01 -6.737988E-01  1.962544E+02 -5.344859E-13  7.516208E-14
        63  16  1.100720E+03  2.264006E+01 -2.729663E-01  1.685584E+02 -2.922970E-13 -4.384455E-13
        63  17  1.113620E+03  1.781188E+01  1.316610E+00  1.761353E+02 -2.755943E-13 -5.637156E-14
        63  18  1.123769E+03  3.896384E+00  2.089501E-01  1.862388E+02 -2.171349E-13  4.655874E-13
        63  19  1.010152E+03  5.031896E+01 -3.675037E-01  1.767266E+02 -1.661854E+00  8.549506E+00
        63  20  1.009683E+03  4.262327E+01  4.084466E-01  1.893599E+02 -2.513989E+00  1.096605E+01
        63  21  1.006991E+03  2.730188E+01 -6.153706E-01  2.041504E+02 -3.359021E+00  1.345591E+01
        63  22  1.053427E+03  3.522894E+01 -3.720502E-01  1.734995E+02  3.360520E-01  9.689329E+00
        63  23  1.059242E+03  2.876989E+01  5.967116E-01  1.837096E+02 -4.080925E-01  1.209182E+01
        63  24  1.062575E+03  1.398100E+01 -6.737988E-01  1.962544E+02 -1.143781E+00  1.457766E+01
        63  25  1.100720E+03  2.264006E+01 -2.729663E-01  1.685584E+02  2.447984E+00  1.078355E+01
        63  26  1.113620E+03  1.781188E+01  1.316610E+00  1.761353E+02  1.822313E+00  1.317381E+01
        63  27  1.123769E+03  3.896384E+00  2.089501E-01  1.862388E+02  1.206682E+00  1.565841E+01
        64   1  1.015125E+03  6.286973E+01  6.811399E-02  1.390719E+02  5.808775E-01 -3.441581E+00
        64   2  1.014506E+03  6.148384E+01  7.957502E-01  1.527520E+02  1.064171E+00 -5.378318E+00
        64   3  1.012453E+03  5.489218E+01  2.445151E-01  1.682885E+02  1.541447E+00 -7.376950E+00
        64   4  1.041911E+03  4.630980E+01 -7.541096E-01  1.395284E+02 -1.091524E+00 -4.430899E+00
        64   5  1.046647E+03  4.510009E+01 -4.382579E-02  1.520510E+02 -6.985729E-01 -6.446064E+00
        64   6  1.049751E+03  3.811981E+01 -9.467528E-01  1.665918E+02 -3.127592E-01 -8.531389E+00
        64   7  1.075652E+03  3.413319E+01  4.086338E-02  1.376165E+02 -2.952820E+00 -5.321132E+00
        64   8  1.086422E+03  3.341559E+01  9.937549E-01  1.488222E+02 -2.659340E+00 -7.419492E+00
        64   9  1.095358E+03  2.632015E+01 -1.522978E-02  1.622214E+02 -2.374312E+00 -9.597079E+00
        64  10  1.015125E+03  6.286973E+01  6.811399E-02  1.390719E+02  7.724992E-14 -4.467968E-13
        64  11  1.014506E+03  6.148384E+01  7.957502E-01  1.527520E+02  8.977693E-14  8.977693E-14
        64  12  1.012453E+03  5.489218E+01  2.445151E-01  1.682885E+02  1.837295E-13  5.026464E-13
        64  13  1.041911E+03  4.630980E+01 -7.541096E-01  1.395284E+02  8.518370E-13 -2.755943E-13
        64  14  1.046647E+03  4.510009E+01 -4.382579E-02  1.520510E+02  1.135783E-12 -3.758104E-14
        64  15  1.049751E+03  3.811981E+01 -9.467528E-01  1.665918E+02  2.672430E-13  4.593238E-14
        64  16  1.075652E+03  3.413319E+01  4.086338E-02  1.376165E+02  7.850262E-13  1.127431E-13
        64  17  1.086422E+03  3.341559E+01  9.937549E-01  1.488222E+02  3.591077E-13  5.010806E-14
        64  18  1.095358E+03  2.632015E+01 -1.522978E-02  1.622214E+02 -4.175671E-13 -2.401011E-13
        64  19  1.015125E+03  6.286973E+01  6.811399E-02  1.390719E+02 -5.808775E-01  3.441581E+00
        64  20  1.014506E+03  6.148384E+01  7.957502E-01  1.527520E+02 -1.064171E+00  5.378318E+00
        64  21  1.012453E+03  5.489218E+01  2.445151E-01  1.682885E+02 -1.541447E+00  7.376950E+00
        64  22  1.041911E+03  4.630980E+01 -7.541096E-01  1.395284E+02  1.091524E+00  4.430899E+00
        64  23  1.046647E+03  4.510009E+01 -4.382579E-02  1.520510E+02  6.985729E-01  6.446064E+00
        64  24  1.049751E+03  3.811981E+01 -9.467528E-01  1.665918E+02  3.127592E-01  8.531389E+00
        64  25  1.075652E+03  3.413319E+01  4.086338E-02  1.376165E+02  2.952820E+00  5.321132E+00
        64  26  1.086422E+03  3.341559E+01  9.937549E-01  1.488222E+02  2.659340E+00  7.419492E+00
        64  27  1.095358E+03  2.632015E+01 -1.522978E-02  1.622214E+02  2.374312E+00  9.597079E+00
        65   1  9.721155E+02  1.101834E+02 -7.525616E-02  9.614357E+01  4.328045E+00 -8.180417E-02
        65   2  9.830857E+02  1.075334E+02  5.803354E-01  9.301632E+01  3.652628E+00  6.377510E-01
        65   3  9.912776E+02  1.024282E+02  3.712810E-01  8.868435E+01  2.960767E+00  1.341380E+00
        65   4  9.784599E+02  1.206380E+02 -2.542577E-01  7.850828E+01  4.774690E+00  1.281433E+00
        65   5  9.868325E+02  1.167524E+02  2.428826E-01  7.669487E+01  4.053352E+00  1.933478E+00
        65   6  9.922538E+02  1.104729E+02 -2.156721E-01  7.368801E+01  3.300494E+00  2.563138E+00
        65   7  9.858441E+02  1.360331E+02  4.173402E-01  6.126317E+01  5.238115E+00  2.588733E+00
        65   8  9.919361E+02  1.315262E+02  1.204654E+00  6.078190E+01  4.463890E+00  3.195121E+00
        65   9  9.949629E+02  1.248071E+02  9.990831E-01  5.912239E+01  3.642050E+00  3.778221E+00
        65  10  9.721155E+02  1.101834E+02 -7.525616E-02  9.614357E+01  2.672430E-13  2.630673E-13
        65  11  9.830857E+02  1.075334E+02  5.803354E-01  9.301632E+01  2.171349E-13  7.724992E-14
        65  12  9.912776E+02  1.024282E+02  3.712810E-01  8.868435E+01  4.175671E-13 -3.763324E-13
        65  13  9.784599E+02  1.206380E+02 -2.542577E-01  7.850828E+01  3.465807E-13  0.000000E+00
        65  14  9.868325E+02  1.167524E+02  2.428826E-01  7.669487E+01  3.674591E-13 -1.294458E-13
        65  15  9.922538E+02  1.104729E+02 -2.156721E-01  7.368801E+01  1.753782E-13 -3.037801E-13
        65  16  9.858441E+02  1.360331E+02  4.173402E-01  6.126317E+01  2.672430E-13 -2.943848E-13
        65  17  9.919361E+02  1.315262E+02  1.204654E+00  6.078190E+01  3.340537E-13 -2.087836E-14
        65  18  9.949629E+02  1.248071E+02  9.990831E-01  5.912239E+01 -2.421889E-13  1.605024E-13
        65  19  9.721155E+02  1.101834E+02 -7.525616E-02  9.614357E+01 -4.328045E+00  8.180417E-02
        65  20  9.830857E+02  1.075334E+02  5.803354E-01  9.301632E+01 -3.652628E+00 -6.377510E-01
        65  21  9.912776E+02  1.024282E+02  3.712810E-01  8.868435E+01 -2.960767E+00 -1.341380E+00
        65  22  9.784599E+02  1.206380E+02 -2.542577E-01  7.850828E+01 -4.774690E+00 -1.281433E+00
        65  23  9.868325E+02  1.167524E+02  2.428826E-01  7.669487E+01 -4.053352E+00 -1.933478E+00
        65  24  9.922538E+02  1.104729E+02 -2.156721E-01  7.368801E+01 -3.300494E+00 -2.563138E+00
        65  25  9.858441E+02  1.360331E+02  4.173402E-01  6.126317E+01 -5.238115E+00 -2.588733E+00
        65  26  9.919361E+02  1.315262E+02  1.204654E+00  6.078190E+01 -4.463890E+00 -3.195121E+00
        65  27  9.949629E+02  1.248071E+02  9.990831E-01  5.912239E+01 -3.642050E+00 -3.778221E+00
        66   1  9.942960E+02  9.953109E+01  6.626841E-02  8.608534E+01  2.547064E+00  1.716968E+00
        66   2  1.000163E+03  9.512796E+01  4.994316E-01  7.856104E+01  1.804928E+00  2.468945E+00
        66   3  1.003348E+03  8.860115E+01  2.458426E-01  6.990988E+01  1.088205E+00  3.245485E+00
        66   4  9.946635E+02  1.076504E+02 -1.587310E-01  7.157349E+01  2.839038E+00  2.910624E+00
        66   5  9.992787E+02  1.012777E+02  1.368924E-01  6.555270E+01  2.024319E+00  3.497889E+00
        66   6  1.001458E+03  9.314712E+01 -1.768024E-01  5.860326E+01  1.196702E+00  4.075995E+00
        66   7  9.960271E+02  1.191384E+02  4.175627E-01  5.714974E+01  3.130256E+00  4.107187E+00
        66   8  9.995875E+02  1.109464E+02  8.435694E-01  5.257388E+01  2.232625E+00  4.572903E+00
        66   9  1.000976E+03  1.013545E+02  7.402092E-01  4.723443E+01  1.282618E+00  5.013020E+00
        66  10  9.942960E+02  9.953109E+01  6.626841E-02  8.608534E+01  2.004322E-13  7.641479E-13
        66  11  1.000163E+03  9.512796E+01  4.994316E-01  7.856104E+01  1.670269E-13  3.946009E-13
        66  12  1.003348E+03  8.860115E+01  2.458426E-01  6.990988E+01 -1.336215E-13 -2.714186E-13
        66  13  9.946635E+02  1.076504E+02 -1.587310E-01  7.157349E+01 -2.630673E-13  4.008645E-13
        66  14  9.992787E+02  1.012777E+02  1.368924E-01  6.555270E+01  4.175671E-15  3.799861E-13
        66  15  1.001458E+03  9.314712E+01 -1.768024E-01  5.860326E+01 -3.758104E-14  2.536720E-13
        66  16  9.960271E+02  1.191384E+02  4.175627E-01  5.714974E+01 -1.336215E-13 -2.755943E-13
        66  17  9.995875E+02  1.109464E+02  8.435694E-01  5.257388E+01  4.676752E-13  1.649390E-13
        66  18  1.000976E+03  1.013545E+02  7.402092E-01  4.723443E+01  8.351343E-14  4.791583E-13
        66  19  9.942960E+02  9.953109E+01  6.626841E-02  8.608534E+01 -2.547064E+00 -1.716968E+00
        66  20  1.000163E+03  9.512796E+01  4.994316E-01  7.856104E+01 -1.804928E+00 -2.468945E+00
        66  21  1.003348E+03  8.860115E+01  2.458426E-01  6.990988E+01 -1.088205E+00 -3.245485E+00
        66  22  9.946635E+02  1.076504E+02 -1.587310E-01  7.157349E+01 -2.839038E+00 -2.910624E+00
        66  23  9.992787E+02  1.012777E+02  1.368924E-01  6.555270E+01 -2.024319E+00 -3.497889E+00
        66  24  1.001458E+03  9.314712E+01 -1.768024E-01  5.860326E+01 -1.196702E+00 -4.075995E+00
        66  25  9.960271E+02  1.191384E+02  4.175627E-01  5.714974E+01 -3.130256E+00 -4.107187E+00
        66  26  9.995875E+02  1.109464E+02  8.435694E-01  5.257388E+01 -2.232625E+00 -4.572903E+00
        66  27  1.000976E+03  1.013545E+02  7.402092E-01  4.723443E+01 -1.282618E+00 -5.013020E+00
        67   1  9.988669E+02  1.276611E+02  1.663265E+00  4.791799E+01  3.189848E+00  4.808593E+00
        67   2  1.000299E+03  1.162973E+02  1.170694E+00  4.350243E+01  2.220925E+00  5.184261E+00
        67   3  1.000752E+03  1.050786E+02  8.884919E-01  3.931655E+01  1.262413E+00  5.563837E+00
        67   4  9.982459E+02  1.416333E+02  2.234540E+00  2.824892E+01  2.265642E+00  5.573796E+00
        67   5  9.991210E+02  1.261027E+02  1.401477E+00  2.553790E+01  1.512817E+00  5.857345E+00
        67   6  9.995205E+02  1.107183E+02  7.578364E-01  2.323490E+01  8.254395E-01  6.153819E+00
        67   7  1.000130E+03  1.609576E+02  5.770484E+00  8.190639E+00  1.371247E+00  6.225403E+00
        67   8  1.000423E+03  1.410494E+02  4.321752E+00  7.030920E+00  8.442300E-01  6.366230E+00
        67   9  1.000740E+03  1.212525E+02  3.029122E+00  6.397437E+00  4.375897E-01  6.512092E+00
        67  10  9.988669E+02  1.276611E+02  1.663265E+00  4.791799E+01 -1.336215E-13 -3.173510E-13
        67  11  1.000299E+03  1.162973E+02  1.170694E+00  4.350243E+01 -7.683235E-13 -9.812828E-14
        67  12  1.000752E+03  1.050786E+02  8.884919E-01  3.931655E+01 -7.307425E-13  2.160910E-13
        67  13  9.982459E+02  1.416333E+02  2.234540E+00  2.824892E+01  2.547160E-13 -1.879052E-13
        67  14  9.991210E+02  1.261027E+02  1.401477E+00  2.553790E+01  2.505403E-14  8.768910E-14
        67  15  9.995205E+02  1.107183E+02  7.578364E-01  2.323490E+01  2.296619E-13  3.544101E-13
        67  16  1.000130E+03  1.609576E+02  5.770484E+00  8.190639E+00  2.004322E-13 -1.127431E-13
        67  17  1.000423E+03  1.410494E+02  4.321752E+00  7.030920E+00  0.000000E+00  5.637156E-14
        67  18  1.000740E+03  1.212525E+02  3.029122E+00  6.397437E+00  1.169188E-13  2.857725E-13
        67  19  9.988669E+02  1.276611E+02  1.663265E+00  4.791799E+01 -3.189848E+00 -4.808593E+00
        67  20  1.000299E+03  1.162973E+02  1.170694E+00  4.350243E+01 -2.220925E+00 -5.184261E+00
        67  21  1.000752E+03  1.050786E+02  8.884919E-01  3.931655E+01 -1.262413E+00 -5.563837E+00
        67  22  9.982459E+02  1.416333E+02  2.234540E+00  2.824892E+01 -2.265642E+00 -5.573796E+00
        67  23  9.991210E+02  1.261027E+02  1.401477E+00  2.553790E+01 -1.512817E+00 -5.857345E+00
        67  24  9.995205E+02  1.107183E+02  7.578364E-01  2.323490E+01 -8.254395E-01 -6.153819E+00
        67  25  1.000130E+03  1.609576E+02  5.770484E+00  8.190639E+00 -1.371247E+00 -6.225403E+00
        67  26  1.000423E+03  1.410494E+02  4.321752E+00  7.030920E+00 -8.442300E-01 -6.366230E+00
        67  27  1.000740E+03  1.212525E+02  3.029122E+00  6.397437E+00 -4.375897E-01 -6.512092E+00
        68   1  9.918010E+02  1.477114E+02  1.506708E+00  5.064451E+01  5.716843E+00  3.523688E+00
        68   2  9.948779E+02  1.402592E+02  1.331454E+00  5.010852E+01  4.776295E+00  4.048102E+00
        68   3  9.974265E+02  1.329762E+02  1.595625E+00  4.967126E+01  3.779011E+00  4.551271E+00
        68   4  9.941423E+02  1.714204E+02  2.520091E+00  2.962881E+01  4.278141E+00  4.272994E+00
        68   5  9.956181E+02  1.594002E+02  1.871766E+00  2.957405E+01  3.513550E+00  4.806211E+00
        68   6  9.966500E+02  1.473117E+02  1.526114E+00  2.942943E+01  2.728313E+00  5.335346E+00
        68   7  1.001179E+03  2.057185E+02  9.458098E+00  8.090618E+00  2.866123E+00  4.933272E+00
        68   8  1.001535E+03  1.902277E+02  8.516679E+00  8.336250E+00  2.291104E+00  5.424228E+00
        68   9  1.001673E+03  1.747279E+02  7.873016E+00  8.269984E+00  1.733130E+00  5.915890E+00
        68  10  9.918010E+02  1.477114E+02  1.506708E+00  5.064451E+01  0.000000E+00 -1.993883E-13
        68  11  9.948779E+02  1.402592E+02  1.331454E+00  5.010852E+01 -1.503242E-13  0.000000E+00
        68  12  9.974265E+02  1.329762E+02  1.595625E+00  4.967126E+01 -2.192227E-13  2.124373E-13
        68  13  9.941423E+02  1.714204E+02  2.520091E+00  2.962881E+01 -6.681074E-13  3.048240E-13
        68  14  9.956181E+02  1.594002E+02  1.871766E+00  2.957405E+01 -1.023039E-12  1.252701E-13
        68  15  9.966500E+02  1.473117E+02  1.526114E+00  2.942943E+01 -1.043918E-13  8.821106E-14
        68  16  1.001179E+03  2.057185E+02  9.458098E+00  8.090618E+00 -3.674591E-13  5.010806E-13
        68  17  1.001535E+03  1.902277E+02  8.516679E+00  8.336250E+00  1.670269E-14  3.966888E-14
        68  18  1.001673E+03  1.747279E+02  7.873016E+00  8.269984E+00  2.004322E-13 -2.757248E-13
        68  19  9.918010E+02  1.477114E+02  1.506708E+00  5.064451E+01 -5.716843E+00 -3.523688E+00
        68  20  9.948779E+02  1.402592E+02  1.331454E+00  5.010852E+01 -4.776295E+00 -4.048102E+00
        68  21  9.974265E+02  1.329762E+02  1.595625E+00  4.967126E+01 -3.779011E+00 -4.551271E+00
        68  22  9.941423E+02  1.714204E+02  2.520091E+00  2.962881E+01 -4.278141E+00 -4.272994E+00
        68  23  9.956181E+02  1.594002E+02  1.871766E+00  2.957405E+01 -3.513550E+00 -4.806211E+00
        68  24  9.966500E+02  1.473117E+02  1.526114E+00  2.942943E+01 -2.728313E+00 -5.335346E+00
        68  25  1.001179E+03  2.057185E+02  9.458098E+00  8.090618E+00 -2.866123E+00 -4.933272E+00
        68  26  1.001535E+03  1.902277E+02  8.516679E+00  8.336250E+00 -2.291104E+00 -5.424228E+00
        68  27  1.001673E+03  1.747279E+02  7.873016E+00  8.269984E+00 -1.733130E+00 -5.915890E+00
        69   1  9.992826E+02  2.211446E+01 -5.667395E+00  4.734995E+00 -1.003275E+00  4.582823E+00
        69   2  9.993056E+02  3.771618E+01 -4.442168E+00  5.522025E+00 -7.889770E-01  5.155687E+00
        69   3  9.985635E+02  5.285283E+01 -3.996583E+00  6.355564E+00 -5.167559E-01  5.727715E+00
        69   4  1.004223E+03  3.268903E+01 -2.196044E+00  1.835023E+01 -1.654497E+00  4.342845E+00
        69   5  1.003717E+03  4.657427E+01 -1.238185E+00  2.004484E+01 -1.283373E+00  4.829294E+00
        69   6  1.002516E+03  6.000831E+01 -9.724506E-01  2.194969E+01 -8.306577E-01  5.310275E+00
        69   7  1.006396E+03  3.716953E+01 -1.882062E+00  3.196042E+01 -2.312393E+00  3.947631E+00
        69   8  1.005160E+03  4.878448E+01 -1.286270E+00  3.461376E+01 -1.778128E+00  4.321295E+00
        69   9  1.003270E+03  5.988933E+01 -1.325167E+00  3.766378E+01 -1.135446E+00  4.681432E+00
        69  10  9.992826E+02  2.211446E+01 -5.667395E+00  4.734995E+00 -2.004322E-13  2.171349E-13
        69  11  9.993056E+02  3.771618E+01 -4.442168E+00  5.522025E+00 -2.338376E-13  7.933776E-14
        69  12  9.985635E+02  5.285283E+01 -3.996583E+00  6.355564E+00 -5.595400E-13  2.035640E-14
        69  13  1.004223E+03  3.268903E+01 -2.196044E+00  1.835023E+01  3.257024E-13  1.670269E-13
        69  14  1.003717E+03  4.657427E+01 -1.238185E+00  2.004484E+01  6.700974E-13  2.672430E-13
        69  15  1.002516E+03  6.000831E+01 -9.724506E-01  2.194969E+01 -2.213106E-13  2.776821E-13
        69  16  1.006396E+03  3.716953E+01 -1.882062E+00  3.196042E+01 -1.336215E-13 -1.920809E-13
        69  17  1.005160E+03  4.878448E+01 -1.286270E+00  3.461376E+01  2.672430E-13  6.681074E-14
        69  18  1.003270E+03  5.988933E+01 -1.325167E+00  3.766378E+01  5.511886E-13  1.722464E-13
        69  19  9.992826E+02  2.211446E+01 -5.667395E+00  4.734995E+00  1.003275E+00 -4.582823E+00
        69  20  9.993056E+02  3.771618E+01 -4.442168E+00  5.522025E+00  7.889770E-01 -5.155687E+00
        69  21  9.985635E+02  5.285283E+01 -3.996583E+00  6.355564E+00  5.167559E-01 -5.727715E+00
        69  22  1.004223E+03  3.268903E+01 -2.196044E+00  1.835023E+01  1.654497E+00 -4.342845E+00
        69  23  1.003717E+03  4.657427E+01 -1.238185E+00  2.004484E+01  1.283373E+00 -4.829294E+00
        69  24  1.002516E+03  6.000831E+01 -9.724506E-01  2.194969E+01  8.306577E-01 -5.310275E+00
        69  25  1.006396E+03  3.716953E+01 -1.882062E+00  3.196042E+01  2.312393E+00 -3.947631E+00
        69  26  1.005160E+03  4.878448E+01 -1.286270E+00  3.461376E+01  1.778128E+00 -4.321295E+00
        69  27  1.003270E+03  5.988933E+01 -1.325167E+00  3.766378E+01  1.135446E+00 -4.681432E+00
        70   1  9.997116E+02  6.610966E+01 -2.135862E+00  6.305961E+00 -3.322909E-01  6.093166E+00
        70   2  1.000020E+03  8.635400E+01 -3.861443E-01  6.065410E+00 -8.427848E-03  6.300252E+00
        70   3  9.994934E+02  1.061646E+02  8.321086E-01  6.467837E+00  2.745133E-01  6.507928E+00
        70   4  1.001453E+03  6.750395E+01 -1.203460E+00  2.243610E+01 -5.316401E-01  5.651095E+00
        70   5  1.001271E+03  8.495512E+01  6.028583E-02  2.197538E+01 -1.455968E-03  5.888382E+00
        70   6  1.000237E+03  1.018428E+02  7.139667E-01  2.224672E+01  5.081841E-01  6.127045E+00
        70   7  1.002544E+03  6.744766E+01 -1.060310E+00  3.848386E+01 -7.149896E-01  4.985182E+00
        70   8  1.001866E+03  8.194036E+01 -2.036383E-01  3.781306E+01  3.601135E-02  5.231375E+00
        70   9  1.000311E+03  9.569518E+01 -5.199592E-02  3.797551E+01  7.912093E-01  5.477045E+00
        70  10  9.997116E+02  6.610966E+01 -2.135862E+00  6.305961E+00 -7.349182E-13 -1.912457E-12
        70  11  1.000020E+03  8.635400E+01 -3.861443E-01  6.065410E+00 -9.019450E-13 -1.419728E-13
        70  12  9.994934E+02  1.061646E+02  8.321086E-01  6.467837E+00 -1.920809E-13  1.734991E-12
        70  13  1.001453E+03  6.750395E+01 -1.203460E+00  2.243610E+01  4.802022E-14 -1.394674E-12
        70  14  1.001271E+03  8.495512E+01  6.028583E-02  2.197538E+01 -6.534926E-13 -3.465807E-13
        70  15  1.000237E+03  1.018428E+02  7.139667E-01  2.224672E+01 -6.347020E-13  6.848101E-13
        70  16  1.002544E+03  6.744766E+01 -1.060310E+00  3.848386E+01  2.004322E-13 -2.380133E-13
        70  17  1.001866E+03  8.194036E+01 -2.036383E-01  3.781306E+01 -7.683235E-13 -1.023039E-13
        70  18  1.000311E+03  9.569518E+01 -5.199592E-02  3.797551E+01 -6.764588E-13 -6.315703E-14
        70  19  9.997116E+02  6.610966E+01 -2.135862E+00  6.305961E+00  3.322909E-01 -6.093166E+00
        70  20  1.000020E+03  8.635400E+01 -3.861443E-01  6.065410E+00  8.427848E-03 -6.300252E+00
        70  21  9.994934E+02  1.061646E+02  8.321086E-01  6.467837E+00 -2.745133E-01 -6.507928E+00
        70  22  1.001453E+03  6.750395E+01 -1.203460E+00  2.243610E+01  5.316401E-01 -5.651095E+00
        70  23  1.001271E+03  8.495512E+01  6.028583E-02  2.197538E+01  1.455968E-03 -5.888382E+00
        70  24  1.000237E+03  1.018428E+02  7.139667E-01  2.224672E+01 -5.081841E-01 -6.127045E+00
        70  25  1.002544E+03  6.744766E+01 -1.060310E+00  3.848386E+01  7.149896E-01 -4.985182E+00
        70  26  1.001866E+03  8.194036E+01 -2.036383E-01  3.781306E+01 -3.601135E-02 -5.231375E+00
        70  27  1.000311E+03  9.569518E+01 -5.199592E-02  3.797551E+01 -7.912093E-01 -5.477045E+00
        71   1  1.004990E+03  6.743999E+01 -5.012489E-01  4.583983E+01 -8.008770E-01  4.504755E+00
        71   2  1.002972E+03  8.005788E+01 -1.979813E-01  4.578024E+01 -3.225931E-02  4.756490E+00
        71   3  1.000527E+03  9.240174E+01 -3.418550E-01  4.576156E+01  7.656834E-01  5.003504E+00
        71   4  1.009136E+03  6.555610E+01 -1.721219E-01  5.740374E+01 -7.998104E-01  3.649767E+00
        71   5  1.006246E+03  7.719170E+01  2.481093E-01  5.708834E+01 -5.176170E-02  3.908830E+00
        71   6  1.002822E+03  8.849221E+01  1.504614E-01  5.683057E+01  7.227369E-01  4.161846E+00
        71   7  1.012637E+03  6.233943E+01 -4.777215E-01  6.929134E+01 -7.968669E-01  2.768520E+00
        71   8  1.008765E+03  7.289963E+01 -4.142934E-02  6.877233E+01 -6.838168E-02  3.037999E+00
        71   9  1.004227E+03  8.304579E+01 -2.071684E-01  6.833813E+01  6.834208E-01  3.300391E+00
        71  10  1.004990E+03  6.743999E+01 -5.012489E-01  4.583983E+01  0.000000E+00  3.089997E-13
        71  11  1.002972E+03  8.005788E+01 -1.979813E-01  4.578024E+01  2.338376E-13 -8.560126E-14
        71  12  1.000527E+03  9.240174E+01 -3.418550E-01  4.576156E+01  3.131754E-13 -3.878155E-13
        71  13  1.009136E+03  6.555610E+01 -1.721219E-01  5.740374E+01  8.351343E-15  1.336215E-13
        71  14  1.006246E+03  7.719170E+01  2.481093E-01  5.708834E+01  1.962566E-13 -1.586755E-13
        71  15  1.002822E+03  8.849221E+01  1.504614E-01  5.683057E+01  3.883374E-13 -3.361415E-13
        71  16  1.012637E+03  6.233943E+01 -4.777215E-01  6.929134E+01 -4.008645E-13  1.962566E-13
        71  17  1.008765E+03  7.289963E+01 -4.142934E-02  6.877233E+01 -1.336215E-13 -6.263507E-15
        71  18  1.004227E+03  8.304579E+01 -2.071684E-01  6.833813E+01 -5.094319E-13 -2.187008E-13
        71  19  1.004990E+03  6.743999E+01 -5.012489E-01  4.583983E+01  8.008770E-01 -4.504755E+00
        71  20  1.002972E+03  8.005788E+01 -1.979813E-01  4.578024E+01  3.225931E-02 -4.756490E+00
        71  21  1.000527E+03  9.240174E+01 -3.418550E-01  4.576156E+01 -7.656834E-01 -5.003504E+00
        71  22  1.009136E+03  6.555610E+01 -1.721219E-01  5.740374E+01  7.998104E-01 -3.649767E+00
        71  23  1.006246E+03  7.719170E+01  2.481093E-01  5.708834E+01  5.176170E-02 -3.908830E+00
        71  24  1.002822E+03  8.849221E+01  1.504614E-01  5.683057E+01 -7.227369E-01 -4.161846E+00
        71  25  1.012637E+03  6.233943E+01 -4.777215E-01  6.929134E+01  7.968669E-01 -2.768520E+00
        71  26  1.008765E+03  7.289963E+01 -4.142934E-02  6.877233E+01  6.838168E-02 -3.037999E+00
        71  27  1.004227E+03  8.304579E+01 -2.071684E-01  6.833813E+01 -6.834208E-01 -3.300391E+00
        72   1  1.011450E+03  3.899924E+01 -9.824328E-01  3.920765E+01 -2.417945E+00  3.599090E+00
        72   2  1.008777E+03  4.932833E+01 -8.394814E-01  4.214636E+01 -1.845232E+00  3.920621E+00
        72   3  1.005907E+03  5.957375E+01 -1.041452E+00  4.490117E+01 -1.211107E+00  4.232259E+00
        72   4  1.019642E+03  4.014174E+01 -1.861182E-01  5.105844E+01 -2.451899E+00  2.925499E+00
        72   5  1.015600E+03  4.985273E+01 -1.934229E-02  5.390158E+01 -1.867007E+00  3.188775E+00
        72   6  1.011290E+03  5.948204E+01 -1.950701E-01  5.658651E+01 -1.213975E+00  3.436474E+00
        72   7  1.026820E+03  3.876164E+01 -4.544245E-01  6.344204E+01 -2.488052E+00  2.200576E+00
        72   8  1.021275E+03  4.770367E+01 -3.605213E-01  6.626102E+01 -1.888896E+00  2.396867E+00
        72   9  1.015365E+03  5.654602E+01 -6.207069E-01  6.895974E+01 -1.213799E+00  2.570088E+00
        72  10  1.011450E+03  3.899924E+01 -9.824328E-01  3.920765E+01 -3.340537E-13 -1.106553E-13
        72  11  1.008777E+03  4.932833E+01 -8.394814E-01  4.214636E+01 -1.336215E-13  4.175671E-14
        72  12  1.005907E+03  5.957375E+01 -1.041452E+00  4.490117E+01  9.186477E-14  1.962566E-13
        72  13  1.019642E+03  4.014174E+01 -1.861182E-01  5.105844E+01 -6.117359E-13  3.006483E-13
        72  14  1.015600E+03  4.985273E+01 -1.934229E-02  5.390158E+01 -6.374750E-13  5.010806E-14
        72  15  1.011290E+03  5.948204E+01 -1.950701E-01  5.658651E+01 -1.941687E-13 -1.691147E-13
        72  16  1.026820E+03  3.876164E+01 -4.544245E-01  6.344204E+01  1.002161E-13  5.678913E-13
        72  17  1.021275E+03  4.770367E+01 -3.605213E-01  6.626102E+01 -3.006483E-13  1.002161E-13
        72  18  1.015365E+03  5.654602E+01 -6.207069E-01  6.895974E+01  1.252701E-13 -4.895975E-13
        72  19  1.011450E+03  3.899924E+01 -9.824328E-01  3.920765E+01  2.417945E+00 -3.599090E+00
        72  20  1.008777E+03  4.932833E+01 -8.394814E-01  4.214636E+01  1.845232E+00 -3.920621E+00
        72  21  1.005907E+03  5.957375E+01 -1.041452E+00  4.490117E+01  1.211107E+00 -4.232259E+00
        72  22  1.019642E+03  4.014174E+01 -1.861182E-01  5.105844E+01  2.451899E+00 -2.925499E+00
        72  23  1.015600E+03  4.985273E+01 -1.934229E-02  5.390158E+01  1.867007E+00 -3.188775E+00
        72  24  1.011290E+03  5.948204E+01 -1.950701E-01  5.658651E+01  1.213975E+00 -3.436474E+00
        72  25  1.026820E+03  3.876164E+01 -4.544245E-01  6.344204E+01  2.488052E+00 -2.200576E+00
        72  26  1.021275E+03  4.770367E+01 -3.605213E-01  6.626102E+01  1.888896E+00 -2.396867E+00
        72  27  1.015365E+03  5.654602E+01 -6.207069E-01  6.895974E+01  1.213799E+00 -2.570088E+00
        73   1  1.001571E+03  2.086432E+02  1.004678E+01 -7.166698E+00  2.538323E+00 -4.921689E+00
        73   2  1.001399E+03  1.912943E+02  8.555635E+00 -7.198365E+00  2.101754E+00 -5.443156E+00
        73   3  1.000901E+03  1.739621E+02  7.360542E+00 -7.716490E+00  1.645183E+00 -5.964219E+00
        73   4  9.951863E+02  1.790777E+02  3.192510E+00 -2.512209E+01  4.212322E+00 -4.401014E+00
        73   5  9.963051E+02  1.644475E+02  2.482688E+00 -2.617978E+01  3.465587E+00 -4.928205E+00
        73   6  9.972168E+02  1.500053E+02  2.222186E+00 -2.774838E+01  2.662317E+00 -5.450597E+00
        73   7  9.934008E+02  1.591117E+02  2.095246E+00 -4.267297E+01  5.921411E+00 -3.672778E+00
        73   8  9.956236E+02  1.470702E+02  1.691420E+00 -4.462767E+01  4.883294E+00 -4.169006E+00
        73   9  9.977514E+02  1.353810E+02  1.886105E+00 -4.710140E+01  3.758528E+00 -4.652790E+00
        73  10  1.001571E+03  2.086432E+02  1.004678E+01 -7.166698E+00  1.670269E-13 -1.920809E-13
        73  11  1.001399E+03  1.912943E+02  8.555635E+00 -7.198365E+00  3.006483E-13  2.609795E-15
        73  12  1.000901E+03  1.739621E+02  7.360542E+00 -7.716490E+00  3.507564E-13  1.319251E-13
        73  13  9.951863E+02  1.790777E+02  3.192510E+00 -2.512209E+01 -4.175671E-15 -3.173510E-13
        73  14  9.963051E+02  1.644475E+02  2.482688E+00 -2.617978E+01 -5.678913E-13  1.670269E-14
        73  15  9.972168E+02  1.500053E+02  2.222186E+00 -2.774838E+01  1.043918E-13  2.727235E-13
        73  16  9.934008E+02  1.591117E+02  2.095246E+00 -4.267297E+01 -2.338376E-13 -4.833340E-13
        73  17  9.956236E+02  1.470702E+02  1.691420E+00 -4.462767E+01  7.182155E-13 -9.395261E-15
        73  18  9.977514E+02  1.353810E+02  1.886105E+00 -4.710140E+01  8.351343E-15  4.637605E-13
        73  19  1.001571E+03  2.086432E+02  1.004678E+01 -7.166698E+00 -2.538323E+00  4.921689E+00
        73  20  1.001399E+03  1.912943E+02  8.555635E+00 -7.198365E+00 -2.101754E+00  5.443156E+00
        73  21  1.000901E+03  1.739621E+02  7.360542E+00 -7.716490E+00 -1.645183E+00  5.964219E+00
        73  22  9.951863E+02  1.790777E+02  3.192510E+00 -2.512209E+01 -4.212322E+00  4.401014E+00
        73  23  9.963051E+02  1.644475E+02  2.482688E+00 -2.617978E+01 -3.465587E+00  4.928205E+00
        73  24  9.972168E+02  1.500053E+02  2.222186E+00 -2.774838E+01 -2.662317E+00  5.450597E+00
        73  25  9.934008E+02  1.591117E+02  2.095246E+00 -4.267297E+01 -5.921411E+00  3.672778E+00
        73  26  9.956236E+02  1.470702E+02  1.691420E+00 -4.462767E+01 -4.883294E+00  4.169006E+00
        73  27  9.977514E+02  1.353810E+02  1.886105E+00 -4.710140E+01 -3.758528E+00  4.652790E+00
        74   1  1.000262E+03  1.606192E+02  5.760408E+00 -7.894224E+00  1.358056E+00 -6.207989E+00
        74   2  1.001523E+03  1.401748E+02  4.605342E+00 -7.019652E+00  9.104457E-01 -6.385988E+00
        74   3  1.000340E+03  1.187849E+02  2.570315E+00 -7.122377E+00  5.104382E-01 -6.564942E+00
        74   4  9.978975E+02  1.405028E+02  1.979156E+00 -2.800873E+01  2.194178E+00 -5.637484E+00
        74   5  9.995468E+02  1.224871E+02  1.384963E+00 -2.630499E+01  1.393867E+00 -5.868041E+00
        74   6  9.991202E+02  1.038670E+02  2.166481E-01 -2.540997E+01  5.862408E-01 -6.097972E+00
        74   7  9.985581E+02  1.259354E+02  1.303940E+00 -4.715133E+01  3.101169E+00 -4.842096E+00
        74   8  1.000331E+03  1.098479E+02  7.239136E-01 -4.460154E+01  1.980972E+00 -5.080866E+00
        74   9  1.000342E+03  9.341872E+01 -1.642313E-01 -4.271375E+01  8.102253E-01 -5.312372E+00
        74  10  1.000262E+03  1.606192E+02  5.760408E+00 -7.894224E+00 -3.340537E-13 -9.604044E-13
        74  11  1.001523E+03  1.401748E+02  4.605342E+00 -7.019652E+00 -6.012967E-13  1.284019E-13
        74  12  1.000340E+03  1.187849E+02  2.570315E+00 -7.122377E+00 -1.002161E-13  1.179105E-12
        74  13  9.978975E+02  1.405028E+02  1.979156E+00 -2.800873E+01 -2.296619E-13 -5.386616E-13
        74  14  9.995468E+02  1.224871E+02  1.384963E+00 -2.630499E+01 -7.265668E-13  2.860335E-13
        74  15  9.991202E+02  1.038670E+02  2.166481E-01 -2.540997E+01  4.092158E-13  1.044962E-12
        74  16  9.985581E+02  1.259354E+02  1.303940E+00 -4.715133E+01 -2.004322E-13 -3.486686E-13
        74  17  1.000331E+03  1.098479E+02  7.239136E-01 -4.460154E+01 -2.338376E-13  7.203033E-14
        74  18  1.000342E+03  9.341872E+01 -1.642313E-01 -4.271375E+01  7.683235E-13  3.411002E-13
        74  19  1.000262E+03  1.606192E+02  5.760408E+00 -7.894224E+00 -1.358056E+00  6.207989E+00
        74  20  1.001523E+03  1.401748E+02  4.605342E+00 -7.019652E+00 -9.104457E-01  6.385988E+00
        74  21  1.000340E+03  1.187849E+02  2.570315E+00 -7.122377E+00 -5.104382E-01  6.564942E+00
        74  22  9.978975E+02  1.405028E+02  1.979156E+00 -2.800873E+01 -2.194178E+00  5.637484E+00
        74  23  9.995468E+02  1.224871E+02  1.384963E+00 -2.630499E+01 -1.393867E+00  5.868041E+00
        74  24  9.991202E+02  1.038670E+02  2.166481E-01 -2.540997E+01 -5.862408E-01  6.097972E+00
        74  25  9.985581E+02  1.259354E+02  1.303940E+00 -4.715133E+01 -3.101169E+00  4.842096E+00
        74  26  1.000331E+03  1.098479E+02  7.239136E-01 -4.460154E+01 -1.980972E+00  5.080866E+00
        74  27  1.000342E+03  9.341872E+01 -1.642313E-01 -4.271375E+01 -8.102253E-01  5.312372E+00
        75   1  9.960855E+02  1.177168E+02  2.392031E-01 -5.639573E+01  2.917035E+00 -4.186477E+00
        75   2  1.001221E+03  1.038294E+02  8.565046E-01 -5.387097E+01  1.729607E+00 -4.443571E+00
        75   3  1.002202E+03  8.837859E+01  1.443856E-01 -5.130412E+01  5.224563E-01 -4.697197E+00
        75   4  9.960434E+02  1.068619E+02  1.557825E-01 -7.069876E+01  2.630450E+00 -3.064831E+00
        75   5  1.002452E+03  9.349944E+01  4.670493E-01 -6.676675E+01  1.395600E+00 -3.374083E+00
        75   6  1.005460E+03  7.893461E+01 -9.185671E-02 -6.272687E+01  1.303865E-01 -3.676460E+00
        75   7  9.965253E+02  9.742347E+01  1.338282E-01 -8.475316E+01  2.341728E+00 -1.949960E+00
        75   8  1.003959E+03  8.434583E+01 -5.547073E-02 -7.953108E+01  1.062383E+00 -2.302548E+00
        75   9  1.008645E+03  7.037104E+01 -7.036540E-01 -7.415502E+01 -2.563981E-01 -2.644371E+00
        75  10  9.960855E+02  1.177168E+02  2.392031E-01 -5.639573E+01 -4.008645E-13 -4.290502E-13
        75  11  1.001221E+03  1.038294E+02  8.565046E-01 -5.387097E+01  3.340537E-14  3.549321E-14
        75  12  1.002202E+03  8.837859E+01  1.443856E-01 -5.130412E+01  0.000000E+00  3.518003E-13
        75  13  9.960434E+02  1.068619E+02  1.557825E-01 -7.069876E+01  1.377972E-13 -1.920809E-13
        75  14  1.002452E+03  9.349944E+01  4.670493E-01 -6.676675E+01 -4.843779E-13  3.758104E-14
        75  15  1.005460E+03  7.893461E+01 -9.185671E-02 -6.272687E+01 -8.351343E-15  1.774660E-13
        75  16  9.965253E+02  9.742347E+01  1.338282E-01 -8.475316E+01  6.681074E-14  3.131754E-14
        75  17  1.003959E+03  8.434583E+01 -5.547073E-02 -7.953108E+01 -3.173510E-13  4.175671E-15
        75  18  1.008645E+03  7.037104E+01 -7.036540E-01 -7.415502E+01  2.087836E-14 -2.296619E-14
        75  19  9.960855E+02  1.177168E+02  2.392031E-01 -5.639573E+01 -2.917035E+00  4.186477E+00
        75  20  1.001221E+03  1.038294E+02  8.565046E-01 -5.387097E+01 -1.729607E+00  4.443571E+00
        75  21  1.002202E+03  8.837859E+01  1.443856E-01 -5.130412E+01 -5.224563E-01  4.697197E+00
        75  22  9.960434E+02  1.068619E+02  1.557825E-01 -7.069876E+01 -2.630450E+00  3.064831E+00
        75  23  1.002452E+03  9.349944E+01  4.670493E-01 -6.676675E+01 -1.395600E+00  3.374083E+00
        75  24  1.005460E+03  7.893461E+01 -9.185671E-02 -6.272687E+01 -1.303865E-01  3.676460E+00
        75  25  9.965253E+02  9.742347E+01  1.338282E-01 -8.475316E+01 -2.341728E+00  1.949960E+00
        75  26  1.003959E+03  8.434583E+01 -5.547073E-02 -7.953108E+01 -1.062383E+00  2.302548E+00
        75  27  1.008645E+03  7.037104E+01 -7.036540E-01 -7.415502E+01  2.563981E-01  2.644371E+00
        76   1  9.883140E+02  1.490256E+02  1.154324E+00 -5.126513E+01  5.798224E+00 -3.023623E+00
        76   2  9.924897E+02  1.382879E+02  1.129543E+00 -5.411941E+01  4.756731E+00 -3.510710E+00
        76   3  9.944970E+02  1.265566E+02  7.117798E-01 -5.636145E+01  3.613051E+00 -3.979881E+00
        76   4  9.795494E+02  1.354649E+02  2.163915E-01 -6.455406E+01  5.561746E+00 -1.949953E+00
        76   5  9.868750E+02  1.249874E+02  1.753405E-01 -6.784661E+01  4.502987E+00 -2.410787E+00
        76   6  9.926332E+02  1.137879E+02  5.469354E-02 -7.063598E+01  3.343638E+00 -2.848881E+00
        76   7  9.718879E+02  1.256462E+02  3.372831E-01 -7.840899E+01  5.323903E+00 -8.843603E-01
        76   8  9.822092E+02  1.155679E+02  2.266173E-01 -8.219586E+01  4.247433E+00 -1.319062E+00
        76   9  9.914926E+02  1.050285E+02  3.250271E-01 -8.558207E+01  3.071762E+00 -1.726719E+00
        76  10  9.883140E+02  1.490256E+02  1.154324E+00 -5.126513E+01  2.338376E-13 -4.478408E-13
        76  11  9.924897E+02  1.382879E+02  1.129543E+00 -5.411941E+01  1.503242E-13  7.829384E-14
        76  12  9.944970E+02  1.265566E+02  7.117798E-01 -5.636145E+01  5.845940E-14  5.013415E-13
        76  13  9.795494E+02  1.354649E+02  2.163915E-01 -6.455406E+01  1.941687E-13 -1.336215E-13
        76  14  9.868750E+02  1.249874E+02  1.753405E-01 -6.784661E+01 -3.674591E-13  2.171349E-13
        76  15  9.926332E+02  1.137879E+02  5.469354E-02 -7.063598E+01 -5.428373E-14  4.259185E-13
        76  16  9.718879E+02  1.256462E+02  3.372831E-01 -7.840899E+01 -4.676752E-13  1.712025E-13
        76  17  9.822092E+02  1.155679E+02  2.266173E-01 -8.219586E+01 -1.336215E-13  1.388411E-13
        76  18  9.914926E+02  1.050285E+02  3.250271E-01 -8.558207E+01 -1.419728E-13  1.270970E-13
        76  19  9.883140E+02  1.490256E+02  1.154324E+00 -5.126513E+01 -5.798224E+00  3.023623E+00
        76  20  9.924897E+02  1.382879E+02  1.129543E+00 -5.411941E+01 -4.756731E+00  3.510710E+00
        76  21  9.944970E+02  1.265566E+02  7.117798E-01 -5.636145E+01 -3.613051E+00  3.979881E+00
        76  22  9.795494E+02  1.354649E+02  2.163915E-01 -6.455406E+01 -5.561746E+00  1.949953E+00
        76  23  9.868750E+02  1.249874E+02  1.753405E-01 -6.784661E+01 -4.502987E+00  2.410787E+00
        76  24  9.926332E+02  1.137879E+02  5.469354E-02 -7.063598E+01 -3.343638E+00  2.848881E+00
        76  25  9.718879E+02  1.256462E+02  3.372831E-01 -7.840899E+01 -5.323903E+00  8.843603E-01
        76  26  9.822092E+02  1.155679E+02  2.266173E-01 -8.219586E+01 -4.247433E+00  1.319062E+00
        76  27  9.914926E+02  1.050285E+02  3.250271E-01 -8.558207E+01 -3.071762E+00  1.726719E+00
        77   1  1.003404E+03  2.540530E+02  1.410987E+01 -4.457030E-01  4.158917E+00 -3.832971E-01
        77   2  1.002449E+03  2.502125E+02  1.324674E+01 -2.242521E+00  4.012835E+00 -1.293983E+00
        77   3  1.003050E+03  2.472505E+02  1.378108E+01 -3.800207E+00  3.729857E+00 -2.202973E+00
        77   4  9.903010E+02  2.115515E+02  3.315107E+00 -1.658704E+00  6.438635E+00 -3.223301E-01
        77   5  9.901806E+02  2.085438E+02  2.655275E+00 -7.225825E+00  6.263044E+00 -1.082875E+00
        77   6  9.914267E+02  2.063012E+02  3.219535E+00 -1.272240E+01  5.957387E+00 -1.836542E+00
        77   7  9.852682E+02  1.859522E+02  2.543016E+00 -3.188938E+00  8.718030E+00 -3.059966E-01
        77   8  9.861891E+02  1.843932E+02  2.223044E+00 -1.234748E+01  8.511430E+00 -9.249161E-01
        77   9  9.883114E+02  1.835280E+02  2.974095E+00 -2.158128E+01  8.180982E+00 -1.532640E+00
        77  10  1.003404E+03  2.540530E+02  1.410987E+01 -4.457030E-01  5.010806E-13 -2.004322E-13
        77  11  1.002449E+03  2.502125E+02  1.324674E+01 -2.242521E+00  3.173510E-13  1.334910E-13
        77  12  1.003050E+03  2.472505E+02  1.378108E+01 -3.800207E+00 -2.922970E-14  4.011988E-13
        77  13  9.903010E+02  2.115515E+02  3.315107E+00 -1.658704E+00 -3.358806E-13  4.176976E-13
        77  14  9.901806E+02  2.085438E+02  2.655275E+00 -7.225825E+00 -3.371855E-13  3.683725E-13
        77  15  9.914267E+02  2.063012E+02  3.219535E+00 -1.272240E+01  2.296619E-13  1.839090E-13
        77  16  9.852682E+02  1.859522E+02  2.543016E+00 -3.188938E+00 -5.678913E-13  5.930106E-13
        77  17  9.861891E+02  1.843932E+02  2.223044E+00 -1.234748E+01 -2.839457E-13  1.759002E-13
        77  18  9.883114E+02  1.835280E+02  2.974095E+00 -2.158128E+01  4.175671E-15 -3.088203E-13
        77  19  1.003404E+03  2.540530E+02  1.410987E+01 -4.457030E-01 -4.158917E+00  3.832971E-01
        77  20  1.002449E+03  2.502125E+02  1.324674E+01 -2.242521E+00 -4.012835E+00  1.293983E+00
        77  21  1.003050E+03  2.472505E+02  1.378108E+01 -3.800207E+00 -3.729857E+00  2.202973E+00
        77  22  9.903010E+02  2.115515E+02  3.315107E+00 -1.658704E+00 -6.438635E+00  3.223301E-01
        77  23  9.901806E+02  2.085438E+02  2.655275E+00 -7.225825E+00 -6.263044E+00  1.082875E+00
        77  24  9.914267E+02  2.063012E+02  3.219535E+00 -1.272240E+01 -5.957387E+00  1.836542E+00
        77  25  9.852682E+02  1.859522E+02  2.543016E+00 -3.188938E+00 -8.718030E+00  3.059966E-01
        77  26  9.861891E+02  1.843932E+02  2.223044E+00 -1.234748E+01 -8.511430E+00  9.249161E-01
        77  27  9.883114E+02  1.835280E+02  2.974095E+00 -2.158128E+01 -8.180982E+00  1.532640E+00
        78   1  1.002461E+03  2.413677E+02  1.290047E+01 -4.445578E+00  3.536081E+00 -2.858690E+00
        78   2  1.001874E+03  2.298769E+02  1.161869E+01 -5.509691E+00  3.228358E+00 -3.635370E+00
        78   3  1.002243E+03  2.189896E+02  1.137528E+01 -6.733967E+00  2.821272E+00 -4.410826E+00
        78   4  9.923918E+02  2.038386E+02  3.601610E+00 -1.554568E+01  5.700986E+00 -2.532738E+00
        78   5  9.928135E+02  1.942402E+02  2.811954E+00 -1.938651E+01  5.220525E+00 -3.215471E+00
        78   6  9.940908E+02  1.852255E+02  2.991887E+00 -2.349885E+01  4.635816E+00 -3.892693E+00
        78   7  9.889274E+02  1.801207E+02  2.630665E+00 -2.653474E+01  7.876647E+00 -2.072841E+00
        78   8  9.903832E+02  1.726845E+02  2.161867E+00 -3.299194E+01  7.228351E+00 -2.655308E+00
        78   9  9.926104E+02  1.658368E+02  2.606317E+00 -3.981337E+01  6.471613E+00 -3.227970E+00
        78  10  1.002461E+03  2.413677E+02  1.290047E+01 -4.445578E+00 -3.340537E-14 -9.186477E-14
        78  11  1.001874E+03  2.298769E+02  1.161869E+01 -5.509691E+00 -1.336215E-13 -4.306161E-14
        78  12  1.002243E+03  2.189896E+02  1.137528E+01 -6.733967E+00  2.505403E-13 -6.596256E-14
        78  13  9.923918E+02  2.038386E+02  3.601610E+00 -1.554568E+01  2.985605E-13 -4.687191E-13
        78  14  9.928135E+02  1.942402E+02  2.811954E+00 -1.938651E+01 -2.609795E-13 -9.812828E-14
        78  15  9.940908E+02  1.852255E+02  2.991887E+00 -2.349885E+01 -6.263507E-14  1.471924E-13
        78  16  9.889274E+02  1.801207E+02  2.630665E+00 -2.653474E+01  1.336215E-13 -5.167393E-13
        78  17  9.903832E+02  1.726845E+02  2.161867E+00 -3.299194E+01 -2.171349E-13 -4.436651E-14
        78  18  9.926104E+02  1.658368E+02  2.606317E+00 -3.981337E+01 -1.127431E-13  4.180891E-13
        78  19  1.002461E+03  2.413677E+02  1.290047E+01 -4.445578E+00 -3.536081E+00  2.858690E+00
        78  20  1.001874E+03  2.298769E+02  1.161869E+01 -5.509691E+00 -3.228358E+00  3.635370E+00
        78  21  1.002243E+03  2.189896E+02  1.137528E+01 -6.733967E+00 -2.821272E+00  4.410826E+00
        78  22  9.923918E+02  2.038386E+02  3.601610E+00 -1.554568E+01 -5.700986E+00  2.532738E+00
        78  23  9.928135E+02  1.942402E+02  2.811954E+00 -1.938651E+01 -5.220525E+00  3.215471E+00
        78  24  9.940908E+02  1.852255E+02  2.991887E+00 -2.349885E+01 -4.635816E+00  3.892693E+00
        78  25  9.889274E+02  1.801207E+02  2.630665E+00 -2.653474E+01 -7.876647E+00  2.072841E+00
        78  26  9.903832E+02  1.726845E+02  2.161867E+00 -3.299194E+01 -7.228351E+00  2.655308E+00
        78  27  9.926104E+02  1.658368E+02  2.606317E+00 -3.981337E+01 -6.471613E+00  3.227970E+00
        79   1  9.807154E+02  1.686812E+02  1.631095E+00 -3.193013E+01  7.801675E+00 -1.654561E+00
        79   2  9.832030E+02  1.619172E+02  1.216345E+00 -4.009084E+01  7.169596E+00 -2.164104E+00
        79   3  9.865015E+02  1.554989E+02  1.615215E+00 -4.778028E+01  6.365650E+00 -2.654568E+00
        79   4  9.640900E+02  1.534656E+02  9.650131E-02 -4.020108E+01  7.554097E+00 -9.717497E-01
        79   5  9.693405E+02  1.466750E+02 -2.819687E-01 -5.040394E+01  6.921928E+00 -1.319724E+00
        79   6  9.754259E+02  1.402037E+02  5.207813E-02 -6.024992E+01  6.128123E+00 -1.644343E+00
        79   7  9.496357E+02  1.441074E+02  6.588794E-01 -4.936105E+01  7.307081E+00 -2.819161E-01
        79   8  9.576687E+02  1.375910E+02  3.827941E-01 -6.156139E+01  6.673859E+00 -4.789335E-01
        79   9  9.665565E+02  1.313818E+02  7.211519E-01 -7.350829E+01  5.888409E+00 -6.492011E-01
        79  10  9.807154E+02  1.686812E+02  1.631095E+00 -3.193013E+01  6.681074E-13 -3.006483E-13
        79  11  9.832030E+02  1.619172E+02  1.216345E+00 -4.009084E+01  1.169188E-13  5.063002E-14
        79  12  9.865015E+02  1.554989E+02  1.615215E+00 -4.778028E+01  4.050401E-13  4.650654E-13
        79  13  9.640900E+02  1.534656E+02  9.650131E-02 -4.020108E+01  1.377972E-13  4.655874E-13
        79  14  9.693405E+02  1.466750E+02 -2.819687E-01 -5.040394E+01 -6.681074E-13  2.964727E-13
        79  15  9.754259E+02  1.402037E+02  5.207813E-02 -6.024992E+01 -4.614117E-13  4.723728E-14
        79  16  9.496357E+02  1.441074E+02  6.588794E-01 -4.936105E+01 -9.353504E-13  1.086718E-12
        79  17  9.576687E+02  1.375910E+02  3.827941E-01 -6.156139E+01 -1.403026E-12  2.682869E-13
        79  18  9.665565E+02  1.313818E+02  7.211519E-01 -7.350829E+01 -7.140398E-13 -5.770256E-13
        79  19  9.807154E+02  1.686812E+02  1.631095E+00 -3.193013E+01 -7.801675E+00  1.654561E+00
        79  20  9.832030E+02  1.619172E+02  1.216345E+00 -4.009084E+01 -7.169596E+00  2.164104E+00
        79  21  9.865015E+02  1.554989E+02  1.615215E+00 -4.778028E+01 -6.365650E+00  2.654568E+00
        79  22  9.640900E+02  1.534656E+02  9.650131E-02 -4.020108E+01 -7.554097E+00  9.717497E-01
        79  23  9.693405E+02  1.466750E+02 -2.819687E-01 -5.040394E+01 -6.921928E+00  1.319724E+00
        79  24  9.754259E+02  1.402037E+02  5.207813E-02 -6.024992E+01 -6.128123E+00  1.644343E+00
        79  25  9.496357E+02  1.441074E+02  6.588794E-01 -4.936105E+01 -7.307081E+00  2.819161E-01
        79  26  9.576687E+02  1.375910E+02  3.827941E-01 -6.156139E+01 -6.673859E+00  4.789335E-01
        79  27  9.665565E+02  1.313818E+02  7.211519E-01 -7.350829E+01 -5.888409E+00  6.492011E-01
        80   1  9.760129E+02  1.744624E+02  2.029327E+00 -3.783221E+00  8.583121E+00 -2.213904E-01
        80   2  9.765930E+02  1.728047E+02  1.328765E+00 -1.513246E+01  8.455646E+00 -7.321221E-01
        80   3  9.795011E+02  1.721059E+02  2.036741E+00 -2.598921E+01  8.109942E+00 -1.218633E+00
        80   4  9.534280E+02  1.585386E+02 -1.211557E-01 -4.388081E+00  8.348824E+00 -1.500528E-01
        80   5  9.561026E+02  1.566176E+02 -6.606701E-01 -1.879753E+01  8.208322E+00 -4.050193E-01
        80   6  9.608881E+02  1.554939E+02 -9.819551E-02 -3.284945E+01  7.863206E+00 -6.304297E-01
        80   7  9.339457E+02  1.500971E+02  6.430790E-01 -5.815589E+00  8.114778E+00 -4.536933E-02
        80   8  9.388288E+02  1.483345E+02  4.069998E-01 -2.318363E+01  7.961587E+00 -6.076950E-02
        80   9  9.456193E+02  1.472326E+02  9.778562E-01 -4.031461E+01  7.616455E+00 -4.245048E-02
        80  10  9.760129E+02  1.744624E+02  2.029327E+00 -3.783221E+00 -2.338376E-13  1.462137E-13
        80  11  9.765930E+02  1.728047E+02  1.328765E+00 -1.513246E+01  3.674591E-13 -2.750071E-13
        80  12  9.795011E+02  1.721059E+02  2.036741E+00 -2.598921E+01  7.599722E-13 -7.082330E-13
        80  13  9.534280E+02  1.585386E+02 -1.211557E-01 -4.388081E+00 -1.856869E-13 -5.008196E-13
        80  14  9.561026E+02  1.566176E+02 -6.606701E-01 -1.879753E+01  5.731109E-13 -6.005790E-13
        80  15  9.608881E+02  1.554939E+02 -9.819551E-02 -3.284945E+01 -3.852057E-13 -6.676996E-13
        80  16  9.339457E+02  1.500971E+02  6.430790E-01 -5.815589E+00  5.678913E-13 -5.927496E-13
        80  17  9.388288E+02  1.483345E+02  4.069998E-01 -2.318363E+01 -1.503242E-13 -2.166782E-13
        80  18  9.456193E+02  1.472326E+02  9.778562E-01 -4.031461E+01 -9.604044E-13  2.076826E-13
        80  19  9.760129E+02  1.744624E+02  2.029327E+00 -3.783221E+00 -8.583121E+00  2.213904E-01
        80  20  9.765930E+02  1.728047E+02  1.328765E+00 -1.513246E+01 -8.455646E+00  7.321221E-01
        80  21  9.795011E+02  1.721059E+02  2.036741E+00 -2.598921E+01 -8.109942E+00  1.218633E+00
        80  22  9.534280E+02  1.585386E+02 -1.211557E-01 -4.388081E+00 -8.348824E+00  1.500528E-01
        80  23  9.561026E+02  1.566176E+02 -6.606701E-01 -1.879753E+01 -8.208322E+00  4.050193E-01
        80  24  9.608881E+02  1.554939E+02 -9.819551E-02 -3.284945E+01 -7.863206E+00  6.304297E-01
        80  25  9.339457E+02  1.500971E+02  6.430790E-01 -5.815589E+00 -8.114778E+00  4.536933E-02
        80  26  9.388288E+02  1.483345E+02  4.069998E-01 -2.318363E+01 -7.961587E+00  6.076950E-02
        80  27  9.456193E+02  1.472326E+02  9.778562E-01 -4.031461E+01 -7.616455E+00  4.245048E-02
        81   1  1.755668E+03 -2.130380E+01  1.579683E+01  1.598755E+02 -5.260937E+01 -2.067799E+01
        81   2  1.604481E+03 -2.210490E+01 -2.834894E+00  1.933677E+02 -3.059721E+01 -2.311975E+01
        81   3  1.506727E+03 -4.747809E-01  2.917296E+00  2.338448E+02 -1.249342E+01 -2.538263E+01
        81   4  1.752994E+03  7.153577E+01  7.921283E+00  1.696846E+02 -4.679174E+01 -4.054003E+01
        81   5  1.580173E+03  4.493023E+01 -7.831658E+00  1.867693E+02 -2.633405E+01 -3.952190E+01
        81   6  1.468002E+03  4.270624E+01 -3.788122E-04  2.119898E+02 -1.026647E+01 -3.833364E+01
        81   7  1.763672E+03  1.722549E+02  1.843686E+01  1.849233E+02 -4.058781E+01 -5.936162E+01
        81   8  1.561417E+03  1.122427E+02 -2.738391E+00  1.828957E+02 -2.163639E+01 -5.443491E+01
        81   9  1.428465E+03  7.923528E+01 -4.974913E-01  1.903690E+02 -7.626814E+00 -4.935622E+01
        81  10  1.755668E+03 -2.130380E+01  1.579683E+01  1.598755E+02  6.681074E-14  1.962566E-13
        81  11  1.604481E+03 -2.210490E+01 -2.834894E+00  1.933677E+02  2.004322E-13  5.010806E-14
        81  12  1.506727E+03 -4.747809E-01  2.917296E+00  2.338448E+02  1.732904E-13 -1.127431E-13
        81  13  1.752994E+03  7.153577E+01  7.921283E+00  1.696846E+02  5.845940E-14  2.171349E-13
        81  14  1.580173E+03  4.493023E+01 -7.831658E+00  1.867693E+02  6.263507E-14  8.351343E-14
        81  15  1.468002E+03  4.270624E+01 -3.788122E-04  2.119898E+02  2.505403E-14  7.516208E-14
        81  16  1.763672E+03  1.722549E+02  1.843686E+01  1.849233E+02 -3.340537E-14  5.845940E-14
        81  17  1.561417E+03  1.122427E+02 -2.738391E+00  1.828957E+02  2.505403E-14 -1.670269E-14
        81  18  1.428465E+03  7.923528E+01 -4.974913E-01  1.903690E+02 -2.922970E-14 -9.604044E-14
        81  19  1.755668E+03 -2.130380E+01  1.579683E+01  1.598755E+02  5.260937E+01  2.067799E+01
        81  20  1.604481E+03 -2.210490E+01 -2.834894E+00  1.933677E+02  3.059721E+01  2.311975E+01
        81  21  1.506727E+03 -4.747809E-01  2.917296E+00  2.338448E+02  1.249342E+01  2.538263E+01
        81  22  1.752994E+03  7.153577E+01  7.921283E+00  1.696846E+02  4.679174E+01  4.054003E+01
        81  23  1.580173E+03  4.493023E+01 -7.831658E+00  1.867693E+02  2.633405E+01  3.952190E+01
        81  24  1.468002E+03  4.270624E+01 -3.788122E-04  2.119898E+02  1.026647E+01  3.833364E+01
        81  25  1.763672E+03  1.722549E+02  1.843686E+01  1.849233E+02  4.058781E+01  5.936162E+01
        81  26  1.561417E+03  1.122427E+02 -2.738391E+00  1.828957E+02  2.163639E+01  5.443491E+01
        81  27  1.428465E+03  7.923528E+01 -4.974913E-01  1.903690E+02  7.626814E+00  4.935622E+01
        82   1  1.441869E+03 -5.059441E+00  4.689019E-02  2.141219E+02 -3.487836E+00 -2.681091E+01
        82   2  1.323319E+03 -6.939279E+00 -1.080501E+01  1.377774E+02  1.072749E+01 -1.814678E+01
        82   3  1.202942E+03 -1.289970E+01 -3.398135E+01  5.999217E+01  1.997268E+01 -9.255028E+00
        82   4  1.389197E+03  2.235868E+01 -5.106606E+00  1.882942E+02 -2.533325E+00 -3.916891E+01
        82   5  1.244272E+03  1.340219E+01 -1.642550E+01  1.186083E+02  1.030493E+01 -2.666883E+01
        82   6  1.094523E+03 -2.011425E+00 -4.495039E+01  4.738036E+01  1.764824E+01 -1.395571E+01
        82   7  1.341405E+03  4.618820E+01 -7.010762E+00  1.733799E+02 -1.442500E+00 -5.072324E+01
        82   8  1.165972E+03  2.788044E+01 -2.321811E+01  1.108675E+02  1.000619E+01 -3.388027E+01
        82   9  9.826100E+02  6.851858E-01 -6.156141E+01  4.668840E+01  1.536185E+01 -1.684989E+01
        82  10  1.441869E+03 -5.059441E+00  4.689019E-02  2.141219E+02  2.004322E-13  1.503242E-13
        82  11  1.323319E+03 -6.939279E+00 -1.080501E+01  1.377774E+02  3.089997E-13  5.428373E-14
        82  12  1.202942E+03 -1.289970E+01 -3.398135E+01  5.999217E+01  1.043918E-13 -1.586755E-13
        82  13  1.389197E+03  2.235868E+01 -5.106606E+00  1.882942E+02  1.169188E-13  3.340537E-14
        82  14  1.244272E+03  1.340219E+01 -1.642550E+01  1.186083E+02  1.879052E-13  5.010806E-14
        82  15  1.094523E+03 -2.011425E+00 -4.495039E+01  4.738036E+01  6.002528E-15 -1.336215E-13
        82  16  1.341405E+03  4.618820E+01 -7.010762E+00  1.733799E+02 -1.169188E-13 -5.845940E-14
        82  17  1.165972E+03  2.788044E+01 -2.321811E+01  1.108675E+02 -2.505403E-14  3.340537E-14
        82  18  9.826100E+02  6.851858E-01 -6.156141E+01  4.668840E+01 -1.440607E-13  1.252701E-13
        82  19  1.441869E+03 -5.059441E+00  4.689019E-02  2.141219E+02  3.487836E+00  2.681091E+01
        82  20  1.323319E+03 -6.939279E+00 -1.080501E+01  1.377774E+02 -1.072749E+01  1.814678E+01
        82  21  1.202942E+03 -1.289970E+01 -3.398135E+01  5.999217E+01 -1.997268E+01  9.255028E+00
        82  22  1.389197E+03  2.235868E+01 -5.106606E+00  1.882942E+02  2.533325E+00  3.916891E+01
        82  23  1.244272E+03  1.340219E+01 -1.642550E+01  1.186083E+02 -1.030493E+01  2.666883E+01
        82  24  1.094523E+03 -2.011425E+00 -4.495039E+01  4.738036E+01 -1.764824E+01  1.395571E+01
        82  25  1.341405E+03  4.618820E+01 -7.010762E+00  1.733799E+02  1.442500E+00  5.072324E+01
        82  26  1.165972E+03  2.788044E+01 -2.321811E+01  1.108675E+02 -1.000619E+01  3.388027E+01
        82  27  9.826100E+02  6.851858E-01 -6.156141E+01  4.668840E+01 -1.536185E+01  1.684989E+01
        83   1  1.292863E+03  4.784060E+01 -1.652634E+01  1.407036E+02 -2.278232E-01 -5.573486E+01
        83   2  1.126753E+03  3.440939E+01 -2.619999E+01  8.901200E+01  7.640685E+00 -3.713865E+01
        83   3  9.056235E+02 -8.437819E+00 -7.912819E+01  3.665032E+01  1.306966E+01 -1.848010E+01
        83   4  1.247459E+03  5.718410E+01 -1.819565E+01  7.755727E+01  3.716604E-02 -6.040579E+01
        83   5  1.080051E+03  4.313777E+01 -2.798641E+01  4.652315E+01  5.249365E+00 -4.067354E+01
        83   6  8.486387E+02 -4.067982E+00 -8.444310E+01  1.468841E+01  7.916000E+00 -2.090183E+01
        83   7  1.201160E+03  5.637844E+01 -2.218618E+01  2.026801E+01  7.807406E-01 -6.225307E+01
        83   8  1.030158E+03  3.990430E+01 -3.627177E+01  1.325904E+01  3.136527E+00 -4.125968E+01
        83   9  7.846014E+02 -1.415077E+01 -1.011074E+02  5.223611E+00  2.826906E+00 -2.025634E+01
        83  10  1.292863E+03  4.784060E+01 -1.652634E+01  1.407036E+02  2.046079E-13 -8.351343E-15
        83  11  1.126753E+03  3.440939E+01 -2.619999E+01  8.901200E+01  2.609795E-13  7.516208E-14
        83  12  9.056235E+02 -8.437819E+00 -7.912819E+01  3.665032E+01  2.985605E-13  1.336215E-13
        83  13  1.247459E+03  5.718410E+01 -1.819565E+01  7.755727E+01 -1.670269E-14  3.340537E-14
        83  14  1.080051E+03  4.313777E+01 -2.798641E+01  4.652315E+01 -6.263507E-15  5.010806E-14
        83  15  8.486387E+02 -4.067982E+00 -8.444310E+01  1.468841E+01 -2.609795E-15 -3.340537E-14
        83  16  1.201160E+03  5.637844E+01 -2.218618E+01  2.026801E+01 -2.630673E-13 -4.175671E-14
        83  17  1.030158E+03  3.990430E+01 -3.627177E+01  1.325904E+01 -2.275741E-13 -5.845940E-14
        83  18  7.846014E+02 -1.415077E+01 -1.011074E+02  5.223611E+00 -3.048240E-13  0.000000E+00
        83  19  1.292863E+03  4.784060E+01 -1.652634E+01  1.407036E+02  2.278232E-01  5.573486E+01
        83  20  1.126753E+03  3.440939E+01 -2.619999E+01  8.901200E+01 -7.640685E+00  3.713865E+01
        83  21  9.056235E+02 -8.437819E+00 -7.912819E+01  3.665032E+01 -1.306966E+01  1.848010E+01
        83  22  1.247459E+03  5.718410E+01 -1.819565E+01  7.755727E+01 -3.716604E-02  6.040579E+01
        83  23  1.080051E+03  4.313777E+01 -2.798641E+01  4.652315E+01 -5.249365E+00  4.067354E+01
        83  24  8.486387E+02 -4.067982E+00 -8.444310E+01  1.468841E+01 -7.916000E+00  2.090183E+01
        83  25  1.201160E+03  5.637844E+01 -2.218618E+01  2.026801E+01 -7.807406E-01  6.225307E+01
        83  26  1.030158E+03  3.990430E+01 -3.627177E+01  1.325904E+01 -3.136527E+00  4.125968E+01
        83  27  7.846014E+02 -1.415077E+01 -1.011074E+02  5.223611E+00 -2.826906E+00  2.025634E+01
        84   1  1.715199E+03  2.011482E+02  6.858336E+00  1.511553E+02 -2.795433E+01 -6.794749E+01
        84   2  1.540026E+03  1.433333E+02 -7.886374E-01  1.518586E+02 -1.574724E+01 -6.150109E+01
        84   3  1.385326E+03  9.195871E+01 -6.806018E+00  1.552504E+02 -4.534064E+00 -5.502929E+01
        84   4  1.660481E+03  2.320270E+02  4.042347E+00  8.778270E+01 -1.594019E+01 -7.586664E+01
        84   5  1.489587E+03  1.685594E+02 -2.084452E+00  8.845787E+01 -8.712742E+00 -6.894218E+01
        84   6  1.343507E+03  1.135373E+02 -4.454793E+00  9.211369E+01 -2.439028E+00 -6.200290E+01
        84   7  1.598568E+03  2.346565E+02  4.219527E+00  2.094918E+01 -1.970075E+00 -7.851917E+01
        84   8  1.427090E+03  1.609781E+02 -8.354540E+00  2.099240E+01 -1.552979E-01 -7.116357E+01
        84   9  1.285548E+03  9.811567E+01 -1.470070E+01  2.437321E+01  7.626163E-01 -6.380456E+01
        84  10  1.715199E+03  2.011482E+02  6.858336E+00  1.511553E+02 -1.753782E-13 -5.010806E-14
        84  11  1.540026E+03  1.433333E+02 -7.886374E-01  1.518586E+02 -2.922970E-14  7.516208E-14
        84  12  1.385326E+03  9.195871E+01 -6.806018E+00  1.552504E+02  2.014761E-13 -2.672430E-13
        84  13  1.660481E+03  2.320270E+02  4.042347E+00  8.778270E+01 -4.175671E-14 -2.338376E-13
        84  14  1.489587E+03  1.685594E+02 -2.084452E+00  8.845787E+01 -1.002161E-13 -6.681074E-14
        84  15  1.343507E+03  1.135373E+02 -4.454793E+00  9.211369E+01 -1.148310E-13 -2.672430E-13
        84  16  1.598568E+03  2.346565E+02  4.219527E+00  2.094918E+01  2.004322E-13  6.681074E-14
        84  17  1.427090E+03  1.609781E+02 -8.354540E+00  2.099240E+01 -4.175671E-14 -5.845940E-14
        84  18  1.285548E+03  9.811567E+01 -1.470070E+01  2.437321E+01 -2.703747E-13 -2.171349E-13
        84  19  1.715199E+03  2.011482E+02  6.858336E+00  1.511553E+02  2.795433E+01  6.794749E+01
        84  20  1.540026E+03  1.433333E+02 -7.886374E-01  1.518586E+02  1.574724E+01  6.150109E+01
        84  21  1.385326E+03  9.195871E+01 -6.806018E+00  1.552504E+02  4.534064E+00  5.502929E+01
        84  22  1.660481E+03  2.320270E+02  4.042347E+00  8.778270E+01  1.594019E+01  7.586664E+01
        84  23  1.489587E+03  1.685594E+02 -2.084452E+00  8.845787E+01  8.712742E+00  6.894218E+01
        84  24  1.343507E+03  1.135373E+02 -4.454793E+00  9.211369E+01  2.439028E+00  6.200290E+01
        84  25  1.598568E+03  2.346565E+02  4.219527E+00  2.094918E+01  1.970075E+00  7.851917E+01
        84  26  1.427090E+03  1.609781E+02 -8.354540E+00  2.099240E+01  1.552979E-01  7.116357E+01
        84  27  1.285548E+03  9.811567E+01 -1.470070E+01  2.437321E+01 -7.626163E-01  6.380456E+01
        85   1  1.208308E+03 -2.958828E+02  1.486222E+00 -2.280094E+02 -7.525957E+00  4.472146E+01
        85   2  1.277294E+03 -2.449560E+02  2.757047E+00 -1.798689E+02 -7.362294E+00  3.726893E+01
        85   3  1.330841E+03 -1.974312E+02  5.153356E+00 -1.300899E+02 -7.760189E+00  3.005757E+01
        85   4  1.310116E+03 -3.117728E+02 -4.681291E+00 -1.645309E+02 -1.966299E+01  4.297894E+01
        85   5  1.362128E+03 -2.586052E+02 -4.881557E+00 -1.086421E+02 -1.554794E+01  3.457269E+01
        85   6  1.403051E+03 -2.077207E+02 -2.306405E+00 -5.154301E+01 -1.252935E+01  2.653482E+01
        85   7  1.442137E+03 -2.914383E+02 -1.491604E+00 -8.310932E+01 -3.395004E+01  3.665878E+01
        85   8  1.475970E+03 -2.372828E+02 -2.304454E-01 -2.144439E+01 -2.567289E+01  2.787897E+01
        85   9  1.503411E+03 -1.838616E+02  5.689141E+00  4.127966E+01 -1.904296E+01  1.951321E+01
        85  10  1.208308E+03 -2.958828E+02  1.486222E+00 -2.280094E+02  0.000000E+00  1.837295E-13
        85  11  1.277294E+03 -2.449560E+02  2.757047E+00 -1.798689E+02 -1.670269E-13  9.186477E-14
        85  12  1.330841E+03 -1.974312E+02  5.153356E+00 -1.300899E+02 -3.340537E-14 -8.768910E-14
        85  13  1.310116E+03 -3.117728E+02 -4.681291E+00 -1.645309E+02  6.263507E-14  1.753782E-13
        85  14  1.362128E+03 -2.586052E+02 -4.881557E+00 -1.086421E+02  2.129592E-13 -2.505403E-14
        85  15  1.403051E+03 -2.077207E+02 -2.306405E+00 -5.154301E+01 -2.129592E-13 -7.098641E-14
        85  16  1.442137E+03 -2.914383E+02 -1.491604E+00 -8.310932E+01  3.340537E-14  1.419728E-13
        85  17  1.475970E+03 -2.372828E+02 -2.304454E-01 -2.144439E+01 -1.002161E-13  4.175671E-14
        85  18  1.503411E+03 -1.838616E+02  5.689141E+00  4.127966E+01  2.307058E-13 -1.002161E-13
        85  19  1.208308E+03 -2.958828E+02  1.486222E+00 -2.280094E+02  7.525957E+00 -4.472146E+01
        85  20  1.277294E+03 -2.449560E+02  2.757047E+00 -1.798689E+02  7.362294E+00 -3.726893E+01
        85  21  1.330841E+03 -1.974312E+02  5.153356E+00 -1.300899E+02  7.760189E+00 -3.005757E+01
        85  22  1.310116E+03 -3.117728E+02 -4.681291E+00 -1.645309E+02  1.966299E+01 -4.297894E+01
        85  23  1.362128E+03 -2.586052E+02 -4.881557E+00 -1.086421E+02  1.554794E+01 -3.457269E+01
        85  24  1.403051E+03 -2.077207E+02 -2.306405E+00 -5.154301E+01  1.252935E+01 -2.653482E+01
        85  25  1.442137E+03 -2.914383E+02 -1.491604E+00 -8.310932E+01  3.395004E+01 -3.665878E+01
        85  26  1.475970E+03 -2.372828E+02 -2.304454E-01 -2.144439E+01  2.567289E+01 -2.787897E+01
        85  27  1.503411E+03 -1.838616E+02  5.689141E+00  4.127966E+01  1.904296E+01 -1.951321E+01
        86   1  1.346876E+03 -1.660140E+02  5.851491E+00 -1.054832E+02 -6.968127E+00  2.786778E+01
        86   2  1.364047E+03 -1.292029E+02 -3.341344E-01 -7.862230E+01 -5.124577E+00  2.607806E+01
        86   3  1.408895E+03 -7.883173E+01  6.767692E+00 -5.614082E+01 -4.281389E+00  2.471796E+01
        86   4  1.415414E+03 -1.709435E+02  8.355136E-01 -2.593300E+01 -1.034473E+01  2.345407E+01
        86   5  1.418057E+03 -1.301096E+02 -5.522845E+00 -8.552719E+00 -5.678751E+00  2.208476E+01
        86   6  1.448597E+03 -7.653488E+01  1.183514E-01  5.297837E+00 -2.294006E+00  2.114590E+01
        86   7  1.498924E+03 -1.494218E+02  6.971328E+00  6.004553E+01 -1.509483E+01  1.632392E+01
        86   8  1.488266E+03 -1.041901E+02  3.981678E+00  6.779193E+01 -7.473936E+00  1.568926E+01
        86   9  1.505768E+03 -4.687313E+01  1.176635E+01  7.285892E+01 -1.424758E+00  1.544966E+01
        86  10  1.346876E+03 -1.660140E+02  5.851491E+00 -1.054832E+02 -3.006483E-13 -1.920809E-13
        86  11  1.364047E+03 -1.292029E+02 -3.341344E-01 -7.862230E+01 -2.171349E-13  2.087836E-13
        86  12  1.408895E+03 -7.883173E+01  6.767692E+00 -5.614082E+01  0.000000E+00  4.655874E-13
        86  13  1.415414E+03 -1.709435E+02  8.355136E-01 -2.593300E+01 -4.175671E-14  8.351343E-14
        86  14  1.418057E+03 -1.301096E+02 -5.522845E+00 -8.552719E+00 -3.006483E-13  2.171349E-13
        86  15  1.448597E+03 -7.653488E+01  1.183514E-01  5.297837E+00  5.010806E-14  2.421889E-13
        86  16  1.498924E+03 -1.494218E+02  6.971328E+00  6.004553E+01  6.681074E-14  1.670269E-13
        86  17  1.488266E+03 -1.041901E+02  3.981678E+00  6.779193E+01  1.336215E-13  5.010806E-14
        86  18  1.505768E+03 -4.687313E+01  1.176635E+01  7.285892E+01  1.471924E-13 -2.129592E-13
        86  19  1.346876E+03 -1.660140E+02  5.851491E+00 -1.054832E+02  6.968127E+00 -2.786778E+01
        86  20  1.364047E+03 -1.292029E+02 -3.341344E-01 -7.862230E+01  5.124577E+00 -2.607806E+01
        86  21  1.408895E+03 -7.883173E+01  6.767692E+00 -5.614082E+01  4.281389E+00 -2.471796E+01
        86  22  1.415414E+03 -1.709435E+02  8.355136E-01 -2.593300E+01  1.034473E+01 -2.345407E+01
        86  23  1.418057E+03 -1.301096E+02 -5.522845E+00 -8.552719E+00  5.678751E+00 -2.208476E+01
        86  24  1.448597E+03 -7.653488E+01  1.183514E-01  5.297837E+00  2.294006E+00 -2.114590E+01
        86  25  1.498924E+03 -1.494218E+02  6.971328E+00  6.004553E+01  1.509483E+01 -1.632392E+01
        86  26  1.488266E+03 -1.041901E+02  3.981678E+00  6.779193E+01  7.473936E+00 -1.568926E+01
        86  27  1.505768E+03 -4.687313E+01  1.176635E+01  7.285892E+01  1.424758E+00 -1.544966E+01
        87   1  1.527921E+03 -1.261770E+02  8.680154E+00  1.153733E+02 -1.369671E+01  8.920021E+00
        87   2  1.471768E+03 -9.589128E+01 -6.702692E+00  1.089330E+02 -2.465781E+00  9.027759E+00
        87   3  1.504527E+03 -3.041078E+01  1.262504E+01  1.006532E+02  5.421830E+00  9.823297E+00
        87   4  1.512016E+03 -6.955314E+01  5.784867E+00  1.703743E+02 -1.161985E+01 -5.337770E+00
        87   5  1.428096E+03 -5.508853E+01 -1.035197E+01  1.338275E+02  1.423704E+00 -1.925539E+00
        87   6  1.430550E+03 -6.761778E+00  3.970707E+00  9.729553E+01  1.105338E+01  1.940058E+00
        87   7  1.482459E+03 -2.093869E+01  6.736288E+00  2.149551E+02 -9.239193E+00 -1.899473E+01
        87   8  1.373967E+03 -1.988209E+01 -7.514920E+00  1.498638E+02  5.594319E+00 -1.233468E+01
        87   9  1.349030E+03  1.348583E+01  4.292015E+00  8.642938E+01  1.694734E+01 -5.444703E+00
        87  10  1.527921E+03 -1.261770E+02  8.680154E+00  1.153733E+02  2.338376E-13  2.442768E-13
        87  11  1.471768E+03 -9.589128E+01 -6.702692E+00  1.089330E+02 -1.336215E-13  2.296619E-14
        87  12  1.504527E+03 -3.041078E+01  1.262504E+01  1.006532E+02 -1.544998E-13 -5.428373E-14
        87  13  1.512016E+03 -6.955314E+01  5.784867E+00  1.703743E+02  2.421889E-13  2.171349E-13
        87  14  1.428096E+03 -5.508853E+01 -1.035197E+01  1.338275E+02  6.681074E-14  8.351343E-14
        87  15  1.430550E+03 -6.761778E+00  3.970707E+00  9.729553E+01 -6.681074E-14 -7.516208E-14
        87  16  1.482459E+03 -2.093869E+01  6.736288E+00  2.149551E+02  1.002161E-13  1.837295E-13
        87  17  1.373967E+03 -1.988209E+01 -7.514920E+00  1.498638E+02  8.351343E-14  0.000000E+00
        87  18  1.349030E+03  1.348583E+01  4.292015E+00  8.642938E+01  1.753782E-13 -1.085675E-13
        87  19  1.527921E+03 -1.261770E+02  8.680154E+00  1.153733E+02  1.369671E+01 -8.920021E+00
        87  20  1.471768E+03 -9.589128E+01 -6.702692E+00  1.089330E+02  2.465781E+00 -9.027759E+00
        87  21  1.504527E+03 -3.041078E+01  1.262504E+01  1.006532E+02 -5.421830E+00 -9.823297E+00
        87  22  1.512016E+03 -6.955314E+01  5.784867E+00  1.703743E+02  1.161985E+01  5.337770E+00
        87  23  1.428096E+03 -5.508853E+01 -1.035197E+01  1.338275E+02 -1.423704E+00  1.925539E+00
        87  24  1.430550E+03 -6.761778E+00  3.970707E+00  9.729553E+01 -1.105338E+01 -1.940058E+00
        87  25  1.482459E+03 -2.093869E+01  6.736288E+00  2.149551E+02  9.239193E+00  1.899473E+01
        87  26  1.373967E+03 -1.988209E+01 -7.514920E+00  1.498638E+02 -5.594319E+00  1.233468E+01
        87  27  1.349030E+03  1.348583E+01  4.292015E+00  8.642938E+01 -1.694734E+01  5.444703E+00
        88   1  1.557102E+03 -2.507842E+02  1.612712E+01 -3.000456E+01 -4.022503E+01  2.960559E+01
        88   2  1.538395E+03 -2.139460E+02  2.494001E+00  3.408089E+01 -2.775455E+01  2.096620E+01
        88   3  1.549242E+03 -1.625670E+02  8.421668E+00  9.699876E+01 -1.881032E+01  1.305223E+01
        88   4  1.622563E+03 -1.883225E+02  3.844007E+00  4.569331E+01 -4.841397E+01  1.257406E+01
        88   5  1.559916E+03 -1.589813E+02 -1.048676E+01  9.958493E+01 -3.078684E+01  5.898313E+00
        88   6  1.532803E+03 -1.134470E+02 -4.570528E+00  1.537880E+02 -1.726828E+01 -2.318667E-01
        88   7  1.721027E+03 -8.633876E+01  1.314149E+01  1.375867E+02 -5.819059E+01 -7.837688E+00
        88   8  1.612951E+03 -6.700597E+01  1.384518E+00  1.791111E+02 -3.523912E+01 -1.209655E+01
        88   9  1.546767E+03 -2.921826E+01  1.085637E+01  2.226775E+02 -1.698721E+01 -1.604510E+01
        88  10  1.557102E+03 -2.507842E+02  1.612712E+01 -3.000456E+01 -2.338376E-13  9.186477E-14
        88  11  1.538395E+03 -2.139460E+02  2.494001E+00  3.408089E+01  1.169188E-13 -7.411817E-14
        88  12  1.549242E+03 -1.625670E+02  8.421668E+00  9.699876E+01  1.252701E-13 -1.712025E-13
        88  13  1.622563E+03 -1.883225E+02  3.844007E+00  4.569331E+01  6.681074E-14 -5.010806E-14
        88  14  1.559916E+03 -1.589813E+02 -1.048676E+01  9.958493E+01 -2.087836E-13 -2.839457E-13
        88  15  1.532803E+03 -1.134470E+02 -4.570528E+00  1.537880E+02 -1.670269E-13 -3.925131E-13
        88  16  1.721027E+03 -8.633876E+01  1.314149E+01  1.375867E+02  4.008645E-13  1.670269E-14
        88  17  1.612951E+03 -6.700597E+01  1.384518E+00  1.791111E+02  2.004322E-13  6.681074E-14
        88  18  1.546767E+03 -2.921826E+01  1.085637E+01  2.226775E+02 -2.296619E-13 -2.046079E-13
        88  19  1.557102E+03 -2.507842E+02  1.612712E+01 -3.000456E+01  4.022503E+01 -2.960559E+01
        88  20  1.538395E+03 -2.139460E+02  2.494001E+00  3.408089E+01  2.775455E+01 -2.096620E+01
        88  21  1.549242E+03 -1.625670E+02  8.421668E+00  9.699876E+01  1.881032E+01 -1.305223E+01
        88  22  1.622563E+03 -1.883225E+02  3.844007E+00  4.569331E+01  4.841397E+01 -1.257406E+01
        88  23  1.559916E+03 -1.589813E+02 -1.048676E+01  9.958493E+01  3.078684E+01 -5.898313E+00
        88  24  1.532803E+03 -1.134470E+02 -4.570528E+00  1.537880E+02  1.726828E+01  2.318667E-01
        88  25  1.721027E+03 -8.633876E+01  1.314149E+01  1.375867E+02  5.819059E+01  7.837688E+00
        88  26  1.612951E+03 -6.700597E+01  1.384518E+00  1.791111E+02  3.523912E+01  1.209655E+01
        88  27  1.546767E+03 -2.921826E+01  1.085637E+01  2.226775E+02  1.698721E+01  1.604510E+01
        89   1  1.758273E+03 -1.030927E+02  1.464036E+01  7.533802E+01 -6.938061E+01  1.003417E-01
        89   2  1.770213E+03 -7.306078E+01  3.572639E+01 -5.683131E+01 -8.366618E+01  2.167164E+01
        89   3  1.658051E+03 -9.015241E+01  2.344674E+01 -1.930699E+02 -1.012648E+02  4.327685E+01
        89   4  1.584883E+03 -2.295383E+02 -1.414912E+01 -3.639556E+01 -5.666076E+01  2.133512E+01
        89   5  1.506861E+03 -2.123353E+02 -6.018061E+00 -1.511371E+02 -6.430548E+01  4.595274E+01
        89   6  1.310291E+03 -2.378844E+02 -2.418131E+01 -2.660129E+02 -7.335737E+01  7.068706E+01
        89   7  1.500194E+03 -2.911967E+02  1.254495E+00 -1.003626E+02 -4.695482E+01  3.655900E+01
        89   8  1.351460E+03 -2.815270E+02  2.503880E+00 -1.967394E+02 -4.954172E+01  6.305880E+01
        89   9  1.091610E+03 -3.099244E+02 -1.481219E+01 -2.901461E+02 -5.230247E+01  8.958345E+01
        89  10  1.758273E+03 -1.030927E+02  1.464036E+01  7.533802E+01  6.681074E-14 -1.085675E-13
        89  11  1.770213E+03 -7.306078E+01  3.572639E+01 -5.683131E+01 -1.336215E-13 -4.175671E-14
        89  12  1.658051E+03 -9.015241E+01  2.344674E+01 -1.930699E+02  1.962566E-13  4.092158E-13
        89  13  1.584883E+03 -2.295383E+02 -1.414912E+01 -3.639556E+01  1.670269E-13  4.008645E-13
        89  14  1.506861E+03 -2.123353E+02 -6.018061E+00 -1.511371E+02 -8.351343E-14  1.002161E-13
        89  15  1.310291E+03 -2.378844E+02 -2.418131E+01 -2.660129E+02 -2.505403E-13  1.252701E-13
        89  16  1.500194E+03 -2.911967E+02  1.254495E+00 -1.003626E+02 -1.670269E-13  5.177832E-13
        89  17  1.351460E+03 -2.815270E+02  2.503880E+00 -1.967394E+02 -4.509725E-13  8.351343E-14
        89  18  1.091610E+03 -3.099244E+02 -1.481219E+01 -2.901461E+02 -3.591077E-13 -3.799861E-13
        89  19  1.758273E+03 -1.030927E+02  1.464036E+01  7.533802E+01  6.938061E+01 -1.003417E-01
        89  20  1.770213E+03 -7.306078E+01  3.572639E+01 -5.683131E+01  8.366618E+01 -2.167164E+01
        89  21  1.658051E+03 -9.015241E+01  2.344674E+01 -1.930699E+02  1.012648E+02 -4.327685E+01
        89  22  1.584883E+03 -2.295383E+02 -1.414912E+01 -3.639556E+01  5.666076E+01 -2.133512E+01
        89  23  1.506861E+03 -2.123353E+02 -6.018061E+00 -1.511371E+02  6.430548E+01 -4.595274E+01
        89  24  1.310291E+03 -2.378844E+02 -2.418131E+01 -2.660129E+02  7.335737E+01 -7.068706E+01
        89  25  1.500194E+03 -2.911967E+02  1.254495E+00 -1.003626E+02  4.695482E+01 -3.655900E+01
        89  26  1.351460E+03 -2.815270E+02  2.503880E+00 -1.967394E+02  4.954172E+01 -6.305880E+01
        89  27  1.091610E+03 -3.099244E+02 -1.481219E+01 -2.901461E+02  5.230247E+01 -8.958345E+01
        90   1  1.417472E+03 -1.121045E+02 -3.115673E+01 -3.438673E+02 -1.135062E+02  5.799006E+01
        90   2  1.225889E+03  1.743520E+02  6.041020E+01 -3.940831E+02 -1.189544E+02  9.196526E+01
        90   3  4.345863E+02  2.154848E+02 -7.332303E+01 -3.601303E+02 -1.043205E+02  1.261367E+02
        90   4  1.007657E+03 -1.539133E+02 -4.937705E+01 -3.623427E+02 -7.493142E+01  9.093302E+01
        90   5  8.246717E+02 -3.585124E+01  1.848822E+01 -2.737864E+02 -8.012423E+01  1.106100E+02
        90   6 -2.238922E+01 -2.086526E+02 -1.827272E+02 -7.009469E+01 -6.370483E+01  1.294443E+02
        90   7  7.737259E+02 -2.414433E+02 -3.570248E+01 -3.382250E+02 -4.940376E+01  1.074695E+02
        90   8  5.958790E+02 -2.833543E+02  1.891628E+00 -1.427286E+02 -5.009464E+01  1.142055E+02
        90   9 -1.710200E+02 -6.161614E+02 -2.179093E+02  1.842215E+02 -2.993012E+01  1.182567E+02
        90  10  1.417472E+03 -1.121045E+02 -3.115673E+01 -3.438673E+02 -1.336215E-13 -1.670269E-13
        90  11  1.225889E+03  1.743520E+02  6.041020E+01 -3.940831E+02  6.681074E-14  2.505403E-14
        90  12  4.345863E+02  2.154848E+02 -7.332303E+01 -3.601303E+02  4.175671E-14  1.837295E-13
        90  13  1.007657E+03 -1.539133E+02 -4.937705E+01 -3.623427E+02 -1.002161E-13 -1.169188E-13
        90  14  8.246717E+02 -3.585124E+01  1.848822E+01 -2.737864E+02 -1.002161E-13 -1.002161E-13
        90  15 -2.238922E+01 -2.086526E+02 -1.827272E+02 -7.009469E+01 -6.681074E-14  8.351343E-15
        90  16  7.737259E+02 -2.414433E+02 -3.570248E+01 -3.382250E+02 -3.340537E-14 -1.419728E-13
        90  17  5.958790E+02 -2.833543E+02  1.891628E+00 -1.427286E+02  1.503242E-13 -8.351343E-15
        90  18 -1.710200E+02 -6.161614E+02 -2.179093E+02  1.842215E+02 -2.870774E-15  3.340537E-14
        90  19  1.417472E+03 -1.121045E+02 -3.115673E+01 -3.438673E+02  1.135062E+02 -5.799006E+01
        90  20  1.225889E+03  1.743520E+02  6.041020E+01 -3.940831E+02  1.189544E+02 -9.196526E+01
        90  21  4.345863E+02  2.154848E+02 -7.332303E+01 -3.601303E+02  1.043205E+02 -1.261367E+02
        90  22  1.007657E+03 -1.539133E+02 -4.937705E+01 -3.623427E+02  7.493142E+01 -9.093302E+01
        90  23  8.246717E+02 -3.585124E+01  1.848822E+01 -2.737864E+02  8.012423E+01 -1.106100E+02
        90  24 -2.238922E+01 -2.086526E+02 -1.827272E+02 -7.009469E+01  6.370483E+01 -1.294443E+02
        90  25  7.737259E+02 -2.414433E+02 -3.570248E+01 -3.382250E+02  4.940376E+01 -1.074695E+02
        90  26  5.958790E+02 -2.833543E+02  1.891628E+00 -1.427286E+02  5.009464E+01 -1.142055E+02
        90  27 -1.710200E+02 -6.161614E+02 -2.179093E+02  1.842215E+02  2.993012E+01 -1.182567E+02
        91   1  5.416670E+02 -3.315194E+02 -7.316042E+01 -3.027061E+02 -2.659684E+01  1.091231E+02
        91   2  3.554679E+02 -4.674743E+02 -6.019199E+01 -1.055797E+02 -2.891031E+01  1.085613E+02
        91   3 -1.487843E+02 -8.166176E+02 -2.076152E+02  2.583229E+02 -3.561128E+00  1.031525E+02
        91   4  4.041600E+02 -3.707215E+02 -4.211889E+01 -2.664149E+02  9.059409E+00  1.051350E+02
        91   5  2.416640E+02 -6.711806E+02 -6.469213E+01 -6.888732E+01  3.433447E+00  9.244880E+01
        91   6 -1.848727E+02 -1.183846E+03 -2.464940E+02  2.727332E+02  2.054748E+01  7.399328E+01
        91   7  2.739357E+02 -4.339627E+02 -3.753181E+01 -2.401308E+02  3.423136E+01  9.253525E+01
        91   8  1.280265E+02 -8.377958E+02 -8.449676E+01 -6.207405E+01  2.997536E+01  6.922391E+01
        91   9 -1.624157E+02 -1.387031E+03 -2.501318E+02  1.956020E+02  4.294326E+01  3.967078E+01
        91  10  5.416670E+02 -3.315194E+02 -7.316042E+01 -3.027061E+02 -3.340537E-14 -2.066957E-13
        91  11  3.554679E+02 -4.674743E+02 -6.019199E+01 -1.055797E+02  5.678913E-13 -1.508461E-13
        91  12 -1.487843E+02 -8.166176E+02 -2.076152E+02  2.583229E+02  1.202593E-12 -1.075235E-13
        91  13  4.041600E+02 -3.707215E+02 -4.211889E+01 -2.664149E+02 -5.094319E-13 -3.632834E-13
        91  14  2.416640E+02 -6.711806E+02 -6.469213E+01 -6.888732E+01  5.136076E-13 -1.336215E-13
        91  15 -1.848727E+02 -1.183846E+03 -2.464940E+02  2.727332E+02  2.004322E-13  1.879052E-14
        91  16  2.739357E+02 -4.339627E+02 -3.753181E+01 -2.401308E+02 -3.089997E-13 -3.006483E-13
        91  17  1.280265E+02 -8.377958E+02 -8.449676E+01 -6.207405E+01 -1.837295E-13  6.681074E-14
        91  18 -1.624157E+02 -1.387031E+03 -2.501318E+02  1.956020E+02 -2.990825E-13  3.862496E-13
        91  19  5.416670E+02 -3.315194E+02 -7.316042E+01 -3.027061E+02  2.659684E+01 -1.091231E+02
        91  20  3.554679E+02 -4.674743E+02 -6.019199E+01 -1.055797E+02  2.891031E+01 -1.085613E+02
        91  21 -1.487843E+02 -8.166176E+02 -2.076152E+02  2.583229E+02  3.561128E+00 -1.031525E+02
        91  22  4.041600E+02 -3.707215E+02 -4.211889E+01 -2.664149E+02 -9.059409E+00 -1.051350E+02
        91  23  2.416640E+02 -6.711806E+02 -6.469213E+01 -6.888732E+01 -3.433447E+00 -9.244880E+01
        91  24 -1.848727E+02 -1.183846E+03 -2.464940E+02  2.727332E+02 -2.054748E+01 -7.399328E+01
        91  25  2.739357E+02 -4.339627E+02 -3.753181E+01 -2.401308E+02 -3.423136E+01 -9.253525E+01
        91  26  1.280265E+02 -8.377958E+02 -8.449676E+01 -6.207405E+01 -2.997536E+01 -6.922391E+01
        91  27 -1.624157E+02 -1.387031E+03 -2.501318E+02  1.956020E+02 -4.294326E+01 -3.967078E+01
        92   1  1.385297E+03 -3.269779E+02 -1.051384E+01 -1.546908E+02 -3.978147E+01  4.421556E+01
        92   2  1.289740E+03 -2.850463E+02  2.561166E+01 -2.440301E+02 -4.172005E+01  7.021458E+01
        92   3  9.758218E+02 -3.319712E+02 -3.314718E+00 -3.129478E+02 -3.523939E+01  9.458769E+01
        92   4  1.218020E+03 -3.427654E+02 -1.676549E+01 -2.327341E+02 -2.146926E+01  5.169809E+01
        92   5  1.048944E+03 -3.241985E+02  4.225623E+00 -2.934719E+02 -1.799869E+01  7.309662E+01
        92   6  6.824643E+02 -3.867121E+02 -3.213367E+01 -3.305140E+02 -6.220570E+00  9.205660E+01
        92   7  1.108780E+03 -3.145708E+02 -4.990799E+00 -2.775206E+02 -6.556711E+00  5.268021E+01
        92   8  8.828609E+02 -3.137594E+02  4.331398E+00 -3.101579E+02  8.429945E-01  6.965703E+01
        92   9  4.784157E+02 -3.869877E+02 -3.684002E+01 -3.169002E+02  1.613385E+01  8.366194E+01
        92  10  1.385297E+03 -3.269779E+02 -1.051384E+01 -1.546908E+02  3.340537E-13  3.946009E-13
        92  11  1.289740E+03 -2.850463E+02  2.561166E+01 -2.440301E+02  2.338376E-13 -1.122212E-14
        92  12  9.758218E+02 -3.319712E+02 -3.314718E+00 -3.129478E+02 -4.927292E-13 -4.676752E-13
        92  13  1.218020E+03 -3.427654E+02 -1.676549E+01 -2.327341E+02  3.215267E-13  8.351343E-14
        92  14  1.048944E+03 -3.241985E+02  4.225623E+00 -2.934719E+02  7.516208E-14 -5.845940E-14
        92  15  6.824643E+02 -3.867121E+02 -3.213367E+01 -3.305140E+02  1.336215E-13 -1.377972E-13
        92  16  1.108780E+03 -3.145708E+02 -4.990799E+00 -2.775206E+02  0.000000E+00 -8.351343E-14
        92  17  8.828609E+02 -3.137594E+02  4.331398E+00 -3.101579E+02  4.175671E-13 -1.503242E-13
        92  18  4.784157E+02 -3.869877E+02 -3.684002E+01 -3.169002E+02  1.377972E-13 -1.461485E-14
        92  19  1.385297E+03 -3.269779E+02 -1.051384E+01 -1.546908E+02  3.978147E+01 -4.421556E+01
        92  20  1.289740E+03 -2.850463E+02  2.561166E+01 -2.440301E+02  4.172005E+01 -7.021458E+01
        92  21  9.758218E+02 -3.319712E+02 -3.314718E+00 -3.129478E+02  3.523939E+01 -9.458769E+01
        92  22  1.218020E+03 -3.427654E+02 -1.676549E+01 -2.327341E+02  2.146926E+01 -5.169809E+01
        92  23  1.048944E+03 -3.241985E+02  4.225623E+00 -2.934719E+02  1.799869E+01 -7.309662E+01
        92  24  6.824643E+02 -3.867121E+02 -3.213367E+01 -3.305140E+02  6.220570E+00 -9.205660E+01
        92  25  1.108780E+03 -3.145708E+02 -4.990799E+00 -2.775206E+02  6.556711E+00 -5.268021E+01
        92  26  8.828609E+02 -3.137594E+02  4.331398E+00 -3.101579E+02 -8.429945E-01 -6.965703E+01
        92  27  4.784157E+02 -3.869877E+02 -3.684002E+01 -3.169002E+02 -1.613385E+01 -8.366194E+01
        93   1 -3.950804E+01 -1.013410E+03 -1.114344E+02 -3.396801E+01  6.034340E+01  2.348911E+01
        93   2  1.380059E+01 -6.014182E+02 -4.323905E+01 -5.067483E+01  6.847269E+01  1.622192E+01
        93   3  2.928937E+01 -2.717777E+02 -2.024683E+01 -5.440806E+01  7.656911E+01  6.417332E+00
        93   4  5.516063E+01 -7.423807E+02 -8.014335E+01 -1.100136E+02  5.475426E+01  5.170973E+01
        93   5  1.026221E+02 -4.668080E+02 -4.286207E+01 -1.249321E+02  5.997834E+01  3.988610E+01
        93   6  1.095098E+02 -2.873883E+02 -5.305136E+01 -1.249372E+02  6.502840E+01  2.509489E+01
        93   7  2.978727E+02 -3.486271E+02 -1.333269E+00 -2.628592E+02  4.391615E+01  8.201686E+01
        93   8  3.608247E+02 -1.915747E+02  2.519169E+01 -2.830631E+02  4.571129E+01  6.583235E+01
        93   9  3.817993E+02 -1.434730E+02  2.685164E+00 -2.869924E+02  4.714687E+01  4.626403E+01
        93  10 -3.950804E+01 -1.013410E+03 -1.114344E+02 -3.396801E+01 -3.361415E-13  6.472291E-13
        93  11  1.380059E+01 -6.014182E+02 -4.323905E+01 -5.067483E+01 -2.505403E-14  7.182155E-13
        93  12  2.928937E+01 -2.717777E+02 -2.024683E+01 -5.440806E+01  3.048240E-13  3.674591E-13
        93  13  5.516063E+01 -7.423807E+02 -8.014335E+01 -1.100136E+02  7.933776E-14  8.977693E-14
        93  14  1.026221E+02 -4.668080E+02 -4.286207E+01 -1.249321E+02 -1.252701E-13  3.591077E-13
        93  15  1.095098E+02 -2.873883E+02 -5.305136E+01 -1.249372E+02 -1.419728E-13  1.816417E-13
        93  16  2.978727E+02 -3.486271E+02 -1.333269E+00 -2.628592E+02  4.426212E-13 -4.133915E-13
        93  17  3.608247E+02 -1.915747E+02  2.519169E+01 -2.830631E+02  3.131754E-14 -1.252701E-14
        93  18  3.817993E+02 -1.434730E+02  2.685164E+00 -2.869924E+02 -5.261346E-13  5.219589E-16
        93  19 -3.950804E+01 -1.013410E+03 -1.114344E+02 -3.396801E+01 -6.034340E+01 -2.348911E+01
        93  20  1.380059E+01 -6.014182E+02 -4.323905E+01 -5.067483E+01 -6.847269E+01 -1.622192E+01
        93  21  2.928937E+01 -2.717777E+02 -2.024683E+01 -5.440806E+01 -7.656911E+01 -6.417332E+00
        93  22  5.516063E+01 -7.423807E+02 -8.014335E+01 -1.100136E+02 -5.475426E+01 -5.170973E+01
        93  23  1.026221E+02 -4.668080E+02 -4.286207E+01 -1.249321E+02 -5.997834E+01 -3.988610E+01
        93  24  1.095098E+02 -2.873883E+02 -5.305136E+01 -1.249372E+02 -6.502840E+01 -2.509489E+01
        93  25  2.978727E+02 -3.486271E+02 -1.333269E+00 -2.628592E+02 -4.391615E+01 -8.201686E+01
        93  26  3.608247E+02 -1.915747E+02  2.519169E+01 -2.830631E+02 -4.571129E+01 -6.583235E+01
        93  27  3.817993E+02 -1.434730E+02  2.685164E+00 -2.869924E+02 -4.714687E+01 -4.626403E+01
        94   1  1.574206E+02 -1.358770E+02  1.198489E+01 -4.977367E+01  6.562985E+01  5.321358E+00
        94   2  2.623191E+02 -5.842678E+01  6.724802E-01 -3.762561E+01  5.310698E+01  2.284029E+00
        94   3  3.662929E+02  7.103366E+00 -6.004737E-01 -3.624490E+01  4.063117E+01  2.875527E+00
        94   4  2.700577E+02 -1.349864E+02  3.088411E+00 -1.562709E+02  5.455155E+01  2.113471E+01
        94   5  3.476202E+02 -5.911931E+01 -4.454289E+00 -1.275965E+02  4.575021E+01  1.380268E+01
        94   6  4.202230E+02  1.630829E+00 -8.891086E+00 -1.081494E+02  3.714411E+01  9.800809E+00
        94   7  4.238183E+02 -1.204366E+02 -2.786979E+00 -2.686150E+02  4.108830E+01  3.788168E+01
        94   8  4.817868E+02 -4.154401E+01  8.673878E-01 -2.240541E+02  3.577548E+01  2.633904E+01
        94   9  5.312739E+02  1.926143E+01  9.161071E-01 -1.872310E+02  3.078527E+01  1.783390E+01
        94  10  1.574206E+02 -1.358770E+02  1.198489E+01 -4.977367E+01  1.975615E-13  3.194389E-13
        94  11  2.623191E+02 -5.842678E+01  6.724802E-01 -3.762561E+01 -9.134281E-14  3.095216E-13
        94  12  3.662929E+02  7.103366E+00 -6.004737E-01 -3.624490E+01  5.219589E-14  4.051706E-13
        94  13  2.700577E+02 -1.349864E+02  3.088411E+00 -1.562709E+02 -7.724992E-14 -1.070016E-14
        94  14  3.476202E+02 -5.911931E+01 -4.454289E+00 -1.275965E+02  4.149573E-13 -9.003791E-14
        94  15  4.202230E+02  1.630829E+00 -8.891086E+00 -1.081494E+02 -3.319659E-13 -7.307425E-14
        94  16  4.238183E+02 -1.204366E+02 -2.786979E+00 -2.686150E+02 -1.665049E-13 -3.403172E-13
        94  17  4.817868E+02 -4.154401E+01  8.673878E-01 -2.240541E+02  1.524120E-13 -4.796802E-13
        94  18  5.312739E+02  1.926143E+01  9.161071E-01 -1.872310E+02  3.387513E-13 -5.254821E-13
        94  19  1.574206E+02 -1.358770E+02  1.198489E+01 -4.977367E+01 -6.562985E+01 -5.321358E+00
        94  20  2.623191E+02 -5.842678E+01  6.724802E-01 -3.762561E+01 -5.310698E+01 -2.284029E+00
        94  21  3.662929E+02  7.103366E+00 -6.004737E-01 -3.624490E+01 -4.063117E+01 -2.875527E+00
        94  22  2.700577E+02 -1.349864E+02  3.088411E+00 -1.562709E+02 -5.455155E+01 -2.113471E+01
        94  23  3.476202E+02 -5.911931E+01 -4.454289E+00 -1.275965E+02 -4.575021E+01 -1.380268E+01
        94  24  4.202230E+02  1.630829E+00 -8.891086E+00 -1.081494E+02 -3.714411E+01 -9.800809E+00
        94  25  4.238183E+02 -1.204366E+02 -2.786979E+00 -2.686150E+02 -4.108830E+01 -3.788168E+01
        94  26  4.817868E+02 -4.154401E+01  8.673878E-01 -2.240541E+02 -3.577548E+01 -2.633904E+01
        94  27  5.312739E+02  1.926143E+01  9.161071E-01 -1.872310E+02 -3.078527E+01 -1.783390E+01
        95   1  5.278872E+02 -1.345162E+02 -1.122154E+01 -2.825696E+02  3.243242E+01  3.500298E+01
        95   2  5.691638E+02 -5.886024E+01 -4.170579E+00 -2.454519E+02  2.902163E+01  2.667925E+01
        95   3  6.052231E+02  8.309500E+00  1.183560E+00 -2.148341E+02  2.572612E+01  1.921047E+01
        95   4  7.043291E+02 -1.206949E+02 -6.517846E+00 -2.887668E+02  2.200286E+01  3.331045E+01
        95   5  7.162045E+02 -5.456650E+01  7.901491E-01 -2.578752E+02  2.026377E+01  2.642217E+01
        95   6  7.201279E+02  9.401175E-01  3.000591E+00 -2.341629E+02  1.871578E+01  2.056259E+01
        95   7  8.631033E+02 -1.099343E+02 -1.282615E+00 -2.944616E+02  1.339857E+01  3.090341E+01
        95   8  8.417741E+02 -5.566932E+01  1.788874E+00 -2.697172E+02  1.352904E+01  2.537861E+01
        95   9  8.095350E+02 -1.424359E+01 -3.729435E+00 -2.528283E+02  1.394543E+01  2.105058E+01
        95  10  5.278872E+02 -1.345162E+02 -1.122154E+01 -2.825696E+02 -1.936468E-13  1.127431E-13
        95  11  5.691638E+02 -5.886024E+01 -4.170579E+00 -2.454519E+02  1.712025E-13 -2.087836E-13
        95  12  6.052231E+02  8.309500E+00  1.183560E+00 -2.148341E+02  2.588916E-13 -3.350976E-13
        95  13  7.043291E+02 -1.206949E+02 -6.517846E+00 -2.887668E+02 -8.100802E-13  1.482363E-13
        95  14  7.162045E+02 -5.456650E+01  7.901491E-01 -2.578752E+02  4.175671E-13 -1.440607E-13
        95  15  7.201279E+02  9.401175E-01  3.000591E+00 -2.341629E+02  3.257024E-13 -2.369693E-13
        95  16  8.631033E+02 -1.099343E+02 -1.282615E+00 -2.944616E+02 -8.685396E-13  1.503242E-13
        95  17  8.417741E+02 -5.566932E+01  1.788874E+00 -2.697172E+02 -2.547160E-13 -1.085675E-13
        95  18  8.095350E+02 -1.424359E+01 -3.729435E+00 -2.528283E+02  7.098641E-13 -1.868613E-13
        95  19  5.278872E+02 -1.345162E+02 -1.122154E+01 -2.825696E+02 -3.243242E+01 -3.500298E+01
        95  20  5.691638E+02 -5.886024E+01 -4.170579E+00 -2.454519E+02 -2.902163E+01 -2.667925E+01
        95  21  6.052231E+02  8.309500E+00  1.183560E+00 -2.148341E+02 -2.572612E+01 -1.921047E+01
        95  22  7.043291E+02 -1.206949E+02 -6.517846E+00 -2.887668E+02 -2.200286E+01 -3.331045E+01
        95  23  7.162045E+02 -5.456650E+01  7.901491E-01 -2.578752E+02 -2.026377E+01 -2.642217E+01
        95  24  7.201279E+02  9.401175E-01  3.000591E+00 -2.341629E+02 -1.871578E+01 -2.056259E+01
        95  25  8.631033E+02 -1.099343E+02 -1.282615E+00 -2.944616E+02 -1.339857E+01 -3.090341E+01
        95  26  8.417741E+02 -5.566932E+01  1.788874E+00 -2.697172E+02 -1.352904E+01 -2.537861E+01
        95  27  8.095350E+02 -1.424359E+01 -3.729435E+00 -2.528283E+02 -1.394543E+01 -2.105058E+01
        96   1  4.433511E+02 -3.650112E+02 -3.443797E+01 -3.091559E+02  3.160726E+01  7.196895E+01
        96   2  4.894835E+02 -2.835664E+02 -2.112816E+01 -3.132194E+02  3.299416E+01  5.614646E+01
        96   3  5.537407E+02 -1.482442E+02  1.006838E+01 -3.247632E+02  3.449433E+01  4.116456E+01
        96   4  7.848735E+02 -3.047238E+02 -1.198726E+01 -3.143950E+02  1.325166E+01  6.149874E+01
        96   5  7.716506E+02 -2.416976E+02 -2.073989E+00 -3.158522E+02  1.708432E+01  4.939399E+01
        96   6  7.727323E+02 -1.259924E+02  2.165557E+01 -3.258369E+02  2.113926E+01  3.848609E+01
        96   7  1.041441E+03 -2.826399E+02 -3.445940E+00 -3.007682E+02 -6.628237E-01  4.926293E+01
        96   8  9.556479E+02 -2.468759E+02 -1.031966E+01 -2.977978E+02  6.050069E+00  4.071401E+01
        96   9  8.795463E+02 -1.600440E+02 -7.809072E+00 -3.042551E+02  1.313124E+01  3.370653E+01
        96  10  4.433511E+02 -3.650112E+02 -3.443797E+01 -3.091559E+02  5.266566E-13 -2.254863E-13
        96  11  4.894835E+02 -2.835664E+02 -2.112816E+01 -3.132194E+02 -9.186477E-14 -1.127431E-13
        96  12  5.537407E+02 -1.482442E+02  1.006838E+01 -3.247632E+02 -6.179994E-13  2.390572E-13
        96  13  7.848735E+02 -3.047238E+02 -1.198726E+01 -3.143950E+02  3.841618E-13 -1.899930E-13
        96  14  7.716506E+02 -2.416976E+02 -2.073989E+00 -3.158522E+02 -1.377972E-13 -2.192227E-13
        96  15  7.727323E+02 -1.259924E+02  2.165557E+01 -3.258369E+02 -4.217428E-13  6.263507E-14
        96  16  1.041441E+03 -2.826399E+02 -3.445940E+00 -3.007682E+02 -1.169188E-13 -1.586755E-13
        96  17  9.556479E+02 -2.468759E+02 -1.031966E+01 -2.977978E+02 -3.758104E-14 -2.755943E-13
        96  18  8.795463E+02 -1.600440E+02 -7.809072E+00 -3.042551E+02 -1.043918E-14 -1.482363E-13
        96  19  4.433511E+02 -3.650112E+02 -3.443797E+01 -3.091559E+02 -3.160726E+01 -7.196895E+01
        96  20  4.894835E+02 -2.835664E+02 -2.112816E+01 -3.132194E+02 -3.299416E+01 -5.614646E+01
        96  21  5.537407E+02 -1.482442E+02  1.006838E+01 -3.247632E+02 -3.449433E+01 -4.116456E+01
        96  22  7.848735E+02 -3.047238E+02 -1.198726E+01 -3.143950E+02 -1.325166E+01 -6.149874E+01
        96  23  7.716506E+02 -2.416976E+02 -2.073989E+00 -3.158522E+02 -1.708432E+01 -4.939399E+01
        96  24  7.727323E+02 -1.259924E+02  2.165557E+01 -3.258369E+02 -2.113926E+01 -3.848609E+01
        96  25  1.041441E+03 -2.826399E+02 -3.445940E+00 -3.007682E+02  6.628237E-01 -4.926293E+01
        96  26  9.556479E+02 -2.468759E+02 -1.031966E+01 -2.977978E+02 -6.050069E+00 -4.071401E+01
        96  27  8.795463E+02 -1.600440E+02 -7.809072E+00 -3.042551E+02 -1.313124E+01 -3.370653E+01
        97   1  8.219088E+02  3.659922E+02 -1.110530E+01 -5.484133E+02 -1.199127E+02  1.144699E+02
        97   2  1.478932E+03  2.478899E+02  7.265697E+01 -4.240343E+02 -1.193743E+02  7.529271E+01
        97   3  1.695286E+03 -5.009723E+01  1.155557E+00 -3.169141E+02 -1.124577E+02  3.632591E+01
        97   4  1.508576E+03  3.856466E+02  3.901519E+01 -8.117854E+02 -1.321233E+02  7.775752E+01
        97   5  1.868758E+03  2.890357E+02  6.919073E+01 -5.175386E+02 -1.223213E+02  3.797726E+01
        97   6  1.915477E+03  5.862221E+01 -5.480015E+00 -2.723707E+02 -1.109109E+02 -1.680098E+00
        97   7  2.326091E+03  3.657097E+02  1.303581E+02 -8.773525E+02 -1.364083E+02  3.435452E+01
        97   8  2.415745E+03  3.361792E+02  1.309696E+02 -4.659920E+02 -1.218609E+02 -3.758220E+00
        97   9  2.343584E+03  2.367731E+02  8.983858E+01 -1.053378E+02 -1.093594E+02 -4.201752E+01
        97  10  8.219088E+02  3.659922E+02 -1.110530E+01 -5.484133E+02 -2.338376E-13 -1.002161E-13
        97  11  1.478932E+03  2.478899E+02  7.265697E+01 -4.240343E+02  6.681074E-14 -5.010806E-14
        97  12  1.695286E+03 -5.009723E+01  1.155557E+00 -3.169141E+02  9.186477E-14 -5.010806E-14
        97  13  1.508576E+03  3.856466E+02  3.901519E+01 -8.117854E+02 -2.004322E-13 -1.002161E-13
        97  14  1.868758E+03  2.890357E+02  6.919073E+01 -5.175386E+02  1.837295E-13 -1.002161E-13
        97  15  1.915477E+03  5.862221E+01 -5.480015E+00 -2.723707E+02  1.002161E-13  1.085675E-13
        97  16  2.326091E+03  3.657097E+02  1.303581E+02 -8.773525E+02 -6.681074E-14 -2.672430E-13
        97  17  2.415745E+03  3.361792E+02  1.309696E+02 -4.659920E+02  2.004322E-13  0.000000E+00
        97  18  2.343584E+03  2.367731E+02  8.983858E+01 -1.053378E+02  3.758104E-14  1.837295E-13
        97  19  8.219088E+02  3.659922E+02 -1.110530E+01 -5.484133E+02  1.199127E+02 -1.144699E+02
        97  20  1.478932E+03  2.478899E+02  7.265697E+01 -4.240343E+02  1.193743E+02 -7.529271E+01
        97  21  1.695286E+03 -5.009723E+01  1.155557E+00 -3.169141E+02  1.124577E+02 -3.632591E+01
        97  22  1.508576E+03  3.856466E+02  3.901519E+01 -8.117854E+02  1.321233E+02 -7.775752E+01
        97  23  1.868758E+03  2.890357E+02  6.919073E+01 -5.175386E+02  1.223213E+02 -3.797726E+01
        97  24  1.915477E+03  5.862221E+01 -5.480015E+00 -2.723707E+02  1.109109E+02  1.680098E+00
        97  25  2.326091E+03  3.657097E+02  1.303581E+02 -8.773525E+02  1.364083E+02 -3.435452E+01
        97  26  2.415745E+03  3.361792E+02  1.309696E+02 -4.659920E+02  1.218609E+02  3.758220E+00
        97  27  2.343584E+03  2.367731E+02  8.983858E+01 -1.053378E+02  1.093594E+02  4.201752E+01
        98   1  1.845864E+03  1.937296E+00  4.768926E+01 -1.600062E+02 -1.006139E+02  2.261843E+01
        98   2  1.802865E+03 -2.940438E+01  1.325466E+01 -2.022859E+01 -7.930369E+01  4.202568E+00
        98   3  1.796973E+03 -4.020795E+01  1.125558E+01  1.129411E+02 -6.334817E+01 -1.431176E+01
        98   4  1.969680E+03  8.740772E+01  2.120024E+01 -1.075165E+02 -9.807955E+01 -1.412174E+01
        98   5  1.871256E+03  6.499601E+01 -2.221757E+00  1.532632E+01 -7.473740E+01 -2.557751E+01
        98   6  1.814798E+03  6.289260E+01  2.444844E+00  1.309241E+02 -5.746561E+01 -3.725009E+01
        98   7  2.155406E+03  2.131570E+02  4.411311E+01 -2.733760E+01 -9.582577E+01 -5.141016E+01
        98   8  1.992037E+03  1.976961E+02  2.578682E+01  7.587910E+01 -7.003058E+01 -5.505120E+01
        98   9  1.876795E+03  2.027215E+02  3.171509E+01  1.712230E+02 -5.112581E+01 -5.907072E+01
        98  10  1.845864E+03  1.937296E+00  4.768926E+01 -1.600062E+02  4.008645E-13  3.006483E-13
        98  11  1.802865E+03 -2.940438E+01  1.325466E+01 -2.022859E+01  1.336215E-13 -8.351343E-14
        98  12  1.796973E+03 -4.020795E+01  1.125558E+01  1.129411E+02  2.505403E-14 -1.419728E-13
        98  13  1.969680E+03  8.740772E+01  2.120024E+01 -1.075165E+02  6.681074E-14  3.006483E-13
        98  14  1.871256E+03  6.499601E+01 -2.221757E+00  1.532632E+01  8.351343E-14  1.336215E-13
        98  15  1.814798E+03  6.289260E+01  2.444844E+00  1.309241E+02  5.010806E-14 -6.681074E-14
        98  16  2.155406E+03  2.131570E+02  4.411311E+01 -2.733760E+01 -3.006483E-13 -2.087836E-13
        98  17  1.992037E+03  1.976961E+02  2.578682E+01  7.587910E+01  2.004322E-13 -8.351343E-15
        98  18  1.876795E+03  2.027215E+02  3.171509E+01  1.712230E+02  2.046079E-13  2.797700E-13
        98  19  1.845864E+03  1.937296E+00  4.768926E+01 -1.600062E+02  1.006139E+02 -2.261843E+01
        98  20  1.802865E+03 -2.940438E+01  1.325466E+01 -2.022859E+01  7.930369E+01 -4.202568E+00
        98  21  1.796973E+03 -4.020795E+01  1.125558E+01  1.129411E+02  6.334817E+01  1.431176E+01
        98  22  1.969680E+03  8.740772E+01  2.120024E+01 -1.075165E+02  9.807955E+01  1.412174E+01
        98  23  1.871256E+03  6.499601E+01 -2.221757E+00  1.532632E+01  7.473740E+01  2.557751E+01
        98  24  1.814798E+03  6.289260E+01  2.444844E+00  1.309241E+02  5.746561E+01  3.725009E+01
        98  25  2.155406E+03  2.131570E+02  4.411311E+01 -2.733760E+01  9.582577E+01  5.141016E+01
        98  26  1.992037E+03  1.976961E+02  2.578682E+01  7.587910E+01  7.003058E+01  5.505120E+01
        98  27  1.876795E+03  2.027215E+02  3.171509E+01  1.712230E+02  5.112581E+01  5.907072E+01
        99   1  2.273468E+03  3.023493E+02  7.525899E+01 -5.079353E+00 -6.722335E+01 -6.885961E+01
        99   2  1.975245E+03  2.380582E+02  1.408327E+01  6.901772E+01 -4.896123E+01 -6.892547E+01
        99   3  1.819759E+03  2.355696E+02  1.502230E+01  1.477793E+02 -3.481421E+01 -6.921101E+01
        99   4  2.232202E+03  3.558844E+02  5.006169E+01  1.743464E+01 -4.177054E+01 -8.922066E+01
        99   5  1.941343E+03  2.930839E+02  8.582887E+00  5.638889E+01 -2.893093E+01 -8.415893E+01
        99   6  1.778219E+03  2.840836E+02  1.802632E+01  9.912304E+01 -2.001626E+01 -7.921043E+01
        99   7  2.162780E+03  3.733125E+02  3.552952E+01  1.033385E+01 -1.365405E+01 -1.008059E+02
        99   8  1.875961E+03  3.076547E+02  4.976112E+00  1.723453E+01 -5.953958E+00 -9.078852E+01
        99   9  1.703090E+03  2.883021E+02  1.466961E+01  2.723089E+01 -1.996298E+00 -8.079457E+01
        99  10  2.273468E+03  3.023493E+02  7.525899E+01 -5.079353E+00 -2.839457E-13 -3.173510E-13
        99  11  1.975245E+03  2.380582E+02  1.408327E+01  6.901772E+01 -3.716348E-13 -1.002161E-13
        99  12  1.819759E+03  2.355696E+02  1.502230E+01  1.477793E+02 -2.181788E-13  3.674591E-13
        99  13  2.232202E+03  3.558844E+02  5.006169E+01  1.743464E+01 -5.010806E-14 -4.008645E-13
        99  14  1.941343E+03  2.930839E+02  8.582887E+00  5.638889E+01 -5.010806E-14 -1.336215E-13
        99  15  1.778219E+03  2.840836E+02  1.802632E+01  9.912304E+01  1.273580E-13  6.681074E-14
        99  16  2.162780E+03  3.733125E+02  3.552952E+01  1.033385E+01  3.340537E-13 -1.670269E-14
        99  17  1.875961E+03  3.076547E+02  4.976112E+00  1.723453E+01  1.712025E-13 -6.681074E-14
        99  18  1.703090E+03  2.883021E+02  1.466961E+01  2.723089E+01  2.223545E-13  2.922970E-13
        99  19  2.273468E+03  3.023493E+02  7.525899E+01 -5.079353E+00  6.722335E+01  6.885961E+01
        99  20  1.975245E+03  2.380582E+02  1.408327E+01  6.901772E+01  4.896123E+01  6.892547E+01
        99  21  1.819759E+03  2.355696E+02  1.502230E+01  1.477793E+02  3.481421E+01  6.921101E+01
        99  22  2.232202E+03  3.558844E+02  5.006169E+01  1.743464E+01  4.177054E+01  8.922066E+01
        99  23  1.941343E+03  2.930839E+02  8.582887E+00  5.638889E+01  2.893093E+01  8.415893E+01
        99  24  1.778219E+03  2.840836E+02  1.802632E+01  9.912304E+01  2.001626E+01  7.921043E+01
        99  25  2.162780E+03  3.733125E+02  3.552952E+01  1.033385E+01  1.365405E+01  1.008059E+02
        99  26  1.875961E+03  3.076547E+02  4.976112E+00  1.723453E+01  5.953958E+00  9.078852E+01
        99  27  1.703090E+03  2.883021E+02  1.466961E+01  2.723089E+01  1.996298E+00  8.079457E+01
       100   1  2.920812E+03  3.945733E+02  2.404764E+02 -7.976852E+02 -1.192885E+02  8.856638E+00
       100   2  2.496793E+03  2.666627E+02  7.671410E+01 -4.008986E+02 -9.880276E+01 -2.718670E+01
       100   3  2.393464E+03  2.744921E+02  7.610910E+01 -5.872011E+01 -7.992230E+01 -6.332659E+01
       100   4  3.521519E+03  2.759036E+02  2.930464E+02 -4.995603E+02 -7.282672E+01 -2.877867E+01
       100   5  2.753077E+03  2.327276E+02  7.882508E+01 -2.499882E+02 -5.894015E+01 -6.008991E+01
       100   6  2.384624E+03  3.619892E+02  5.885217E+01 -4.568626E+01 -5.054835E+01 -9.164629E+01
       100   7  3.733480E+03  1.158528E+02  2.683654E+02 -1.274712E+02 -1.771866E+01 -5.060016E+01
       100   8  2.906362E+03  2.333081E+02  1.034656E+02 -4.423117E+01 -1.230579E+01 -7.510337E+01
       100   9  2.427817E+03  5.055090E+02  1.083737E+02  1.439330E+01 -1.505019E+01 -9.970028E+01
       100  10  2.920812E+03  3.945733E+02  2.404764E+02 -7.976852E+02 -5.177832E-13 -3.340537E-13
       100  11  2.496793E+03  2.666627E+02  7.671410E+01 -4.008986E+02 -3.424051E-13 -6.681074E-14
       100  12  2.393464E+03  2.744921E+02  7.610910E+01 -5.872011E+01 -2.108714E-13  1.043918E-13
       100  13  3.521519E+03  2.759036E+02  2.930464E+02 -4.995603E+02 -1.002161E-13 -3.340537E-13
       100  14  2.753077E+03  2.327276E+02  7.882508E+01 -2.499882E+02 -6.681074E-14 -1.336215E-13
       100  15  2.384624E+03  3.619892E+02  5.885217E+01 -4.568626E+01  6.681074E-14  2.171349E-13
       100  16  3.733480E+03  1.158528E+02  2.683654E+02 -1.274712E+02  3.340537E-13 -6.681074E-14
       100  17  2.906362E+03  2.333081E+02  1.034656E+02 -4.423117E+01  1.336215E-13  3.340537E-14
       100  18  2.427817E+03  5.055090E+02  1.083737E+02  1.439330E+01  2.150471E-13  6.263507E-14
       100  19  2.920812E+03  3.945733E+02  2.404764E+02 -7.976852E+02  1.192885E+02 -8.856638E+00
       100  20  2.496793E+03  2.666627E+02  7.671410E+01 -4.008986E+02  9.880276E+01  2.718670E+01
       100  21  2.393464E+03  2.744921E+02  7.610910E+01 -5.872011E+01  7.992230E+01  6.332659E+01
       100  22  3.521519E+03  2.759036E+02  2.930464E+02 -4.995603E+02  7.282672E+01  2.877867E+01
       100  23  2.753077E+03  2.327276E+02  7.882508E+01 -2.499882E+02  5.894015E+01  6.008991E+01
       100  24  2.384624E+03  3.619892E+02  5.885217E+01 -4.568626E+01  5.054835E+01  9.164629E+01
       100  25  3.733480E+03  1.158528E+02  2.683654E+02 -1.274712E+02  1.771866E+01  5.060016E+01
       100  26  2.906362E+03  2.333081E+02  1.034656E+02 -4.423117E+01  1.230579E+01  7.510337E+01
       100  27  2.427817E+03  5.055090E+02  1.083737E+02  1.439330E+01  1.505019E+01  9.970028E+01
       101   1  9.590129E+02  1.267632E+02  4.653450E-01 -8.052750E+01  5.962919E+00 -8.292134E-02
       101   2  9.447792E+02  1.193639E+02 -1.323109E-01 -9.183923E+01  6.007646E+00  1.016579E+00
       101   3  9.314895E+02  1.151886E+02  4.727687E-01 -1.048186E+02  6.059271E+00  2.197898E+00
       101   4  9.481963E+02  1.332549E+02  2.003568E-01 -6.772048E+01  6.828338E+00 -1.655443E-02
       101   5  9.294924E+02  1.264094E+02 -4.824114E-01 -7.721393E+01  6.956256E+00  9.112539E-01
       101   6  9.118237E+02  1.226651E+02  1.442069E-01 -8.834206E+01  7.089646E+00  1.922878E+00
       101   7  9.386864E+02  1.399599E+02  5.950843E-01 -5.423642E+01  7.540785E+00  7.920217E-02
       101   8  9.156353E+02  1.336694E+02 -2.486893E-01 -6.200056E+01  7.753507E+00  8.389139E-01
       101   9  8.937023E+02  1.303624E+02  3.225857E-01 -7.136424E+01  7.970272E+00  1.684213E+00
       101  10  9.590129E+02  1.267632E+02  4.653450E-01 -8.052750E+01 -1.753782E-13 -7.985971E-13
       101  11  9.447792E+02  1.193639E+02 -1.323109E-01 -9.183923E+01  4.593238E-14 -7.296986E-13
       101  12  9.314895E+02  1.151886E+02  4.727687E-01 -1.048186E+02  2.839457E-13 -6.528401E-13
       101  13  9.481963E+02  1.332549E+02  2.003568E-01 -6.772048E+01 -1.670269E-13  5.219589E-14
       101  14  9.294924E+02  1.264094E+02 -4.824114E-01 -7.721393E+01  4.843779E-13 -4.175671E-15
       101  15  9.118237E+02  1.226651E+02  1.442069E-01 -8.834206E+01  5.845940E-13 -9.760632E-14
       101  16  9.386864E+02  1.399599E+02  5.950843E-01 -5.423642E+01 -4.927292E-13  9.040328E-13
       101  17  9.156353E+02  1.336694E+02 -2.486893E-01 -6.200056E+01 -6.681074E-14  7.557965E-13
       101  18  8.937023E+02  1.303624E+02  3.225857E-01 -7.136424E+01  4.008645E-13  5.522325E-13
       101  19  9.590129E+02  1.267632E+02  4.653450E-01 -8.052750E+01 -5.962919E+00  8.292134E-02
       101  20  9.447792E+02  1.193639E+02 -1.323109E-01 -9.183923E+01 -6.007646E+00 -1.016579E+00
       101  21  9.314895E+02  1.151886E+02  4.727687E-01 -1.048186E+02 -6.059271E+00 -2.197898E+00
       101  22  9.481963E+02  1.332549E+02  2.003568E-01 -6.772048E+01 -6.828338E+00  1.655443E-02
       101  23  9.294924E+02  1.264094E+02 -4.824114E-01 -7.721393E+01 -6.956256E+00 -9.112539E-01
       101  24  9.118237E+02  1.226651E+02  1.442069E-01 -8.834206E+01 -7.089646E+00 -1.922878E+00
       101  25  9.386864E+02  1.399599E+02  5.950843E-01 -5.423642E+01 -7.540785E+00 -7.920217E-02
       101  26  9.156353E+02  1.336694E+02 -2.486893E-01 -6.200056E+01 -7.753507E+00 -8.389139E-01
       101  27  8.937023E+02  1.303624E+02  3.225857E-01 -7.136424E+01 -7.970272E+00 -1.684213E+00
       102   1  9.216487E+02  1.122556E+02  8.475992E-02 -1.121564E+02  6.377132E+00  2.859124E+00
       102   2  9.060467E+02  1.065593E+02 -2.282532E-02 -1.247718E+02  6.894758E+00  4.175654E+00
       102   3  8.901324E+02  1.012348E+02  2.903263E-01 -1.398833E+02  7.430255E+00  5.703996E+00
       102   4  8.998450E+02  1.205520E+02  1.301433E-01 -9.489716E+01  7.518439E+00  2.477970E+00
       102   5  8.773596E+02  1.153411E+02 -3.532737E-01 -1.059518E+02  8.263608E+00  3.612315E+00
       102   6  8.548424E+02  1.105876E+02 -2.633831E-02 -1.194275E+02  9.022304E+00  4.953781E+00
       102   7  8.795361E+02  1.288391E+02  5.401221E-01 -7.692568E+01  8.532363E+00  2.129527E+00
       102   8  8.504083E+02  1.241654E+02 -3.187757E-01 -8.649895E+01  9.499790E+00  3.086150E+00
       102   9  8.215133E+02  1.200337E+02  1.723961E-02 -9.841791E+01  1.047678E+01  4.245217E+00
       102  10  9.216487E+02  1.122556E+02  8.475992E-02 -1.121564E+02  6.200872E-13 -6.012967E-13
       102  11  9.060467E+02  1.065593E+02 -2.282532E-02 -1.247718E+02 -1.879052E-13 -1.471924E-13
       102  12  8.901324E+02  1.012348E+02  2.903263E-01 -1.398833E+02 -2.046079E-13  2.548464E-13
       102  13  8.998450E+02  1.205520E+02  1.301433E-01 -9.489716E+01  5.344859E-13 -1.628512E-13
       102  14  8.773596E+02  1.153411E+02 -3.532737E-01 -1.059518E+02  4.760265E-13 -2.505403E-14
       102  15  8.548424E+02  1.105876E+02 -2.633831E-02 -1.194275E+02 -1.419728E-13  1.106553E-13
       102  16  8.795361E+02  1.288391E+02  5.401221E-01 -7.692568E+01  5.261346E-13  3.664152E-13
       102  17  8.504083E+02  1.241654E+02 -3.187757E-01 -8.649895E+01  2.254863E-13  2.046079E-13
       102  18  8.215133E+02  1.200337E+02  1.723961E-02 -9.841791E+01 -4.927292E-13  1.396240E-14
       102  19  9.216487E+02  1.122556E+02  8.475992E-02 -1.121564E+02 -6.377132E+00 -2.859124E+00
       102  20  9.060467E+02  1.065593E+02 -2.282532E-02 -1.247718E+02 -6.894758E+00 -4.175654E+00
       102  21  8.901324E+02  1.012348E+02  2.903263E-01 -1.398833E+02 -7.430255E+00 -5.703996E+00
       102  22  8.998450E+02  1.205520E+02  1.301433E-01 -9.489716E+01 -7.518439E+00 -2.477970E+00
       102  23  8.773596E+02  1.153411E+02 -3.532737E-01 -1.059518E+02 -8.263608E+00 -3.612315E+00
       102  24  8.548424E+02  1.105876E+02 -2.633831E-02 -1.194275E+02 -9.022304E+00 -4.953781E+00
       102  25  8.795361E+02  1.288391E+02  5.401221E-01 -7.692568E+01 -8.532363E+00 -2.129527E+00
       102  26  8.504083E+02  1.241654E+02 -3.187757E-01 -8.649895E+01 -9.499790E+00 -3.086150E+00
       102  27  8.215133E+02  1.200337E+02  1.723961E-02 -9.841791E+01 -1.047678E+01 -4.245217E+00
       103   1  8.681869E+02  1.332599E+02  7.979841E-01 -6.336592E+01  9.085595E+00  1.973483E+00
       103   2  8.360881E+02  1.293136E+02  8.716255E-02 -7.181478E+01  1.017218E+01  2.845255E+00
       103   3  8.046989E+02  1.265467E+02  1.059512E+00 -8.180197E+01  1.126500E+01  3.884755E+00
       103   4  8.507270E+02  1.348511E+02 -3.484956E-01 -3.635550E+01  9.820589E+00  1.026287E+00
       103   5  8.142134E+02  1.310996E+02 -1.108534E+00 -4.097481E+01  1.108849E+01  1.504051E+00
       103   6  7.785940E+02  1.286002E+02  1.408433E-01 -4.717950E+01  1.235991E+01  2.154519E+00
       103   7  8.412006E+02  1.392822E+02  1.039119E+00 -9.519430E+00  1.026374E+01  1.540342E-01
       103   8  7.999760E+02  1.354856E+02 -2.496800E-01 -1.038497E+01  1.171654E+01  2.436198E-01
       103   9  7.598326E+02  1.330183E+02  7.994106E-01 -1.287840E+01  1.317013E+01  5.104824E-01
       103  10  8.681869E+02  1.332599E+02  7.979841E-01 -6.336592E+01  4.384455E-13 -2.996044E-13
       103  11  8.360881E+02  1.293136E+02  8.716255E-02 -7.181478E+01  5.845940E-14 -3.392733E-14
       103  12  8.046989E+02  1.265467E+02  1.059512E+00 -8.180197E+01 -2.463646E-13  4.141092E-13
       103  13  8.507270E+02  1.348511E+02 -3.484956E-01 -3.635550E+01  5.094319E-13 -1.931248E-13
       103  14  8.142134E+02  1.310996E+02 -1.108534E+00 -4.097481E+01  8.351343E-15 -1.336215E-13
       103  15  7.785940E+02  1.286002E+02  1.408433E-01 -4.717950E+01 -2.004322E-13  5.428373E-14
       103  16  8.412006E+02  1.392822E+02  1.039119E+00 -9.519430E+00  2.296619E-13  1.043918E-15
       103  17  7.999760E+02  1.354856E+02 -2.496800E-01 -1.038497E+01 -7.098641E-14 -2.497573E-13
       103  18  7.598326E+02  1.330183E+02  7.994106E-01 -1.287840E+01 -8.768910E-14 -3.092607E-13
       103  19  8.681869E+02  1.332599E+02  7.979841E-01 -6.336592E+01 -9.085595E+00 -1.973483E+00
       103  20  8.360881E+02  1.293136E+02  8.716255E-02 -7.181478E+01 -1.017218E+01 -2.845255E+00
       103  21  8.046989E+02  1.265467E+02  1.059512E+00 -8.180197E+01 -1.126500E+01 -3.884755E+00
       103  22  8.507270E+02  1.348511E+02 -3.484956E-01 -3.635550E+01 -9.820589E+00 -1.026287E+00
       103  23  8.142134E+02  1.310996E+02 -1.108534E+00 -4.097481E+01 -1.108849E+01 -1.504051E+00
       103  24  7.785940E+02  1.286002E+02  1.408433E-01 -4.717950E+01 -1.235991E+01 -2.154519E+00
       103  25  8.412006E+02  1.392822E+02  1.039119E+00 -9.519430E+00 -1.026374E+01 -1.540342E-01
       103  26  7.999760E+02  1.354856E+02 -2.496800E-01 -1.038497E+01 -1.171654E+01 -2.436198E-01
       103  27  7.598326E+02  1.330183E+02  7.994106E-01 -1.287840E+01 -1.317013E+01 -5.104824E-01
       104   1  9.333593E+02  1.433230E+02  8.581754E-01 -4.438824E+01  7.895145E+00  2.516151E-01
       104   2  9.080722E+02  1.368810E+02 -1.857976E-01 -5.106755E+01  8.151902E+00  8.947132E-01
       104   3  8.845456E+02  1.346074E+02  7.955001E-01 -5.871180E+01  8.411151E+00  1.604884E+00
       104   4  9.245874E+02  1.443772E+02  4.873979E-02 -2.562031E+01  8.317420E+00  7.270807E-02
       104   5  8.966361E+02  1.384793E+02 -9.078815E-01 -2.918517E+01  8.641671E+00  4.381290E-01
       104   6  8.704547E+02  1.365874E+02  2.120959E-01 -3.375764E+01  8.967432E+00  8.774215E-01
       104   7  9.202657E+02  1.470079E+02  9.616713E-01 -6.556958E+00  8.521390E+00 -6.426685E-02
       104   8  8.894665E+02  1.414979E+02 -2.363720E-01 -7.099524E+00  8.918525E+00  2.794056E-02
       104   9  8.604505E+02  1.398412E+02  6.975741E-01 -8.687196E+00  9.316023E+00  2.003780E-01
       104  10  9.333593E+02  1.433230E+02  8.581754E-01 -4.438824E+01 -2.630673E-13  3.690250E-13
       104  11  9.080722E+02  1.368810E+02 -1.857976E-01 -5.106755E+01  1.461485E-13  1.508461E-13
       104  12  8.845456E+02  1.346074E+02  7.955001E-01 -5.871180E+01  2.964727E-13 -1.412551E-13
       104  13  9.245874E+02  1.443772E+02  4.873979E-02 -2.562031E+01 -9.854584E-13  7.307425E-14
       104  14  8.966361E+02  1.384793E+02 -9.078815E-01 -2.918517E+01 -1.503242E-13 -1.879052E-14
       104  15  8.704547E+02  1.365874E+02  2.120959E-01 -3.375764E+01  5.845940E-14 -4.527994E-14
       104  16  9.202657E+02  1.470079E+02  9.616713E-01 -6.556958E+00 -2.547160E-13 -2.667210E-13
       104  17  8.894665E+02  1.414979E+02 -2.363720E-01 -7.099524E+00  2.046079E-13 -1.171798E-13
       104  18  8.604505E+02  1.398412E+02  6.975741E-01 -8.687196E+00  3.549321E-13  6.694123E-14
       104  19  9.333593E+02  1.433230E+02  8.581754E-01 -4.438824E+01 -7.895145E+00 -2.516151E-01
       104  20  9.080722E+02  1.368810E+02 -1.857976E-01 -5.106755E+01 -8.151902E+00 -8.947132E-01
       104  21  8.845456E+02  1.346074E+02  7.955001E-01 -5.871180E+01 -8.411151E+00 -1.604884E+00
       104  22  9.245874E+02  1.443772E+02  4.873979E-02 -2.562031E+01 -8.317420E+00 -7.270807E-02
       104  23  8.966361E+02  1.384793E+02 -9.078815E-01 -2.918517E+01 -8.641671E+00 -4.381290E-01
       104  24  8.704547E+02  1.365874E+02  2.120959E-01 -3.375764E+01 -8.967432E+00 -8.774215E-01
       104  25  9.202657E+02  1.470079E+02  9.616713E-01 -6.556958E+00 -8.521390E+00  6.426685E-02
       104  26  8.894665E+02  1.414979E+02 -2.363720E-01 -7.099524E+00 -8.918525E+00 -2.794056E-02
       104  27  8.604505E+02  1.398412E+02  6.975741E-01 -8.687196E+00 -9.316023E+00 -2.003780E-01
       105   1  9.115790E+02  9.436609E+01 -8.213749E-03 -1.464879E+02  6.415888E+00  5.872155E+00
       105   2  9.237267E+02  9.955253E+01 -3.912361E-01 -1.317753E+02  5.999103E+00  4.312920E+00
       105   3  9.359273E+02  1.057195E+02 -2.001132E-01 -1.187360E+02  5.596250E+00  2.902822E+00
       105   4  9.482657E+02  8.451515E+01  2.695081E-01 -1.507862E+02  4.606386E+00  5.601194E+00
       105   5  9.551643E+02  8.997656E+01  2.255863E-01 -1.364301E+02  4.369622E+00  4.027895E+00
       105   6  9.619288E+02  9.636693E+01  4.870723E-01 -1.238803E+02  4.149698E+00  2.614504E+00
       105   7  9.812793E+02  7.249047E+01 -1.962109E-01 -1.538655E+02  2.793054E+00  5.331895E+00
       105   8  9.823332E+02  7.795381E+01 -2.768039E-01 -1.397981E+02  2.747975E+00  3.739691E+00
       105   9  9.830487E+02  8.429320E+01 -3.263187E-01 -1.276760E+02  2.723103E+00  2.318691E+00
       105  10  9.115790E+02  9.436609E+01 -8.213749E-03 -1.464879E+02 -4.196550E-13  8.393099E-13
       105  11  9.237267E+02  9.955253E+01 -3.912361E-01 -1.317753E+02 -1.628512E-13  5.198711E-13
       105  12  9.359273E+02  1.057195E+02 -2.001132E-01 -1.187360E+02  4.217428E-13  7.516208E-14
       105  13  9.482657E+02  8.451515E+01  2.695081E-01 -1.507862E+02 -1.052269E-12  2.630673E-13
       105  14  9.551643E+02  8.997656E+01  2.255863E-01 -1.364301E+02 -1.670269E-14  1.252701E-13
       105  15  9.619288E+02  9.636693E+01  4.870723E-01 -1.238803E+02  2.004322E-13 -4.697630E-14
       105  16  9.812793E+02  7.249047E+01 -1.962109E-01 -1.538655E+02 -7.432695E-13 -3.674591E-13
       105  17  9.823332E+02  7.795381E+01 -2.768039E-01 -1.397981E+02  1.670269E-14 -3.027362E-13
       105  18  9.830487E+02  8.429320E+01 -3.263187E-01 -1.276760E+02 -9.604044E-14 -2.484524E-13
       105  19  9.115790E+02  9.436609E+01 -8.213749E-03 -1.464879E+02 -6.415888E+00 -5.872155E+00
       105  20  9.237267E+02  9.955253E+01 -3.912361E-01 -1.317753E+02 -5.999103E+00 -4.312920E+00
       105  21  9.359273E+02  1.057195E+02 -2.001132E-01 -1.187360E+02 -5.596250E+00 -2.902822E+00
       105  22  9.482657E+02  8.451515E+01  2.695081E-01 -1.507862E+02 -4.606386E+00 -5.601194E+00
       105  23  9.551643E+02  8.997656E+01  2.255863E-01 -1.364301E+02 -4.369622E+00 -4.027895E+00
       105  24  9.619288E+02  9.636693E+01  4.870723E-01 -1.238803E+02 -4.149698E+00 -2.614504E+00
       105  25  9.812793E+02  7.249047E+01 -1.962109E-01 -1.538655E+02 -2.793054E+00 -5.331895E+00
       105  26  9.823332E+02  7.795381E+01 -2.768039E-01 -1.397981E+02 -2.747975E+00 -3.739691E+00
       105  27  9.830487E+02  8.429320E+01 -3.263187E-01 -1.276760E+02 -2.723103E+00 -2.318691E+00
       106   1  9.435961E+02  1.089230E+02  1.056299E-01 -1.111059E+02  5.362459E+00  2.186332E+00
       106   2  9.544972E+02  1.136526E+02 -2.820384E-01 -9.779391E+01  5.352342E+00  9.291803E-01
       106   3  9.660225E+02  1.208082E+02  1.407475E-01 -8.583757E+01  5.347979E+00 -2.663010E-01
       106   4  9.654310E+02  9.904191E+01  2.279355E-01 -1.161094E+02  4.062085E+00  1.860515E+00
       106   5  9.721083E+02  1.039747E+02 -2.493708E-02 -1.024478E+02  4.120923E+00  5.640974E-01
       106   6  9.793407E+02  1.114253E+02  4.598682E-01 -9.023897E+01  4.186645E+00 -6.669411E-01
       106   7  9.852553E+02  8.778220E+01  7.204277E-02 -1.201598E+02  2.699233E+00  1.556997E+00
       106   8  9.872837E+02  9.273939E+01 -2.554867E-01 -1.060708E+02  2.830725E+00  2.181810E-01
       106   9  9.897862E+02  1.003106E+02  7.966442E-02 -9.353576E+01  2.970393E+00 -1.051398E+00
       106  10  9.435961E+02  1.089230E+02  1.056299E-01 -1.111059E+02  1.712025E-13 -2.922970E-14
       106  11  9.544972E+02  1.136526E+02 -2.820384E-01 -9.779391E+01  4.175671E-14  4.175671E-15
       106  12  9.660225E+02  1.208082E+02  1.407475E-01 -8.583757E+01 -3.632834E-13  5.976430E-14
       106  13  9.654310E+02  9.904191E+01  2.279355E-01 -1.161094E+02  4.342698E-13 -1.085675E-13
       106  14  9.721083E+02  1.039747E+02 -2.493708E-02 -1.024478E+02  8.351343E-14 -1.043918E-13
       106  15  9.793407E+02  1.114253E+02  4.598682E-01 -9.023897E+01 -4.509725E-13  4.906414E-14
       106  16  9.852553E+02  8.778220E+01  7.204277E-02 -1.201598E+02  8.351343E-14 -2.004322E-13
       106  17  9.872837E+02  9.273939E+01 -2.554867E-01 -1.060708E+02 -1.085675E-13 -1.879052E-13
       106  18  9.897862E+02  1.003106E+02  7.966442E-02 -9.353576E+01 -1.252701E-14 -1.774660E-14
       106  19  9.435961E+02  1.089230E+02  1.056299E-01 -1.111059E+02 -5.362459E+00 -2.186332E+00
       106  20  9.544972E+02  1.136526E+02 -2.820384E-01 -9.779391E+01 -5.352342E+00 -9.291803E-01
       106  21  9.660225E+02  1.208082E+02  1.407475E-01 -8.583757E+01 -5.347979E+00  2.663010E-01
       106  22  9.654310E+02  9.904191E+01  2.279355E-01 -1.161094E+02 -4.062085E+00 -1.860515E+00
       106  23  9.721083E+02  1.039747E+02 -2.493708E-02 -1.024478E+02 -4.120923E+00 -5.640974E-01
       106  24  9.793407E+02  1.114253E+02  4.598682E-01 -9.023897E+01 -4.186645E+00  6.669411E-01
       106  25  9.852553E+02  8.778220E+01  7.204277E-02 -1.201598E+02 -2.699233E+00 -1.556997E+00
       106  26  9.872837E+02  9.273939E+01 -2.554867E-01 -1.060708E+02 -2.830725E+00 -2.181810E-01
       106  27  9.897862E+02  1.003106E+02  7.966442E-02 -9.353576E+01 -2.970393E+00  1.051398E+00
       107   1  9.961898E+02  8.095687E+01  3.666107E-02 -1.189463E+02  1.887678E+00  1.422313E+00
       107   2  9.958636E+02  8.584003E+01 -2.683195E-01 -1.053354E+02  2.048597E+00  8.251552E-02
       107   3  9.958760E+02  9.243363E+01 -2.527892E-01 -9.247806E+01  2.211219E+00 -1.243762E+00
       107   4  1.012896E+03  6.957708E+01  1.909596E-01 -1.123812E+02  4.946180E-01  8.164136E-01
       107   5  1.009717E+03  7.429152E+01  1.645005E-01 -9.940411E+01  6.921760E-01 -4.183936E-01
       107   6  1.006821E+03  8.077067E+01  4.337409E-01 -8.725657E+01  8.922177E-01 -1.635486E+00
       107   7  1.025753E+03  5.641774E+01 -3.124144E-01 -1.049276E+02 -8.307051E-01  1.863220E-01
       107   8  1.019260E+03  6.072034E+01 -4.285299E-01 -9.254931E+01 -5.915366E-01 -9.430136E-01
       107   9  1.012985E+03  6.684233E+01 -2.774516E-01 -8.108067E+01 -3.489159E-01 -2.050145E+00
       107  10  9.961898E+02  8.095687E+01  3.666107E-02 -1.189463E+02  1.670269E-13 -1.962566E-13
       107  11  9.958636E+02  8.584003E+01 -2.683195E-01 -1.053354E+02  4.363577E-13  3.758104E-14
       107  12  9.958760E+02  9.243363E+01 -2.527892E-01 -9.247806E+01 -4.092158E-13  1.304897E-13
       107  13  1.012896E+03  6.957708E+01  1.909596E-01 -1.123812E+02  5.177832E-13 -7.516208E-14
       107  14  1.009717E+03  7.429152E+01  1.645005E-01 -9.940411E+01 -3.006483E-13 -2.505403E-14
       107  15  1.006821E+03  8.077067E+01  4.337409E-01 -8.725657E+01 -2.839457E-13  4.384455E-14
       107  16  1.025753E+03  5.641774E+01 -3.124144E-01 -1.049276E+02  2.004322E-13  4.175671E-14
       107  17  1.019260E+03  6.072034E+01 -4.285299E-01 -9.254931E+01  2.421889E-13 -1.670269E-14
       107  18  1.012985E+03  6.684233E+01 -2.774516E-01 -8.108067E+01 -6.096480E-13 -2.140032E-14
       107  19  9.961898E+02  8.095687E+01  3.666107E-02 -1.189463E+02 -1.887678E+00 -1.422313E+00
       107  20  9.958636E+02  8.584003E+01 -2.683195E-01 -1.053354E+02 -2.048597E+00 -8.251552E-02
       107  21  9.958760E+02  9.243363E+01 -2.527892E-01 -9.247806E+01 -2.211219E+00  1.243762E+00
       107  22  1.012896E+03  6.957708E+01  1.909596E-01 -1.123812E+02 -4.946180E-01 -8.164136E-01
       107  23  1.009717E+03  7.429152E+01  1.645005E-01 -9.940411E+01 -6.921760E-01  4.183936E-01
       107  24  1.006821E+03  8.077067E+01  4.337409E-01 -8.725657E+01 -8.922177E-01  1.635486E+00
       107  25  1.025753E+03  5.641774E+01 -3.124144E-01 -1.049276E+02  8.307051E-01 -1.863220E-01
       107  26  1.019260E+03  6.072034E+01 -4.285299E-01 -9.254931E+01  5.915366E-01  9.430136E-01
       107  27  1.012985E+03  6.684233E+01 -2.774516E-01 -8.108067E+01  3.489159E-01  2.050145E+00
       108   1  9.995511E+02  6.646236E+01 -3.141314E-02 -1.514424E+02  1.764613E+00  5.226998E+00
       108   2  9.973780E+02  7.118989E+01 -3.627652E-01 -1.384957E+02  1.815320E+00  3.669225E+00
       108   3  9.954073E+02  7.731113E+01 -4.356167E-01 -1.263849E+02  1.877532E+00  2.202917E+00
       108   4  1.027185E+03  5.646482E+01  2.741965E-01 -1.423531E+02  6.172341E-04  4.436253E+00
       108   5  1.021712E+03  6.104316E+01  3.739154E-01 -1.304746E+02  1.790475E-01  2.950611E+00
       108   6  1.016331E+03  6.702882E+01  5.907355E-01 -1.195253E+02  3.715319E-01  1.565340E+00
       108   7  1.049171E+03  4.388687E+01 -4.002900E-01 -1.319745E+02 -1.701148E+00  3.618465E+00
       108   8  1.039834E+03  4.800944E+01 -3.101038E-01 -1.211201E+02 -1.384216E+00  2.202427E+00
       108   9  1.030464E+03  5.355266E+01 -2.488324E-01 -1.112930E+02 -1.050229E+00  8.961798E-01
       108  10  9.995511E+02  6.646236E+01 -3.141314E-02 -1.514424E+02 -4.332259E-13 -2.922970E-13
       108  11  9.973780E+02  7.118989E+01 -3.627652E-01 -1.384957E+02 -9.186477E-14 -3.570199E-13
       108  12  9.954073E+02  7.731113E+01 -4.356167E-01 -1.263849E+02  5.511886E-13 -3.163071E-13
       108  13  1.027185E+03  5.646482E+01  2.741965E-01 -1.423531E+02 -3.173510E-13  1.169188E-13
       108  14  1.021712E+03  6.104316E+01  3.739154E-01 -1.304746E+02  4.509725E-13 -1.169188E-13
       108  15  1.016331E+03  6.702882E+01  5.907355E-01 -1.195253E+02  5.678913E-13 -2.463646E-13
       108  16  1.049171E+03  4.388687E+01 -4.002900E-01 -1.319745E+02 -2.087836E-13  6.347020E-13
       108  17  1.039834E+03  4.800944E+01 -3.101038E-01 -1.211201E+02  8.351343E-15  1.670269E-13
       108  18  1.030464E+03  5.355266E+01 -2.488324E-01 -1.112930E+02  5.344859E-13 -8.403539E-14
       108  19  9.995511E+02  6.646236E+01 -3.141314E-02 -1.514424E+02 -1.764613E+00 -5.226998E+00
       108  20  9.973780E+02  7.118989E+01 -3.627652E-01 -1.384957E+02 -1.815320E+00 -3.669225E+00
       108  21  9.954073E+02  7.731113E+01 -4.356167E-01 -1.263849E+02 -1.877532E+00 -2.202917E+00
       108  22  1.027185E+03  5.646482E+01  2.741965E-01 -1.423531E+02 -6.172341E-04 -4.436253E+00
       108  23  1.021712E+03  6.104316E+01  3.739154E-01 -1.304746E+02 -1.790475E-01 -2.950611E+00
       108  24  1.016331E+03  6.702882E+01  5.907355E-01 -1.195253E+02 -3.715319E-01 -1.565340E+00
       108  25  1.049171E+03  4.388687E+01 -4.002900E-01 -1.319745E+02  1.701148E+00 -3.618465E+00
       108  26  1.039834E+03  4.800944E+01 -3.101038E-01 -1.211201E+02  1.384216E+00 -2.202427E+00
       108  27  1.030464E+03  5.355266E+01 -2.488324E-01 -1.112930E+02  1.050229E+00 -8.961798E-01
       109   1  1.163284E+03  8.198763E+00  6.070809E-01 -1.620613E+02 -4.026828E+00  1.414797E+01
       109   2  1.138085E+03  1.263437E+01 -5.961821E-01 -1.565232E+02 -3.817362E+00  1.165692E+01
       109   3  1.114990E+03  2.309001E+01  2.065161E-01 -1.520814E+02 -3.589961E+00  9.360758E+00
       109   4  1.194267E+03  1.004943E+01  1.827702E+00 -1.369788E+02 -6.312929E+00  1.221070E+01
       109   5  1.165427E+03  1.157334E+01  4.312435E-01 -1.317858E+02 -5.952500E+00  9.803435E+00
       109   6  1.138832E+03  1.932689E+01  1.050753E+00 -1.276541E+02 -5.577738E+00  7.591275E+00
       109   7  1.215694E+03  7.830627E+00  1.981866E+00 -1.093623E+02 -8.413069E+00  1.015192E+01
       109   8  1.183361E+03  6.412841E+00  2.920255E-01 -1.045744E+02 -7.903312E+00  7.832852E+00
       109   9  1.153409E+03  1.144066E+01  6.292798E-01 -1.008094E+02 -7.382874E+00  5.708962E+00
       109  10  1.163284E+03  8.198763E+00  6.070809E-01 -1.620613E+02  2.922970E-13  5.762426E-13
       109  11  1.138085E+03  1.263437E+01 -5.961821E-01 -1.565232E+02 -7.516208E-14  5.762426E-13
       109  12  1.114990E+03  2.309001E+01  2.065161E-01 -1.520814E+02 -1.837295E-13  5.136076E-13
       109  13  1.194267E+03  1.004943E+01  1.827702E+00 -1.369788E+02  4.843779E-13 -8.351343E-14
       109  14  1.165427E+03  1.157334E+01  4.312435E-01 -1.317858E+02 -2.004322E-13  1.002161E-13
       109  15  1.138832E+03  1.932689E+01  1.050753E+00 -1.276541E+02 -1.336215E-13  2.087836E-13
       109  16  1.215694E+03  7.830627E+00  1.981866E+00 -1.093623E+02  3.674591E-13 -7.015128E-13
       109  17  1.183361E+03  6.412841E+00  2.920255E-01 -1.045744E+02 -2.505403E-14 -4.593238E-13
       109  18  1.153409E+03  1.144066E+01  6.292798E-01 -1.008094E+02 -2.171349E-13 -1.388411E-13
       109  19  1.163284E+03  8.198763E+00  6.070809E-01 -1.620613E+02  4.026828E+00 -1.414797E+01
       109  20  1.138085E+03  1.263437E+01 -5.961821E-01 -1.565232E+02  3.817362E+00 -1.165692E+01
       109  21  1.114990E+03  2.309001E+01  2.065161E-01 -1.520814E+02  3.589961E+00 -9.360758E+00
       109  22  1.194267E+03  1.004943E+01  1.827702E+00 -1.369788E+02  6.312929E+00 -1.221070E+01
       109  23  1.165427E+03  1.157334E+01  4.312435E-01 -1.317858E+02  5.952500E+00 -9.803435E+00
       109  24  1.138832E+03  1.932689E+01  1.050753E+00 -1.276541E+02  5.577738E+00 -7.591275E+00
       109  25  1.215694E+03  7.830627E+00  1.981866E+00 -1.093623E+02  8.413069E+00 -1.015192E+01
       109  26  1.183361E+03  6.412841E+00  2.920255E-01 -1.045744E+02  7.903312E+00 -7.832852E+00
       109  27  1.153409E+03  1.144066E+01  6.292798E-01 -1.008094E+02  7.382874E+00 -5.708962E+00
       110   1  1.103046E+03  2.604246E+01  1.902155E-02 -1.472484E+02 -3.551615E+00  8.156394E+00
       110   2  1.084935E+03  2.852001E+01 -7.065168E-01 -1.368990E+02 -3.201037E+00  6.060371E+00
       110   3  1.068130E+03  3.521874E+01 -3.084853E-01 -1.276679E+02 -2.831389E+00  4.171415E+00
       110   4  1.125369E+03  2.165901E+01  1.161721E+00 -1.234658E+02 -5.474600E+00  6.462835E+00
       110   5  1.103710E+03  2.265812E+01  4.582348E-01 -1.141190E+02 -4.942161E+00  4.477906E+00
       110   6  1.083428E+03  2.795771E+01  7.938703E-01 -1.058452E+02 -4.394536E+00  2.699596E+00
       110   7  1.136800E+03  1.219817E+01  1.709798E-01 -9.690212E+01 -7.168936E+00  4.630274E+00
       110   8  1.111759E+03  1.173277E+01 -6.398455E-01 -8.864002E+01 -6.457013E+00  2.761592E+00
       110   9  1.088162E+03  1.564725E+01 -4.976945E-01 -8.140135E+01 -5.733815E+00  1.098877E+00
       110  10  1.103046E+03  2.604246E+01  1.902155E-02 -1.472484E+02  5.052562E-13 -1.670269E-13
       110  11  1.084935E+03  2.852001E+01 -7.065168E-01 -1.368990E+02 -2.881213E-13 -3.507564E-13
       110  12  1.068130E+03  3.521874E+01 -3.084853E-01 -1.276679E+02 -3.758104E-13 -1.576316E-13
       110  13  1.125369E+03  2.165901E+01  1.161721E+00 -1.234658E+02 -1.336215E-13 -6.681074E-14
       110  14  1.103710E+03  2.265812E+01  4.582348E-01 -1.141190E+02 -9.854584E-13 -1.336215E-13
       110  15  1.083428E+03  2.795771E+01  7.938703E-01 -1.058452E+02 -2.171349E-13  1.503242E-13
       110  16  1.136800E+03  1.219817E+01  1.709798E-01 -9.690212E+01 -3.424051E-13 -2.254863E-13
       110  17  1.111759E+03  1.173277E+01 -6.398455E-01 -8.864002E+01 -2.588916E-13 -1.586755E-13
       110  18  1.088162E+03  1.564725E+01 -4.976945E-01 -8.140135E+01  4.175671E-15  2.724626E-13
       110  19  1.103046E+03  2.604246E+01  1.902155E-02 -1.472484E+02  3.551615E+00 -8.156394E+00
       110  20  1.084935E+03  2.852001E+01 -7.065168E-01 -1.368990E+02  3.201037E+00 -6.060371E+00
       110  21  1.068130E+03  3.521874E+01 -3.084853E-01 -1.276679E+02  2.831389E+00 -4.171415E+00
       110  22  1.125369E+03  2.165901E+01  1.161721E+00 -1.234658E+02  5.474600E+00 -6.462835E+00
       110  23  1.103710E+03  2.265812E+01  4.582348E-01 -1.141190E+02  4.942161E+00 -4.477906E+00
       110  24  1.083428E+03  2.795771E+01  7.938703E-01 -1.058452E+02  4.394536E+00 -2.699596E+00
       110  25  1.136800E+03  1.219817E+01  1.709798E-01 -9.690212E+01  7.168936E+00 -4.630274E+00
       110  26  1.111759E+03  1.173277E+01 -6.398455E-01 -8.864002E+01  6.457013E+00 -2.761592E+00
       110  27  1.088162E+03  1.564725E+01 -4.976945E-01 -8.140135E+01  5.733815E+00 -1.098877E+00
       111   1  1.139570E+03  6.531024E+00 -4.249482E-01 -7.867936E+01 -8.035571E+00  3.669982E+00
       111   2  1.113054E+03  6.337500E+00 -8.992163E-01 -7.114859E+01 -7.220077E+00  1.939032E+00
       111   3  1.087393E+03  9.143752E+00 -1.083524E+00 -6.472077E+01 -6.396090E+00  4.021733E-01
       111   4  1.138624E+03  6.397355E+00  1.491320E+00 -4.657122E+01 -9.042272E+00  1.885743E+00
       111   5  1.108999E+03  5.731428E+00  7.123703E-01 -4.185083E+01 -8.050734E+00  7.373538E-01
       111   6  1.080267E+03  8.076707E+00  1.167851E-01 -3.812598E+01 -7.054847E+00 -2.354268E-01
       111   7  1.120600E+03 -1.822936E+00 -1.916828E+00 -1.054659E+01 -9.346978E+00 -3.252481E-01
       111   8  1.088019E+03 -3.063303E+00 -3.606978E+00 -8.800206E+00 -8.200161E+00 -8.672776E-01
       111   9  1.056351E+03 -1.288351E+00 -5.227434E+00 -7.932392E+00 -7.052472E+00 -1.253664E+00
       111  10  1.139570E+03  6.531024E+00 -4.249482E-01 -7.867936E+01 -2.046079E-13  1.503242E-13
       111  11  1.113054E+03  6.337500E+00 -8.992163E-01 -7.114859E+01 -1.586755E-13  2.797700E-13
       111  12  1.087393E+03  9.143752E+00 -1.083524E+00 -6.472077E+01  4.718509E-13  3.413611E-13
       111  13  1.138624E+03  6.397355E+00  1.491320E+00 -4.657122E+01 -3.006483E-13  0.000000E+00
       111  14  1.108999E+03  5.731428E+00  7.123703E-01 -4.185083E+01  2.338376E-13 -1.085675E-13
       111  15  1.080267E+03  8.076707E+00  1.167851E-01 -3.812598E+01  3.841618E-13 -1.920809E-13
       111  16  1.120600E+03 -1.822936E+00 -1.916828E+00 -1.054659E+01 -2.672430E-13 -8.351343E-14
       111  17  1.088019E+03 -3.063303E+00 -3.606978E+00 -8.800206E+00  8.351343E-14 -4.259185E-13
       111  18  1.056351E+03 -1.288351E+00 -5.227434E+00 -7.932392E+00  4.217428E-13 -7.516208E-13
       111  19  1.139570E+03  6.531024E+00 -4.249482E-01 -7.867936E+01  8.035571E+00 -3.669982E+00
       111  20  1.113054E+03  6.337500E+00 -8.992163E-01 -7.114859E+01  7.220077E+00 -1.939032E+00
       111  21  1.087393E+03  9.143752E+00 -1.083524E+00 -6.472077E+01  6.396090E+00 -4.021733E-01
       111  22  1.138624E+03  6.397355E+00  1.491320E+00 -4.657122E+01  9.042272E+00 -1.885743E+00
       111  23  1.108999E+03  5.731428E+00  7.123703E-01 -4.185083E+01  8.050734E+00 -7.373538E-01
       111  24  1.080267E+03  8.076707E+00  1.167851E-01 -3.812598E+01  7.054847E+00  2.354268E-01
       111  25  1.120600E+03 -1.822936E+00 -1.916828E+00 -1.054659E+01  9.346978E+00  3.252481E-01
       111  26  1.088019E+03 -3.063303E+00 -3.606978E+00 -8.800206E+00  8.200161E+00  8.672776E-01
       111  27  1.056351E+03 -1.288351E+00 -5.227434E+00 -7.932392E+00  7.052472E+00  1.253664E+00
       112   1  1.224071E+03  3.228572E+00  1.186243E+00 -9.041775E+01 -9.556939E+00  8.954113E+00
       112   2  1.190052E+03  2.327177E+00  4.831507E-02 -8.534156E+01 -8.957683E+00  6.729350E+00
       112   3  1.157718E+03  6.483762E+00  2.558209E-01 -8.226713E+01 -8.349701E+00  4.704037E+00
       112   4  1.235171E+03  5.152744E+00  4.710344E+00 -5.400167E+01 -1.104892E+01  5.381811E+00
       112   5  1.196085E+03  3.640319E+00  2.971317E+00 -5.061216E+01 -1.028263E+01  3.893629E+00
       112   6  1.158799E+03  7.249656E+00  2.530624E+00 -4.916104E+01 -9.512039E+00  2.579349E+00
       112   7  1.230131E+03 -1.108490E+00  4.940205E+00 -1.300838E+01 -1.169600E+01  1.257394E+00
       112   8  1.186008E+03 -3.374475E+00  1.868743E+00 -1.146727E+01 -1.078941E+01  5.381698E-01
       112   9  1.143786E+03 -4.614380E-01  4.300053E-02 -1.179256E+01 -9.882008E+00 -3.483715E-02
       112  10  1.224071E+03  3.228572E+00  1.186243E+00 -9.041775E+01  2.922970E-13 -2.588916E-13
       112  11  1.190052E+03  2.327177E+00  4.831507E-02 -8.534156E+01  5.010806E-14 -2.046079E-13
       112  12  1.157718E+03  6.483762E+00  2.558209E-01 -8.226713E+01 -6.263507E-14 -3.862496E-14
       112  13  1.235171E+03  5.152744E+00  4.710344E+00 -5.400167E+01  1.503242E-13 -1.169188E-13
       112  14  1.196085E+03  3.640319E+00  2.971317E+00 -5.061216E+01  1.837295E-13 -1.419728E-13
       112  15  1.158799E+03  7.249656E+00  2.530624E+00 -4.916104E+01  2.004322E-13 -5.428373E-14
       112  16  1.230131E+03 -1.108490E+00  4.940205E+00 -1.300838E+01 -2.588916E-13 -1.670269E-14
       112  17  1.186008E+03 -3.374475E+00  1.868743E+00 -1.146727E+01  5.010806E-14 -1.127431E-13
       112  18  1.143786E+03 -4.614380E-01  4.300053E-02 -1.179256E+01  4.175671E-14 -1.002161E-13
       112  19  1.224071E+03  3.228572E+00  1.186243E+00 -9.041775E+01  9.556939E+00 -8.954113E+00
       112  20  1.190052E+03  2.327177E+00  4.831507E-02 -8.534156E+01  8.957683E+00 -6.729350E+00
       112  21  1.157718E+03  6.483762E+00  2.558209E-01 -8.226713E+01  8.349701E+00 -4.704037E+00
       112  22  1.235171E+03  5.152744E+00  4.710344E+00 -5.400167E+01  1.104892E+01 -5.381811E+00
       112  23  1.196085E+03  3.640319E+00  2.971317E+00 -5.061216E+01  1.028263E+01 -3.893629E+00
       112  24  1.158799E+03  7.249656E+00  2.530624E+00 -4.916104E+01  9.512039E+00 -2.579349E+00
       112  25  1.230131E+03 -1.108490E+00  4.940205E+00 -1.300838E+01  1.169600E+01 -1.257394E+00
       112  26  1.186008E+03 -3.374475E+00  1.868743E+00 -1.146727E+01  1.078941E+01 -5.381698E-01
       112  27  1.143786E+03 -4.614380E-01  4.300053E-02 -1.179256E+01  9.882008E+00  3.483715E-02
       113   1  4.257533E+02  3.618318E+01  1.381013E+00 -3.414325E+01  3.622176E+01  2.829300E+00
       113   2  5.069467E+02  7.193266E+01 -3.920622E-01 -2.535284E+01  3.001069E+01  1.492794E+00
       113   3  5.878627E+02  1.018869E+02  2.920524E+00 -2.170141E+01  2.380480E+01  1.221701E+00
       113   4  4.871054E+02  3.593865E+01 -6.270415E-02 -9.972281E+01  3.190558E+01  8.888514E+00
       113   5  5.535162E+02  6.821145E+01 -2.331692E+00 -8.357711E+01  2.680077E+01  6.330725E+00
       113   6  6.184361E+02  9.348724E+01 -1.633308E+00 -7.244247E+01  2.171919E+01  4.833532E+00
       113   7  5.703310E+02  4.412527E+01  2.949435E+00 -1.684783E+02  2.683542E+01  1.523496E+01
       113   8  6.229892E+02  7.371927E+01  1.594447E+00 -1.450235E+02  2.283789E+01  1.144519E+01
       113   9  6.729523E+02  9.511510E+01  1.091446E+00 -1.264501E+02  1.888220E+01  8.710661E+00
       113  10  4.257533E+02  3.618318E+01  1.381013E+00 -3.414325E+01 -4.593238E-14  3.669371E-13
       113  11  5.069467E+02  7.193266E+01 -3.920622E-01 -2.535284E+01  1.544998E-13 -3.314439E-14
       113  12  5.878627E+02  1.018869E+02  2.920524E+00 -2.170141E+01 -1.732904E-13 -3.280512E-13
       113  13  4.871054E+02  3.593865E+01 -6.270415E-02 -9.972281E+01 -3.340537E-13  1.137870E-13
       113  14  5.535162E+02  6.821145E+01 -2.331692E+00 -8.357711E+01 -5.470129E-13  4.749826E-14
       113  15  6.184361E+02  9.348724E+01 -1.633308E+00 -7.244247E+01 -1.795539E-13  7.620600E-14
       113  16  5.703310E+02  4.412527E+01  2.949435E+00 -1.684783E+02 -3.194389E-13 -2.521062E-13
       113  17  6.229892E+02  7.371927E+01  1.594447E+00 -1.450235E+02 -2.568038E-13 -7.829384E-16
       113  18  6.729523E+02  9.511510E+01  1.091446E+00 -1.264501E+02  2.233984E-13  3.579333E-13
       113  19  4.257533E+02  3.618318E+01  1.381013E+00 -3.414325E+01 -3.622176E+01 -2.829300E+00
       113  20  5.069467E+02  7.193266E+01 -3.920622E-01 -2.535284E+01 -3.001069E+01 -1.492794E+00
       113  21  5.878627E+02  1.018869E+02  2.920524E+00 -2.170141E+01 -2.380480E+01 -1.221701E+00
       113  22  4.871054E+02  3.593865E+01 -6.270415E-02 -9.972281E+01 -3.190558E+01 -8.888514E+00
       113  23  5.535162E+02  6.821145E+01 -2.331692E+00 -8.357711E+01 -2.680077E+01 -6.330725E+00
       113  24  6.184361E+02  9.348724E+01 -1.633308E+00 -7.244247E+01 -2.171919E+01 -4.833532E+00
       113  25  5.703310E+02  4.412527E+01  2.949435E+00 -1.684783E+02 -2.683542E+01 -1.523496E+01
       113  26  6.229892E+02  7.371927E+01  1.594447E+00 -1.450235E+02 -2.283789E+01 -1.144519E+01
       113  27  6.729523E+02  9.511510E+01  1.091446E+00 -1.264501E+02 -1.888220E+01 -8.710661E+00
       114   1  6.227811E+02  1.108530E+02  1.750963E+00 -1.948745E+01  2.091387E+01  1.183238E+00
       114   2  6.782680E+02  1.216151E+02  5.211941E-02 -1.530578E+01  1.785179E+01  6.274918E-01
       114   3  7.343028E+02  1.311298E+02  1.549282E+00 -1.400811E+01  1.479174E+01  4.850572E-01
       114   4  6.553844E+02  1.049555E+02  9.504958E-02 -6.749324E+01  1.910309E+01  4.324661E+00
       114   5  7.033522E+02  1.156342E+02 -1.641602E+00 -5.771510E+01  1.646238E+01  3.164407E+00
       114   6  7.513953E+02  1.246938E+02 -9.853527E-01 -5.070443E+01  1.383059E+01  2.410567E+00
       114   7  7.015614E+02  1.036391E+02  1.362842E+00 -1.165886E+02  1.688873E+01  7.605153E+00
       114   8  7.426698E+02  1.146926E+02  4.016145E-01 -1.011838E+02  1.466494E+01  5.835771E+00
       114   9  7.833917E+02  1.237612E+02  1.035194E+00 -8.842561E+01  1.245700E+01  4.465531E+00
       114  10  6.227811E+02  1.108530E+02  1.750963E+00 -1.948745E+01  5.637156E-13 -6.681074E-13
       114  11  6.782680E+02  1.216151E+02  5.211941E-02 -1.530578E+01  2.171349E-13 -5.848550E-13
       114  12  7.343028E+02  1.311298E+02  1.549282E+00 -1.400811E+01 -3.507564E-13 -3.591730E-13
       114  13  6.553844E+02  1.049555E+02  9.504958E-02 -6.749324E+01  3.340537E-14 -1.691147E-13
       114  14  7.033522E+02  1.156342E+02 -1.641602E+00 -5.771510E+01 -4.927292E-13 -1.774660E-13
       114  15  7.513953E+02  1.246938E+02 -9.853527E-01 -5.070443E+01 -3.340537E-13 -7.829384E-15
       114  16  7.015614E+02  1.036391E+02  1.362842E+00 -1.165886E+02  3.298780E-13  3.854667E-13
       114  17  7.426698E+02  1.146926E+02  4.016145E-01 -1.011838E+02  1.085675E-13  2.676344E-13
       114  18  7.833917E+02  1.237612E+02  1.035194E+00 -8.842561E+01  1.670269E-14  3.543122E-13
       114  19  6.227811E+02  1.108530E+02  1.750963E+00 -1.948745E+01 -2.091387E+01 -1.183238E+00
       114  20  6.782680E+02  1.216151E+02  5.211941E-02 -1.530578E+01 -1.785179E+01 -6.274918E-01
       114  21  7.343028E+02  1.311298E+02  1.549282E+00 -1.400811E+01 -1.479174E+01 -4.850572E-01
       114  22  6.553844E+02  1.049555E+02  9.504958E-02 -6.749324E+01 -1.910309E+01 -4.324661E+00
       114  23  7.033522E+02  1.156342E+02 -1.641602E+00 -5.771510E+01 -1.646238E+01 -3.164407E+00
       114  24  7.513953E+02  1.246938E+02 -9.853527E-01 -5.070443E+01 -1.383059E+01 -2.410567E+00
       114  25  7.015614E+02  1.036391E+02  1.362842E+00 -1.165886E+02 -1.688873E+01 -7.605153E+00
       114  26  7.426698E+02  1.146926E+02  4.016145E-01 -1.011838E+02 -1.466494E+01 -5.835771E+00
       114  27  7.833917E+02  1.237612E+02  1.035194E+00 -8.842561E+01 -1.245700E+01 -4.465531E+00
       115   1  7.314605E+02  9.477568E+01 -3.203819E-01 -1.366970E+02  1.539296E+01  8.363225E+00
       115   2  7.683241E+02  1.072753E+02 -3.664758E-01 -1.195476E+02  1.341923E+01  6.451041E+00
       115   3  8.043209E+02  1.174288E+02  6.109353E-01 -1.060359E+02  1.146560E+01  4.937989E+00
       115   4  7.885226E+02  8.401249E+01 -2.727546E-01 -1.606811E+02  1.278042E+01  9.556873E+00
       115   5  8.155411E+02  9.701430E+01 -1.173542E-01 -1.423847E+02  1.124559E+01  7.460663E+00
       115   6  8.411558E+02  1.073241E+02  2.509018E-01 -1.278159E+02  9.739082E+00  5.773207E+00
       115   7  8.471757E+02  7.303873E+01 -1.050345E-01 -1.840720E+02  1.009917E+01  1.077420E+01
       115   8  8.640522E+02  8.643599E+01  1.362739E-01 -1.645725E+02  9.014404E+00  8.489249E+00
       115   9  8.789688E+02  9.678987E+01 -2.276233E-01 -1.488911E+02  7.966870E+00  6.622763E+00
       115  10  7.314605E+02  9.477568E+01 -3.203819E-01 -1.366970E+02  1.837295E-13  1.659829E-13
       115  11  7.683241E+02  1.072753E+02 -3.664758E-01 -1.195476E+02  2.129592E-13  7.985971E-14
       115  12  8.043209E+02  1.174288E+02  6.109353E-01 -1.060359E+02 -2.380133E-13 -8.260000E-14
       115  13  7.885226E+02  8.401249E+01 -2.727546E-01 -1.606811E+02 -1.419728E-13  3.340537E-14
       115  14  8.155411E+02  9.701430E+01 -1.173542E-01 -1.423847E+02 -1.336215E-13  6.681074E-14
       115  15  8.411558E+02  1.073241E+02  2.509018E-01 -1.278159E+02 -2.505403E-13  8.194755E-14
       115  16  8.471757E+02  7.303873E+01 -1.050345E-01 -1.840720E+02 -1.670269E-14 -2.338376E-13
       115  17  8.640522E+02  8.643599E+01  1.362739E-01 -1.645725E+02 -5.845940E-14 -3.966888E-14
       115  18  8.789688E+02  9.678987E+01 -2.276233E-01 -1.488911E+02  5.010806E-14  1.957346E-13
       115  19  7.314605E+02  9.477568E+01 -3.203819E-01 -1.366970E+02 -1.539296E+01 -8.363225E+00
       115  20  7.683241E+02  1.072753E+02 -3.664758E-01 -1.195476E+02 -1.341923E+01 -6.451041E+00
       115  21  8.043209E+02  1.174288E+02  6.109353E-01 -1.060359E+02 -1.146560E+01 -4.937989E+00
       115  22  7.885226E+02  8.401249E+01 -2.727546E-01 -1.606811E+02 -1.278042E+01 -9.556873E+00
       115  23  8.155411E+02  9.701430E+01 -1.173542E-01 -1.423847E+02 -1.124559E+01 -7.460663E+00
       115  24  8.411558E+02  1.073241E+02  2.509018E-01 -1.278159E+02 -9.739082E+00 -5.773207E+00
       115  25  8.471757E+02  7.303873E+01 -1.050345E-01 -1.840720E+02 -1.009917E+01 -1.077420E+01
       115  26  8.640522E+02  8.643599E+01  1.362739E-01 -1.645725E+02 -9.014404E+00 -8.489249E+00
       115  27  8.789688E+02  9.678987E+01 -2.276233E-01 -1.488911E+02 -7.966870E+00 -6.622763E+00
       116   1  6.215244E+02  3.003519E+01 -1.578426E+00 -1.951441E+02  2.362049E+01  1.607505E+01
       116   2  6.667918E+02  6.112648E+01 -1.127669E+00 -1.690098E+02  2.024380E+01  1.243974E+01
       116   3  7.098903E+02  8.643017E+01  3.169307E-01 -1.485647E+02  1.690951E+01  9.646972E+00
       116   4  7.202888E+02  1.977332E+01 -1.070447E+00 -2.177923E+02  1.849959E+01  1.748727E+01
       116   5  7.494667E+02  5.122467E+01  3.007271E-01 -1.923153E+02  1.608922E+01  1.378172E+01
       116   6  7.754052E+02  7.605947E+01  9.493940E-01 -1.727440E+02  1.373937E+01  1.095016E+01
       116   7  8.162371E+02  7.419998E+00 -1.469222E+00 -2.391753E+02  1.357979E+01  1.882285E+01
       116   8  8.283916E+02  3.875572E+01  2.363772E-02 -2.142977E+02  1.217252E+01  1.503632E+01
       116   9  8.361971E+02  6.263127E+01 -9.385650E-01 -1.955461E+02  1.084585E+01  1.215570E+01
       116  10  6.215244E+02  3.003519E+01 -1.578426E+00 -1.951441E+02 -1.607633E-13 -1.002161E-13
       116  11  6.667918E+02  6.112648E+01 -1.127669E+00 -1.690098E+02  2.651551E-13  1.837295E-13
       116  12  7.098903E+02  8.643017E+01  3.169307E-01 -1.485647E+02  1.461485E-13  2.588916E-13
       116  13  7.202888E+02  1.977332E+01 -1.070447E+00 -2.177923E+02  4.843779E-13 -1.670269E-14
       116  14  7.494667E+02  5.122467E+01  3.007271E-01 -1.923153E+02  1.503242E-13  4.593238E-14
       116  15  7.754052E+02  7.605947E+01  9.493940E-01 -1.727440E+02  2.505403E-13  1.618073E-14
       116  16  8.162371E+02  7.419998E+00 -1.469222E+00 -2.391753E+02  8.768910E-14  6.472291E-14
       116  17  8.283916E+02  3.875572E+01  2.363772E-02 -2.142977E+02  1.670269E-13  5.115197E-14
       116  18  8.361971E+02  6.263127E+01 -9.385650E-01 -1.955461E+02 -6.681074E-14 -7.385719E-14
       116  19  6.215244E+02  3.003519E+01 -1.578426E+00 -1.951441E+02 -2.362049E+01 -1.607505E+01
       116  20  6.667918E+02  6.112648E+01 -1.127669E+00 -1.690098E+02 -2.024380E+01 -1.243974E+01
       116  21  7.098903E+02  8.643017E+01  3.169307E-01 -1.485647E+02 -1.690951E+01 -9.646972E+00
       116  22  7.202888E+02  1.977332E+01 -1.070447E+00 -2.177923E+02 -1.849959E+01 -1.748727E+01
       116  23  7.494667E+02  5.122467E+01  3.007271E-01 -1.923153E+02 -1.608922E+01 -1.378172E+01
       116  24  7.754052E+02  7.605947E+01  9.493940E-01 -1.727440E+02 -1.373937E+01 -1.095016E+01
       116  25  8.162371E+02  7.419998E+00 -1.469222E+00 -2.391753E+02 -1.357979E+01 -1.882285E+01
       116  26  8.283916E+02  3.875572E+01  2.363772E-02 -2.142977E+02 -1.217252E+01 -1.503632E+01
       116  27  8.361971E+02  6.263127E+01 -9.385650E-01 -1.955461E+02 -1.084585E+01 -1.215570E+01
       117   1  1.259486E+03  1.070721E+00  7.751288E+00 -1.446945E+01 -1.188262E+01  1.524512E+00
       117   2  1.308921E+03 -4.484802E+00  9.156558E+00 -1.270491E+01 -1.238766E+01  2.195702E+00
       117   3  1.362169E+03 -5.478786E-01  1.405742E+01 -1.361902E+01 -1.289141E+01  2.976684E+00
       117   4  1.260165E+03  6.371228E+00  6.141916E+00 -5.544037E+01 -1.112651E+01  6.069019E+00
       117   5  1.305148E+03  4.369508E-01  6.388154E+00 -5.275916E+01 -1.153661E+01  7.529932E+00
       117   6  1.353370E+03  3.366489E+00  9.788662E+00 -5.269825E+01 -1.193756E+01  9.169351E+00
       117   7  1.247705E+03  3.555329E+00  2.520458E+00 -9.175647E+01 -9.543340E+00  1.005731E+01
       117   8  1.288170E+03 -2.795587E+00  2.117745E+00 -8.795724E+01 -9.806543E+00  1.222943E+01
       117   9  1.331313E+03 -8.888810E-01  4.539309E+00 -8.670680E+01 -1.004874E+01  1.463593E+01
       117  10  1.259486E+03  1.070721E+00  7.751288E+00 -1.446945E+01 -1.837295E-13  2.588916E-13
       117  11  1.308921E+03 -4.484802E+00  9.156558E+00 -1.270491E+01 -1.002161E-13 -1.795539E-13
       117  12  1.362169E+03 -5.478786E-01  1.405742E+01 -1.361902E+01  0.000000E+00 -3.904253E-13
       117  13  1.260165E+03  6.371228E+00  6.141916E+00 -5.544037E+01 -5.010806E-13  2.338376E-13
       117  14  1.305148E+03  4.369508E-01  6.388154E+00 -5.275916E+01 -1.670269E-14 -3.340537E-14
       117  15  1.353370E+03  3.366489E+00  9.788662E+00 -5.269825E+01  4.509725E-13 -1.169188E-13
       117  16  1.247705E+03  3.555329E+00  2.520458E+00 -9.175647E+01 -5.094319E-13  1.419728E-13
       117  17  1.288170E+03 -2.795587E+00  2.117745E+00 -8.795724E+01 -1.670269E-14  3.758104E-14
       117  18  1.331313E+03 -8.888810E-01  4.539309E+00 -8.670680E+01  1.670269E-13  3.131754E-14
       117  19  1.259486E+03  1.070721E+00  7.751288E+00 -1.446945E+01  1.188262E+01 -1.524512E+00
       117  20  1.308921E+03 -4.484802E+00  9.156558E+00 -1.270491E+01  1.238766E+01 -2.195702E+00
       117  21  1.362169E+03 -5.478786E-01  1.405742E+01 -1.361902E+01  1.289141E+01 -2.976684E+00
       117  22  1.260165E+03  6.371228E+00  6.141916E+00 -5.544037E+01  1.112651E+01 -6.069019E+00
       117  23  1.305148E+03  4.369508E-01  6.388154E+00 -5.275916E+01  1.153661E+01 -7.529932E+00
       117  24  1.353370E+03  3.366489E+00  9.788662E+00 -5.269825E+01  1.193756E+01 -9.169351E+00
       117  25  1.247705E+03  3.555329E+00  2.520458E+00 -9.175647E+01  9.543340E+00 -1.005731E+01
       117  26  1.288170E+03 -2.795587E+00  2.117745E+00 -8.795724E+01  9.806543E+00 -1.222943E+01
       117  27  1.331313E+03 -8.888810E-01  4.539309E+00 -8.670680E+01  1.004874E+01 -1.463593E+01
       118   1  1.396385E+03  4.207360E+00  1.852854E+01 -1.523781E+01 -1.254837E+01  3.121626E+00
       118   2  1.445966E+03 -3.640071E+00  1.909593E+01 -1.177287E+01 -1.208667E+01  3.718906E+00
       118   3  1.501706E+03  2.844487E+00  2.625058E+01 -1.207265E+01 -1.162516E+01  4.300755E+00
       118   4  1.381457E+03  4.486227E+00  1.159579E+01 -5.155798E+01 -1.131294E+01  9.574027E+00
       118   5  1.426597E+03 -4.247501E+00  1.112578E+01 -4.390450E+01 -1.084276E+01  1.087733E+01
       118   6  1.477002E+03  2.123699E-01  1.658943E+01 -3.960826E+01 -1.036942E+01  1.224204E+01
       118   7  1.359762E+03 -1.583476E+00  6.416193E+00 -8.389985E+01 -9.375920E+00  1.545752E+01
       118   8  1.400852E+03 -1.113895E+01  5.328719E+00 -7.209731E+01 -8.849982E+00  1.738068E+01
       118   9  1.446420E+03 -8.542848E+00  9.582049E+00 -6.328740E+01 -8.313094E+00  1.942601E+01
       118  10  1.396385E+03  4.207360E+00  1.852854E+01 -1.523781E+01 -1.377972E-13 -7.516208E-14
       118  11  1.445966E+03 -3.640071E+00  1.909593E+01 -1.177287E+01 -5.845940E-14  2.505403E-14
       118  12  1.501706E+03  2.844487E+00  2.625058E+01 -1.207265E+01  5.595400E-13 -3.131754E-13
       118  13  1.381457E+03  4.486227E+00  1.159579E+01 -5.155798E+01 -2.171349E-13  0.000000E+00
       118  14  1.426597E+03 -4.247501E+00  1.112578E+01 -4.390450E+01 -2.505403E-13 -1.670269E-14
       118  15  1.477002E+03  2.123699E-01  1.658943E+01 -3.960826E+01  4.175671E-13 -2.714186E-13
       118  16  1.359762E+03 -1.583476E+00  6.416193E+00 -8.389985E+01 -1.002161E-13  2.922970E-13
       118  17  1.400852E+03 -1.113895E+01  5.328719E+00 -7.209731E+01 -1.586755E-13  1.169188E-13
       118  18  1.446420E+03 -8.542848E+00  9.582049E+00 -6.328740E+01  3.006483E-13 -3.142193E-13
       118  19  1.396385E+03  4.207360E+00  1.852854E+01 -1.523781E+01  1.254837E+01 -3.121626E+00
       118  20  1.445966E+03 -3.640071E+00  1.909593E+01 -1.177287E+01  1.208667E+01 -3.718906E+00
       118  21  1.501706E+03  2.844487E+00  2.625058E+01 -1.207265E+01  1.162516E+01 -4.300755E+00
       118  22  1.381457E+03  4.486227E+00  1.159579E+01 -5.155798E+01  1.131294E+01 -9.574027E+00
       118  23  1.426597E+03 -4.247501E+00  1.112578E+01 -4.390450E+01  1.084276E+01 -1.087733E+01
       118  24  1.477002E+03  2.123699E-01  1.658943E+01 -3.960826E+01  1.036942E+01 -1.224204E+01
       118  25  1.359762E+03 -1.583476E+00  6.416193E+00 -8.389985E+01  9.375920E+00 -1.545752E+01
       118  26  1.400852E+03 -1.113895E+01  5.328719E+00 -7.209731E+01  8.849982E+00 -1.738068E+01
       118  27  1.446420E+03 -8.542848E+00  9.582049E+00 -6.328740E+01  8.313094E+00 -1.942601E+01
       119   1  1.345661E+03 -1.789504E+00  6.351106E+00 -9.829573E+01 -8.098952E+00  1.719786E+01
       119   2  1.383438E+03 -1.654747E+01  3.306422E+00 -8.593634E+01 -7.641309E+00  1.923090E+01
       119   3  1.428788E+03 -1.314751E+01  8.213684E+00 -7.389156E+01 -7.216611E+00  2.096827E+01
       119   4  1.315464E+03 -1.482947E+01  2.891793E+00 -1.184653E+02 -6.074993E+00  1.922638E+01
       119   5  1.354850E+03 -3.168986E+01  4.834394E-01 -9.915568E+01 -5.934086E+00  2.108351E+01
       119   6  1.400951E+03 -3.212802E+01  4.879534E+00 -7.979997E+01 -5.836457E+00  2.264830E+01
       119   7  1.288112E+03 -2.940456E+01  2.625794E+00 -1.377794E+02 -4.285457E+00  2.144497E+01
       119   8  1.329438E+03 -4.814778E+01  6.412101E-01 -1.118848E+02 -4.462586E+00  2.314232E+01
       119   9  1.376724E+03 -5.203571E+01  4.395496E+00 -8.564702E+01 -4.692570E+00  2.455186E+01
       119  10  1.345661E+03 -1.789504E+00  6.351106E+00 -9.829573E+01 -7.464013E-14  0.000000E+00
       119  11  1.383438E+03 -1.654747E+01  3.306422E+00 -8.593634E+01 -2.714186E-14  6.263507E-14
       119  12  1.428788E+03 -1.314751E+01  8.213684E+00 -7.389156E+01  7.516208E-14  9.082085E-14
       119  13  1.315464E+03 -1.482947E+01  2.891793E+00 -1.184653E+02  5.010806E-14 -1.670269E-14
       119  14  1.354850E+03 -3.168986E+01  4.834394E-01 -9.915568E+01  1.336215E-13 -3.340537E-14
       119  15  1.400951E+03 -3.212802E+01  4.879534E+00 -7.979997E+01  2.004322E-13 -2.087836E-14
       119  16  1.288112E+03 -2.940456E+01  2.625794E+00 -1.377794E+02  1.670269E-14 -5.845940E-14
       119  17  1.329438E+03 -4.814778E+01  6.412101E-01 -1.118848E+02  9.186477E-14  7.933776E-14
       119  18  1.376724E+03 -5.203571E+01  4.395496E+00 -8.564702E+01 -4.175671E-14  1.670269E-14
       119  19  1.345661E+03 -1.789504E+00  6.351106E+00 -9.829573E+01  8.098952E+00 -1.719786E+01
       119  20  1.383438E+03 -1.654747E+01  3.306422E+00 -8.593634E+01  7.641309E+00 -1.923090E+01
       119  21  1.428788E+03 -1.314751E+01  8.213684E+00 -7.389156E+01  7.216611E+00 -2.096827E+01
       119  22  1.315464E+03 -1.482947E+01  2.891793E+00 -1.184653E+02  6.074993E+00 -1.922638E+01
       119  23  1.354850E+03 -3.168986E+01  4.834394E-01 -9.915568E+01  5.934086E+00 -2.108351E+01
       119  24  1.400951E+03 -3.212802E+01  4.879534E+00 -7.979997E+01  5.836457E+00 -2.264830E+01
       119  25  1.288112E+03 -2.940456E+01  2.625794E+00 -1.377794E+02  4.285457E+00 -2.144497E+01
       119  26  1.329438E+03 -4.814778E+01  6.412101E-01 -1.118848E+02  4.462586E+00 -2.314232E+01
       119  27  1.376724E+03 -5.203571E+01  4.395496E+00 -8.564702E+01  4.692570E+00 -2.455186E+01
       120   1  1.237318E+03  6.374278E+00  2.672025E+00 -1.104540E+02 -8.339244E+00  1.138365E+01
       120   2  1.275717E+03 -2.581404E+00  1.598377E+00 -1.064186E+02 -8.563882E+00  1.383211E+01
       120   3  1.319009E+03  5.115138E-01  5.107232E+00 -1.023207E+02 -8.784948E+00  1.631261E+01
       120   4  1.212176E+03  5.985969E+00  1.523045E+00 -1.373326E+02 -6.133381E+00  1.342383E+01
       120   5  1.250235E+03 -7.280310E+00  3.443262E-01 -1.313969E+02 -6.423059E+00  1.590584E+01
       120   6  1.292461E+03 -9.849060E+00  2.955058E+00 -1.254506E+02 -6.707342E+00  1.842422E+01
       120   7  1.182073E+03  3.318305E+00  1.245169E+00 -1.624354E+02 -3.896455E+00  1.544312E+01
       120   8  1.219609E+03 -1.403907E+01 -8.565347E-02 -1.546426E+02 -4.247561E+00  1.795452E+01
       120   9  1.260623E+03 -2.193416E+01  1.625380E+00 -1.468907E+02 -4.591296E+00  2.050596E+01
       120  10  1.237318E+03  6.374278E+00  2.672025E+00 -1.104540E+02 -2.458427E-13 -2.254863E-13
       120  11  1.275717E+03 -2.581404E+00  1.598377E+00 -1.064186E+02 -3.966888E-14 -3.340537E-14
       120  12  1.319009E+03  5.115138E-01  5.107232E+00 -1.023207E+02  4.092158E-13 -2.014761E-13
       120  13  1.212176E+03  5.985969E+00  1.523045E+00 -1.373326E+02  1.169188E-13  3.340537E-14
       120  14  1.250235E+03 -7.280310E+00  3.443262E-01 -1.313969E+02  8.351343E-14  1.419728E-13
       120  15  1.292461E+03 -9.849060E+00  2.955058E+00 -1.254506E+02  2.505403E-13 -2.087836E-14
       120  16  1.182073E+03  3.318305E+00  1.245169E+00 -1.624354E+02  2.839457E-13  4.426212E-13
       120  17  1.219609E+03 -1.403907E+01 -8.565347E-02 -1.546426E+02  5.845940E-14  5.094319E-13
       120  18  1.260623E+03 -2.193416E+01  1.625380E+00 -1.468907E+02 -8.351343E-14  2.505403E-13
       120  19  1.237318E+03  6.374278E+00  2.672025E+00 -1.104540E+02  8.339244E+00 -1.138365E+01
       120  20  1.275717E+03 -2.581404E+00  1.598377E+00 -1.064186E+02  8.563882E+00 -1.383211E+01
       120  21  1.319009E+03  5.115138E-01  5.107232E+00 -1.023207E+02  8.784948E+00 -1.631261E+01
       120  22  1.212176E+03  5.985969E+00  1.523045E+00 -1.373326E+02  6.133381E+00 -1.342383E+01
       120  23  1.250235E+03 -7.280310E+00  3.443262E-01 -1.313969E+02  6.423059E+00 -1.590584E+01
       120  24  1.292461E+03 -9.849060E+00  2.955058E+00 -1.254506E+02  6.707342E+00 -1.842422E+01
       120  25  1.182073E+03  3.318305E+00  1.245169E+00 -1.624354E+02  3.896455E+00 -1.544312E+01
       120  26  1.219609E+03 -1.403907E+01 -8.565347E-02 -1.546426E+02  4.247561E+00 -1.795452E+01
       120  27  1.260623E+03 -2.193416E+01  1.625380E+00 -1.468907E+02  4.591296E+00 -2.050596E+01
       121   1  1.056244E+03  4.154143E+01 -1.901225E-01 -1.384460E+02 -1.860404E+00  4.567758E+00
       121   2  1.070995E+03  3.484293E+01 -2.670887E-01 -1.481006E+02 -2.119222E+00  6.487621E+00
       121   3  1.085847E+03  2.970170E+01 -2.859072E-01 -1.592137E+02 -2.358614E+00  8.607088E+00
       121   4  1.032114E+03  5.361315E+01  5.657907E-01 -1.494706E+02 -7.197957E-02  5.417890E+00
       121   5  1.042019E+03  4.547060E+01  3.826731E-01 -1.604515E+02 -1.277993E-01  7.365272E+00
       121   6  1.052139E+03  3.898262E+01  5.183547E-01 -1.728756E+02 -1.644944E-01  9.510327E+00
       121   7  1.000214E+03  6.252500E+01 -3.807315E-01 -1.591412E+02  1.817642E+00  6.223037E+00
       121   8  1.005405E+03  5.303901E+01 -4.775470E-01 -1.714495E+02  1.962864E+00  8.198306E+00
       121   9  1.010926E+03  4.530504E+01  5.143054E-03 -1.851858E+02  2.126913E+00  1.036933E+01
       121  10  1.056244E+03  4.154143E+01 -1.901225E-01 -1.384460E+02 -5.783305E-13  7.641479E-13
       121  11  1.070995E+03  3.484293E+01 -2.670887E-01 -1.481006E+02 -4.593238E-14  2.380133E-13
       121  12  1.085847E+03  2.970170E+01 -2.859072E-01 -1.592137E+02  5.344859E-13 -6.237409E-13
       121  13  1.032114E+03  5.361315E+01  5.657907E-01 -1.494706E+02 -5.511886E-13  4.300942E-13
       121  14  1.042019E+03  4.547060E+01  3.826731E-01 -1.604515E+02 -2.839457E-13  4.593238E-13
       121  15  1.052139E+03  3.898262E+01  5.183547E-01 -1.728756E+02 -6.681074E-14  1.920809E-13
       121  16  1.000214E+03  6.252500E+01 -3.807315E-01 -1.591412E+02 -5.845940E-14 -1.252701E-13
       121  17  1.005405E+03  5.303901E+01 -4.775470E-01 -1.714495E+02 -4.342698E-13  4.593238E-13
       121  18  1.010926E+03  4.530504E+01  5.143054E-03 -1.851858E+02  6.263507E-14  7.490111E-13
       121  19  1.056244E+03  4.154143E+01 -1.901225E-01 -1.384460E+02  1.860404E+00 -4.567758E+00
       121  20  1.070995E+03  3.484293E+01 -2.670887E-01 -1.481006E+02  2.119222E+00 -6.487621E+00
       121  21  1.085847E+03  2.970170E+01 -2.859072E-01 -1.592137E+02  2.358614E+00 -8.607088E+00
       121  22  1.032114E+03  5.361315E+01  5.657907E-01 -1.494706E+02  7.197957E-02 -5.417890E+00
       121  23  1.042019E+03  4.547060E+01  3.826731E-01 -1.604515E+02  1.277993E-01 -7.365272E+00
       121  24  1.052139E+03  3.898262E+01  5.183547E-01 -1.728756E+02  1.644944E-01 -9.510327E+00
       121  25  1.000214E+03  6.252500E+01 -3.807315E-01 -1.591412E+02 -1.817642E+00 -6.223037E+00
       121  26  1.005405E+03  5.303901E+01 -4.775470E-01 -1.714495E+02 -1.962864E+00 -8.198306E+00
       121  27  1.010926E+03  4.530504E+01  5.143054E-03 -1.851858E+02 -2.126913E+00 -1.036933E+01
       122   1  1.096878E+03  2.601872E+01  4.426603E-02 -1.643931E+02 -2.362640E+00  9.863422E+00
       122   2  1.118573E+03  1.574885E+01  1.747086E-02 -1.692905E+02 -2.496367E+00  1.220214E+01
       122   3  1.140326E+03  6.549676E+00 -2.702694E-02 -1.751694E+02 -2.614050E+00  1.470582E+01
       122   4  1.059968E+03  3.320673E+01  4.925350E-01 -1.786940E+02 -8.767317E-02  1.079975E+01
       122   5  1.077356E+03  1.939220E+01  3.462734E-01 -1.857590E+02 -5.085895E-02  1.318330E+01
       122   6  1.094898E+03  6.732600E+00  4.002052E-01 -1.937942E+02  1.760150E-03  1.573020E+01
       122   7  1.014728E+03  3.825603E+01 -3.045699E-01 -1.923247E+02  2.290652E+00  1.168878E+01
       122   8  1.027937E+03  2.100759E+01 -3.692745E-01 -2.015523E+02  2.496367E+00  1.411740E+01
       122   9  1.041394E+03  4.998298E+00 -1.591313E-02 -2.117391E+02  2.717653E+00  1.670778E+01
       122  10  1.096878E+03  2.601872E+01  4.426603E-02 -1.643931E+02  1.879052E-14 -5.344859E-13
       122  11  1.118573E+03  1.574885E+01  1.747086E-02 -1.692905E+02  2.046079E-13 -1.983444E-13
       122  12  1.140326E+03  6.549676E+00 -2.702694E-02 -1.751694E+02  1.544998E-13 -4.854218E-14
       122  13  1.059968E+03  3.320673E+01  4.925350E-01 -1.786940E+02  4.008645E-13 -5.428373E-14
       122  14  1.077356E+03  1.939220E+01  3.462734E-01 -1.857590E+02  2.672430E-13 -5.845940E-14
       122  15  1.094898E+03  6.732600E+00  4.002052E-01 -1.937942E+02  3.006483E-13 -1.210945E-13
       122  16  1.014728E+03  3.825603E+01 -3.045699E-01 -1.923247E+02  1.336215E-13  5.344859E-13
       122  17  1.027937E+03  2.100759E+01 -3.692745E-01 -2.015523E+02  1.837295E-13  3.069118E-13
       122  18  1.041394E+03  4.998298E+00 -1.591313E-02 -2.117391E+02  2.964727E-13 -1.210945E-13
       122  19  1.096878E+03  2.601872E+01  4.426603E-02 -1.643931E+02  2.362640E+00 -9.863422E+00
       122  20  1.118573E+03  1.574885E+01  1.747086E-02 -1.692905E+02  2.496367E+00 -1.220214E+01
       122  21  1.140326E+03  6.549676E+00 -2.702694E-02 -1.751694E+02  2.614050E+00 -1.470582E+01
       122  22  1.059968E+03  3.320673E+01  4.925350E-01 -1.786940E+02  8.767317E-02 -1.079975E+01
       122  23  1.077356E+03  1.939220E+01  3.462734E-01 -1.857590E+02  5.085895E-02 -1.318330E+01
       122  24  1.094898E+03  6.732600E+00  4.002052E-01 -1.937942E+02 -1.760150E-03 -1.573020E+01
       122  25  1.014728E+03  3.825603E+01 -3.045699E-01 -1.923247E+02 -2.290652E+00 -1.168878E+01
       122  26  1.027937E+03  2.100759E+01 -3.692745E-01 -2.015523E+02 -2.496367E+00 -1.411740E+01
       122  27  1.041394E+03  4.998298E+00 -1.591313E-02 -2.117391E+02 -2.717653E+00 -1.670778E+01
       123   1  9.863537E+02  4.110851E+01 -6.452632E-01 -1.975154E+02  3.652490E+00  1.177037E+01
       123   2  9.973360E+02  2.341242E+01 -8.799705E-02 -2.077257E+02  3.989042E+00  1.420720E+01
       123   3  1.006656E+03  2.887266E+00 -7.755755E-01 -2.197722E+02  4.352519E+00  1.692457E+01
       123   4  9.352087E+02  5.012399E+01  3.728593E-01 -1.988339E+02  6.224468E+00  1.220897E+01
       123   5  9.400653E+02  2.949736E+01  9.131402E-01 -2.127589E+02  6.867110E+00  1.490199E+01
       123   6  9.434433E+02  6.233884E+00  6.057134E-01 -2.284997E+02  7.536267E+00  1.787263E+01
       123   7  8.732657E+02  5.591434E+01 -1.267686E+00 -1.992451E+02  9.146806E+00  1.248723E+01
       123   8  8.722956E+02  3.261567E+01 -1.833812E-01 -2.168694E+02  1.009253E+01  1.543607E+01
       123   9  8.700300E+02  6.872085E+00  4.501568E-01 -2.362895E+02  1.106438E+01  1.865963E+01
       123  10  9.863537E+02  4.110851E+01 -6.452632E-01 -1.975154E+02 -8.977693E-14 -4.280063E-13
       123  11  9.973360E+02  2.341242E+01 -8.799705E-02 -2.077257E+02 -1.252701E-14 -3.904253E-13
       123  12  1.006656E+03  2.887266E+00 -7.755755E-01 -2.197722E+02  7.098641E-14 -3.669371E-13
       123  13  9.352087E+02  5.012399E+01  3.728593E-01 -1.988339E+02 -3.507564E-13  2.087836E-14
       123  14  9.400653E+02  2.949736E+01  9.131402E-01 -2.127589E+02 -3.507564E-13 -1.169188E-13
       123  15  9.434433E+02  6.233884E+00  6.057134E-01 -2.284997E+02  8.351343E-14 -9.708436E-14
       123  16  8.732657E+02  5.591434E+01 -1.267686E+00 -1.992451E+02 -1.503242E-13  5.010806E-13
       123  17  8.722956E+02  3.261567E+01 -1.833812E-01 -2.168694E+02 -3.591077E-13  2.442768E-13
       123  18  8.700300E+02  6.872085E+00  4.501568E-01 -2.362895E+02  3.925131E-13  1.414509E-13
       123  19  9.863537E+02  4.110851E+01 -6.452632E-01 -1.975154E+02 -3.652490E+00 -1.177037E+01
       123  20  9.973360E+02  2.341242E+01 -8.799705E-02 -2.077257E+02 -3.989042E+00 -1.420720E+01
       123  21  1.006656E+03  2.887266E+00 -7.755755E-01 -2.197722E+02 -4.352519E+00 -1.692457E+01
       123  22  9.352087E+02  5.012399E+01  3.728593E-01 -1.988339E+02 -6.224468E+00 -1.220897E+01
       123  23  9.400653E+02  2.949736E+01  9.131402E-01 -2.127589E+02 -6.867110E+00 -1.490199E+01
       123  24  9.434433E+02  6.233884E+00  6.057134E-01 -2.284997E+02 -7.536267E+00 -1.787263E+01
       123  25  8.732657E+02  5.591434E+01 -1.267686E+00 -1.992451E+02 -9.146806E+00 -1.248723E+01
       123  26  8.722956E+02  3.261567E+01 -1.833812E-01 -2.168694E+02 -1.009253E+01 -1.543607E+01
       123  27  8.700300E+02  6.872085E+00  4.501568E-01 -2.362895E+02 -1.106438E+01 -1.865963E+01
       124   1  9.803256E+02  6.865659E+01 -4.032861E-01 -1.619741E+02  2.895698E+00  6.325278E+00
       124   2  9.826529E+02  5.917076E+01 -2.175746E-01 -1.746877E+02  3.173306E+00  8.234052E+00
       124   3  9.839590E+02  4.866635E+01 -5.494580E-01 -1.896691E+02  3.477544E+00  1.042047E+01
       124   4  9.450829E+02  8.062980E+01  4.552492E-01 -1.592866E+02  4.800410E+00  6.613986E+00
       124   5  9.409935E+02  7.027752E+01  4.946825E-01 -1.734194E+02  5.358158E+00  8.544566E+00
       124   6  9.360579E+02  5.907829E+01  4.009987E-01 -1.897972E+02  5.942154E+00  1.075011E+01
       124   7  9.030782E+02  8.964729E+01 -5.135613E-01 -1.553605E+02  6.830985E+00  6.846751E+00
       124   8  8.927358E+02  7.854208E+01 -3.863538E-01 -1.709110E+02  7.666213E+00  8.799688E+00
       124   9  8.817220E+02  6.676142E+01 -7.882360E-03 -1.886840E+02  8.527312E+00  1.102494E+01
       124  10  9.803256E+02  6.865659E+01 -4.032861E-01 -1.619741E+02  2.087836E-15 -7.641479E-13
       124  11  9.826529E+02  5.917076E+01 -2.175746E-01 -1.746877E+02  1.043918E-13 -6.367899E-13
       124  12  9.839590E+02  4.866635E+01 -5.494580E-01 -1.896691E+02 -3.591077E-13 -4.394894E-13
       124  13  9.450829E+02  8.062980E+01  4.552492E-01 -1.592866E+02  5.845940E-14 -6.263507E-14
       124  14  9.409935E+02  7.027752E+01  4.946825E-01 -1.734194E+02  4.509725E-13 -1.085675E-13
       124  15  9.360579E+02  5.907829E+01  4.009987E-01 -1.897972E+02 -2.087836E-13 -4.071280E-14
       124  16  9.030782E+02  8.964729E+01 -5.135613E-01 -1.553605E+02  5.010806E-14  5.992088E-13
       124  17  8.927358E+02  7.854208E+01 -3.863538E-01 -1.709110E+02  2.004322E-13  3.361415E-13
       124  18  8.817220E+02  6.676142E+01 -7.882360E-03 -1.886840E+02 -1.753782E-13  4.113036E-13
       124  19  9.803256E+02  6.865659E+01 -4.032861E-01 -1.619741E+02 -2.895698E+00 -6.325278E+00
       124  20  9.826529E+02  5.917076E+01 -2.175746E-01 -1.746877E+02 -3.173306E+00 -8.234052E+00
       124  21  9.839590E+02  4.866635E+01 -5.494580E-01 -1.896691E+02 -3.477544E+00 -1.042047E+01
       124  22  9.450829E+02  8.062980E+01  4.552492E-01 -1.592866E+02 -4.800410E+00 -6.613986E+00
       124  23  9.409935E+02  7.027752E+01  4.946825E-01 -1.734194E+02 -5.358158E+00 -8.544566E+00
       124  24  9.360579E+02  5.907829E+01  4.009987E-01 -1.897972E+02 -5.942154E+00 -1.075011E+01
       124  25  9.030782E+02  8.964729E+01 -5.135613E-01 -1.553605E+02 -6.830985E+00 -6.846751E+00
       124  26  8.927358E+02  7.854208E+01 -3.863538E-01 -1.709110E+02 -7.666213E+00 -8.799688E+00
       124  27  8.817220E+02  6.676142E+01 -7.882360E-03 -1.886840E+02 -8.527312E+00 -1.102494E+01
       125   1  1.362258E+03 -7.301684E+01  3.877752E+00 -8.775405E+01 -4.370633E+00  2.503529E+01
       125   2  1.323527E+03 -1.165086E+02  7.929459E-01 -1.128705E+02 -4.206591E+00  2.648535E+01
       125   3  1.283352E+03 -1.568294E+02 -3.898642E-01 -1.400041E+02 -4.456032E+00  2.812527E+01
       125   4  1.311173E+03 -6.426353E+01  3.843088E-01 -1.203013E+02 -3.702258E+00  2.410528E+01
       125   5  1.267934E+03 -9.762041E+01 -1.099309E+00 -1.456247E+02 -2.621167E+00  2.565779E+01
       125   6  1.223540E+03 -1.275677E+02 -2.430736E-02 -1.729171E+02 -1.940393E+00  2.739498E+01
       125   7  1.267680E+03 -4.189097E+01  2.371312E+00 -1.484802E+02 -3.212375E+00  2.226983E+01
       125   8  1.219420E+03 -6.584251E+01  1.188059E+00 -1.740080E+02 -1.226759E+00  2.391483E+01
       125   9  1.170293E+03 -8.614532E+01  3.220237E+00 -2.014577E+02  3.713576E-01  2.573938E+01
       125  10  1.362258E+03 -7.301684E+01  3.877752E+00 -8.775405E+01  6.681074E-14  3.758104E-13
       125  11  1.323527E+03 -1.165086E+02  7.929459E-01 -1.128705E+02  1.837295E-13 -8.768910E-14
       125  12  1.283352E+03 -1.568294E+02 -3.898642E-01 -1.400041E+02  2.004322E-13 -5.564082E-13
       125  13  1.311173E+03 -6.426353E+01  3.843088E-01 -1.203013E+02  3.173510E-13  2.338376E-13
       125  14  1.267934E+03 -9.762041E+01 -1.099309E+00 -1.456247E+02  2.171349E-13 -1.002161E-13
       125  15  1.223540E+03 -1.275677E+02 -2.430736E-02 -1.729171E+02 -1.127431E-13 -4.384455E-13
       125  16  1.267680E+03 -4.189097E+01  2.371312E+00 -1.484802E+02  6.681074E-14  2.254863E-13
       125  17  1.219420E+03 -6.584251E+01  1.188059E+00 -1.740080E+02 -2.338376E-13 -3.340537E-14
       125  18  1.170293E+03 -8.614532E+01  3.220237E+00 -2.014577E+02 -3.298780E-13 -3.977327E-13
       125  19  1.362258E+03 -7.301684E+01  3.877752E+00 -8.775405E+01  4.370633E+00 -2.503529E+01
       125  20  1.323527E+03 -1.165086E+02  7.929459E-01 -1.128705E+02  4.206591E+00 -2.648535E+01
       125  21  1.283352E+03 -1.568294E+02 -3.898642E-01 -1.400041E+02  4.456032E+00 -2.812527E+01
       125  22  1.311173E+03 -6.426353E+01  3.843088E-01 -1.203013E+02  3.702258E+00 -2.410528E+01
       125  23  1.267934E+03 -9.762041E+01 -1.099309E+00 -1.456247E+02  2.621167E+00 -2.565779E+01
       125  24  1.223540E+03 -1.275677E+02 -2.430736E-02 -1.729171E+02  1.940393E+00 -2.739498E+01
       125  25  1.267680E+03 -4.189097E+01  2.371312E+00 -1.484802E+02  3.212375E+00 -2.226983E+01
       125  26  1.219420E+03 -6.584251E+01  1.188059E+00 -1.740080E+02  1.226759E+00 -2.391483E+01
       125  27  1.170293E+03 -8.614532E+01  3.220237E+00 -2.014577E+02 -3.713576E-01 -2.573938E+01
       126   1  1.258237E+03 -1.845710E+02 -2.135080E+00 -1.631084E+02 -4.906441E+00  3.045091E+01
       126   2  1.210817E+03 -2.164146E+02  2.910803E+00 -2.133695E+02 -5.005929E+00  3.765112E+01
       126   3  1.143267E+03 -2.499903E+02  7.888046E+00 -2.637957E+02 -4.098888E+00  4.438916E+01
       126   4  1.191412E+03 -1.468073E+02 -6.764932E-01 -1.958072E+02 -1.338622E+00  2.995873E+01
       126   5  1.125765E+03 -1.736132E+02  1.269442E+00 -2.343316E+02  5.992667E-01  3.507085E+01
       126   6  1.039863E+03 -2.026140E+02  1.992182E+00 -2.729863E+02  3.528679E+00  3.972556E+01
       126   7  1.132265E+03 -1.033009E+02  1.058334E+00 -2.182713E+02  1.656206E+00  2.694480E+01
       126   8  1.047029E+03 -1.267637E+02 -3.561773E+00 -2.452631E+02  5.608174E+00  2.999719E+01
       126   9  9.414028E+02 -1.528874E+02 -1.056366E+01 -2.723519E+02  1.053695E+01  3.259691E+01
       126  10  1.258237E+03 -1.845710E+02 -2.135080E+00 -1.631084E+02  1.670269E-13 -2.421889E-13
       126  11  1.210817E+03 -2.164146E+02  2.910803E+00 -2.133695E+02  8.351343E-14 -7.098641E-14
       126  12  1.143267E+03 -2.499903E+02  7.888046E+00 -2.637957E+02  5.428373E-14  1.680708E-13
       126  13  1.191412E+03 -1.468073E+02 -6.764932E-01 -1.958072E+02  1.315336E-13 -1.503242E-13
       126  14  1.125765E+03 -1.736132E+02  1.269442E+00 -2.343316E+02  1.879052E-13  3.340537E-14
       126  15  1.039863E+03 -2.026140E+02  1.992182E+00 -2.729863E+02  2.296619E-13  3.716348E-13
       126  16  1.132265E+03 -1.033009E+02  1.058334E+00 -2.182713E+02 -2.672430E-13 -2.004322E-13
       126  17  1.047029E+03 -1.267637E+02 -3.561773E+00 -2.452631E+02  3.841618E-13  3.340537E-14
       126  18  9.414028E+02 -1.528874E+02 -1.056366E+01 -2.723519E+02  5.637156E-14  3.518003E-13
       126  19  1.258237E+03 -1.845710E+02 -2.135080E+00 -1.631084E+02  4.906441E+00 -3.045091E+01
       126  20  1.210817E+03 -2.164146E+02  2.910803E+00 -2.133695E+02  5.005929E+00 -3.765112E+01
       126  21  1.143267E+03 -2.499903E+02  7.888046E+00 -2.637957E+02  4.098888E+00 -4.438916E+01
       126  22  1.191412E+03 -1.468073E+02 -6.764932E-01 -1.958072E+02  1.338622E+00 -2.995873E+01
       126  23  1.125765E+03 -1.736132E+02  1.269442E+00 -2.343316E+02 -5.992667E-01 -3.507085E+01
       126  24  1.039863E+03 -2.026140E+02  1.992182E+00 -2.729863E+02 -3.528679E+00 -3.972556E+01
       126  25  1.132265E+03 -1.033009E+02  1.058334E+00 -2.182713E+02 -1.656206E+00 -2.694480E+01
       126  26  1.047029E+03 -1.267637E+02 -3.561773E+00 -2.452631E+02 -5.608174E+00 -2.999719E+01
       126  27  9.414028E+02 -1.528874E+02 -1.056366E+01 -2.723519E+02 -1.053695E+01 -3.259691E+01
       127   1  1.095488E+03 -8.266322E+01 -1.697511E+00 -2.238646E+02  2.738234E+00  2.474168E+01
       127   2  1.028888E+03 -9.183746E+01  1.899258E+00 -2.497632E+02  6.052909E+00  2.753175E+01
       127   3  9.440528E+02 -1.052197E+02  2.808924E+00 -2.744855E+02  1.008023E+01  2.999073E+01
       127   4  1.056667E+03 -4.890299E+01 -1.044680E+00 -2.259161E+02  3.569741E+00  2.177158E+01
       127   5  9.893533E+02 -5.294897E+01  1.367998E+00 -2.448107E+02  6.882910E+00  2.377042E+01
       127   6  9.038394E+02 -6.145868E+01  3.308962E-01 -2.625392E+02  1.089353E+01  2.544381E+01
       127   7  1.019916E+03 -1.248101E+01 -5.073017E-01 -2.255734E+02  4.365921E+00  1.864597E+01
       127   8  9.516692E+02 -1.168889E+01  3.524480E-01 -2.376113E+02  7.679681E+00  1.987006E+01
       127   9  8.652462E+02 -1.562017E+01 -3.004542E+00 -2.484934E+02  1.167605E+01  2.077427E+01
       127  10  1.095488E+03 -8.266322E+01 -1.697511E+00 -2.238646E+02 -1.336215E-13 -1.879052E-13
       127  11  1.028888E+03 -9.183746E+01  1.899258E+00 -2.497632E+02 -3.674591E-13  2.588916E-13
       127  12  9.440528E+02 -1.052197E+02  2.808924E+00 -2.744855E+02 -5.845940E-13  7.803286E-13
       127  13  1.056667E+03 -4.890299E+01 -1.044680E+00 -2.259161E+02 -1.586755E-13 -5.010806E-14
       127  14  9.893533E+02 -5.294897E+01  1.367998E+00 -2.448107E+02 -1.148310E-13  2.421889E-13
       127  15  9.038394E+02 -6.145868E+01  3.308962E-01 -2.625392E+02  4.175671E-15  5.511886E-13
       127  16  1.019916E+03 -1.248101E+01 -5.073017E-01 -2.255734E+02 -3.340537E-14 -2.087836E-13
       127  17  9.516692E+02 -1.168889E+01  3.524480E-01 -2.376113E+02  5.010806E-13 -9.604044E-14
       127  18  8.652462E+02 -1.562017E+01 -3.004542E+00 -2.484934E+02  6.618439E-13 -1.043918E-14
       127  19  1.095488E+03 -8.266322E+01 -1.697511E+00 -2.238646E+02 -2.738234E+00 -2.474168E+01
       127  20  1.028888E+03 -9.183746E+01  1.899258E+00 -2.497632E+02 -6.052909E+00 -2.753175E+01
       127  21  9.440528E+02 -1.052197E+02  2.808924E+00 -2.744855E+02 -1.008023E+01 -2.999073E+01
       127  22  1.056667E+03 -4.890299E+01 -1.044680E+00 -2.259161E+02 -3.569741E+00 -2.177158E+01
       127  23  9.893533E+02 -5.294897E+01  1.367998E+00 -2.448107E+02 -6.882910E+00 -2.377042E+01
       127  24  9.038394E+02 -6.145868E+01  3.308962E-01 -2.625392E+02 -1.089353E+01 -2.544381E+01
       127  25  1.019916E+03 -1.248101E+01 -5.073017E-01 -2.255734E+02 -4.365921E+00 -1.864597E+01
       127  26  9.516692E+02 -1.168889E+01  3.524480E-01 -2.376113E+02 -7.679681E+00 -1.987006E+01
       127  27  8.652462E+02 -1.562017E+01 -3.004542E+00 -2.484934E+02 -1.167605E+01 -2.077427E+01
       128   1  1.238061E+03 -3.110294E+01  1.307679E+00 -1.589234E+02 -3.424342E+00  2.111925E+01
       128   2  1.188438E+03 -5.019207E+01  1.846015E-01 -1.837036E+02 -1.130916E+00  2.271705E+01
       128   3  1.131522E+03 -6.882361E+01 -5.005712E-01 -2.092138E+02  1.334676E+00  2.423485E+01
       128   4  1.197404E+03 -1.782909E+01  4.814064E-01 -1.680532E+02 -2.975281E+00  1.872230E+01
       128   5  1.148724E+03 -2.927029E+01  3.196223E-03 -1.900942E+02 -5.343688E-01  2.008008E+01
       128   6  1.092846E+03 -4.030378E+01 -1.526369E-01 -2.128403E+02  2.075952E+00  2.135881E+01
       128   7  1.158866E+03 -4.343947E-01  5.714595E-01 -1.757537E+02 -2.560441E+00  1.615165E+01
       128   8  1.110918E+03 -4.546344E+00  3.536766E-01 -1.951176E+02  2.673285E-02  1.727317E+01
       128   9  1.055864E+03 -8.301579E+00  3.411765E-01 -2.151624E+02  2.780616E+00  1.831658E+01
       128  10  1.238061E+03 -3.110294E+01  1.307679E+00 -1.589234E+02 -2.672430E-13  3.674591E-13
       128  11  1.188438E+03 -5.019207E+01  1.846015E-01 -1.837036E+02 -2.171349E-13  2.505403E-14
       128  12  1.131522E+03 -6.882361E+01 -5.005712E-01 -2.092138E+02 -1.670269E-13 -2.150471E-13
       128  13  1.197404E+03 -1.782909E+01  4.814064E-01 -1.680532E+02 -9.186477E-14  1.503242E-13
       128  14  1.148724E+03 -2.927029E+01  3.196223E-03 -1.900942E+02  1.461485E-13 -7.516208E-14
       128  15  1.092846E+03 -4.030378E+01 -1.526369E-01 -2.128403E+02 -6.263507E-14 -2.547160E-13
       128  16  1.158866E+03 -4.343947E-01  5.714595E-01 -1.757537E+02  3.674591E-13  0.000000E+00
       128  17  1.110918E+03 -4.546344E+00  3.536766E-01 -1.951176E+02  3.006483E-13 -1.210945E-13
       128  18  1.055864E+03 -8.301579E+00  3.411765E-01 -2.151624E+02  1.461485E-13 -3.121314E-13
       128  19  1.238061E+03 -3.110294E+01  1.307679E+00 -1.589234E+02  3.424342E+00 -2.111925E+01
       128  20  1.188438E+03 -5.019207E+01  1.846015E-01 -1.837036E+02  1.130916E+00 -2.271705E+01
       128  21  1.131522E+03 -6.882361E+01 -5.005712E-01 -2.092138E+02 -1.334676E+00 -2.423485E+01
       128  22  1.197404E+03 -1.782909E+01  4.814064E-01 -1.680532E+02  2.975281E+00 -1.872230E+01
       128  23  1.148724E+03 -2.927029E+01  3.196223E-03 -1.900942E+02  5.343688E-01 -2.008008E+01
       128  24  1.092846E+03 -4.030378E+01 -1.526369E-01 -2.128403E+02 -2.075952E+00 -2.135881E+01
       128  25  1.158866E+03 -4.343947E-01  5.714595E-01 -1.757537E+02  2.560441E+00 -1.615165E+01
       128  26  1.110918E+03 -4.546344E+00  3.536766E-01 -1.951176E+02 -2.673285E-02 -1.727317E+01
       128  27  1.055864E+03 -8.301579E+00  3.411765E-01 -2.151624E+02 -2.780616E+00 -1.831658E+01
       129   1  9.963291E+02 -4.465344E+00 -5.488217E+00  4.179369E+00 -1.028934E+00 -7.422357E-01
       129   2  1.001275E+03  8.720651E-01 -3.816375E+00  1.047231E+00 -1.946233E+00 -1.246202E+00
       129   3  1.003326E+03  4.393206E-02 -5.734830E+00 -5.091032E-01 -2.862513E+00 -1.618487E+00
       129   4  1.004128E+03  4.761749E+00 -2.865209E+00 -5.839025E+00 -2.146685E+00 -1.797133E+00
       129   5  1.012750E+03  8.351179E+00 -1.462414E+00 -1.251781E+01 -2.863488E+00 -2.008845E+00
       129   6  1.018578E+03  5.560192E+00 -3.469407E+00 -1.769592E+01 -3.574846E+00 -2.066703E+00
       129   7  1.009521E+03  1.676445E+01 -2.057359E+00 -1.767370E+01 -2.850565E+00 -3.112639E+00
       129   8  1.022216E+03  1.915499E+01 -1.361658E-01 -2.807341E+01 -3.338850E+00 -3.044931E+00
       129   9  1.032225E+03  1.495445E+01 -1.441503E+00 -3.705832E+01 -3.815741E+00 -2.801260E+00
       129  10  9.963291E+02 -4.465344E+00 -5.488217E+00  4.179369E+00 -6.848101E-13  5.929453E-13
       129  11  1.001275E+03  8.720651E-01 -3.816375E+00  1.047231E+00 -1.920809E-13  7.056885E-13
       129  12  1.003326E+03  4.393206E-02 -5.734830E+00 -5.091032E-01  4.969049E-13  2.359254E-13
       129  13  1.004128E+03  4.761749E+00 -2.865209E+00 -5.839025E+00  3.841618E-13  9.186477E-14
       129  14  1.012750E+03  8.351179E+00 -1.462414E+00 -1.251781E+01  1.670269E-14  2.004322E-13
       129  15  1.018578E+03  5.560192E+00 -3.469407E+00 -1.769592E+01  3.340537E-14 -2.505403E-14
       129  16  1.009521E+03  1.676445E+01 -2.057359E+00 -1.767370E+01  6.263507E-13 -3.006483E-13
       129  17  1.022216E+03  1.915499E+01 -1.361658E-01 -2.807341E+01 -6.012967E-13 -4.593238E-14
       129  18  1.032225E+03  1.495445E+01 -1.441503E+00 -3.705832E+01 -6.848101E-13 -2.254863E-13
       129  19  9.963291E+02 -4.465344E+00 -5.488217E+00  4.179369E+00  1.028934E+00  7.422357E-01
       129  20  1.001275E+03  8.720651E-01 -3.816375E+00  1.047231E+00  1.946233E+00  1.246202E+00
       129  21  1.003326E+03  4.393206E-02 -5.734830E+00 -5.091032E-01  2.862513E+00  1.618487E+00
       129  22  1.004128E+03  4.761749E+00 -2.865209E+00 -5.839025E+00  2.146685E+00  1.797133E+00
       129  23  1.012750E+03  8.351179E+00 -1.462414E+00 -1.251781E+01  2.863488E+00  2.008845E+00
       129  24  1.018578E+03  5.560192E+00 -3.469407E+00 -1.769592E+01  3.574846E+00  2.066703E+00
       129  25  1.009521E+03  1.676445E+01 -2.057359E+00 -1.767370E+01  2.850565E+00  3.112639E+00
       129  26  1.022216E+03  1.915499E+01 -1.361658E-01 -2.807341E+01  3.338850E+00  3.044931E+00
       129  27  1.032225E+03  1.495445E+01 -1.441503E+00 -3.705832E+01  3.815741E+00  2.801260E+00
       130   1  1.005542E+03 -1.467834E+00 -7.339473E+00 -1.732118E+00 -3.743346E+00 -1.584349E+00
       130   2  1.023464E+03 -1.803711E+00 -6.215404E+00 -4.505354E+00 -4.977552E+00 -1.617265E+00
       130   3  1.041243E+03 -1.598150E+00 -6.150581E+00 -6.730112E+00 -6.210518E+00 -1.491581E+00
       130   4  1.030175E+03  9.077153E+00 -1.028171E+00 -2.344374E+01 -4.365058E+00 -1.789966E+00
       130   5  1.047838E+03  7.656433E+00 -6.205723E-01 -2.919145E+01 -5.377354E+00 -1.368311E+00
       130   6  1.065539E+03  6.973836E+00 -9.325047E-01 -3.456801E+01 -6.382862E+00 -7.550718E-01
       130   7  1.040635E+03  1.357755E+01 -1.378154E+00 -4.289406E+01 -4.382346E+00 -2.358528E+00
       130   8  1.057687E+03  1.108106E+01 -1.179667E+00 -5.152904E+01 -5.134366E+00 -1.497411E+00
       130   9  1.074925E+03  9.502844E+00 -1.376815E+00 -5.997047E+01 -5.871833E+00 -4.116146E-01
       130  10  1.005542E+03 -1.467834E+00 -7.339473E+00 -1.732118E+00  1.336215E-13  1.920809E-13
       130  11  1.023464E+03 -1.803711E+00 -6.215404E+00 -4.505354E+00 -1.795539E-13 -1.837295E-13
       130  12  1.041243E+03 -1.598150E+00 -6.150581E+00 -6.730112E+00 -4.133915E-13 -3.403172E-13
       130  13  1.030175E+03  9.077153E+00 -1.028171E+00 -2.344374E+01 -2.505403E-13  1.252701E-13
       130  14  1.047838E+03  7.656433E+00 -6.205723E-01 -2.919145E+01 -2.839457E-13 -1.169188E-13
       130  15  1.065539E+03  6.973836E+00 -9.325047E-01 -3.456801E+01 -8.017289E-13  1.210945E-13
       130  16  1.040635E+03  1.357755E+01 -1.378154E+00 -4.289406E+01 -8.100802E-13 -1.920809E-13
       130  17  1.057687E+03  1.108106E+01 -1.179667E+00 -5.152904E+01 -6.681074E-14 -1.169188E-13
       130  18  1.074925E+03  9.502844E+00 -1.376815E+00 -5.997047E+01  8.768910E-14  2.578477E-13
       130  19  1.005542E+03 -1.467834E+00 -7.339473E+00 -1.732118E+00  3.743346E+00  1.584349E+00
       130  20  1.023464E+03 -1.803711E+00 -6.215404E+00 -4.505354E+00  4.977552E+00  1.617265E+00
       130  21  1.041243E+03 -1.598150E+00 -6.150581E+00 -6.730112E+00  6.210518E+00  1.491581E+00
       130  22  1.030175E+03  9.077153E+00 -1.028171E+00 -2.344374E+01  4.365058E+00  1.789966E+00
       130  23  1.047838E+03  7.656433E+00 -6.205723E-01 -2.919145E+01  5.377354E+00  1.368311E+00
       130  24  1.065539E+03  6.973836E+00 -9.325047E-01 -3.456801E+01  6.382862E+00  7.550718E-01
       130  25  1.040635E+03  1.357755E+01 -1.378154E+00 -4.289406E+01  4.382346E+00  2.358528E+00
       130  26  1.057687E+03  1.108106E+01 -1.179667E+00 -5.152904E+01  5.134366E+00  1.497411E+00
       130  27  1.074925E+03  9.502844E+00 -1.376815E+00 -5.997047E+01  5.871833E+00  4.116146E-01
       131   1  1.043539E+03  2.132872E+01 -1.044348E+00 -5.819345E+01 -4.024817E+00 -1.802669E+00
       131   2  1.059735E+03  1.787493E+01 -9.660177E-01 -6.709059E+01 -4.666328E+00 -7.954211E-01
       131   3  1.076586E+03  1.664535E+01 -6.643561E-01 -7.629478E+01 -5.300854E+00  2.962900E-01
       131   4  1.045066E+03  3.575871E+01  3.354744E-01 -8.114718E+01 -3.089530E+00 -5.461932E-01
       131   5  1.059006E+03  3.142890E+01  3.433127E-01 -9.050073E+01 -3.621591E+00  6.131756E-01
       131   6  1.073623E+03  2.948851E+01  7.016400E-01 -1.002453E+02 -4.142584E+00  1.868751E+00
       131   7  1.037354E+03  4.579627E+01 -5.028505E-01 -1.018133E+02 -1.849410E+00  5.272346E-01
       131   8  1.048575E+03  4.034924E+01 -6.169184E-01 -1.115032E+02 -2.256204E+00  1.833178E+00
       131   9  1.060465E+03  3.744193E+01 -2.672100E-01 -1.216638E+02 -2.646849E+00  3.247102E+00
       131  10  1.043539E+03  2.132872E+01 -1.044348E+00 -5.819345E+01 -1.064796E-13 -3.257024E-13
       131  11  1.059735E+03  1.787493E+01 -9.660177E-01 -6.709059E+01  4.593238E-13  8.351343E-14
       131  12  1.076586E+03  1.664535E+01 -6.643561E-01 -7.629478E+01  7.975532E-13  1.889491E-13
       131  13  1.045066E+03  3.575871E+01  3.354744E-01 -8.114718E+01  5.010806E-13 -1.169188E-13
       131  14  1.059006E+03  3.142890E+01  3.433127E-01 -9.050073E+01  3.674591E-13  5.845940E-14
       131  15  1.073623E+03  2.948851E+01  7.016400E-01 -1.002453E+02  3.841618E-13 -1.336215E-13
       131  16  1.037354E+03  4.579627E+01 -5.028505E-01 -1.018133E+02  6.012967E-13  2.254863E-13
       131  17  1.048575E+03  4.034924E+01 -6.169184E-01 -1.115032E+02  1.169188E-13  2.588916E-13
       131  18  1.060465E+03  3.744193E+01 -2.672100E-01 -1.216638E+02 -6.179994E-13 -6.576682E-14
       131  19  1.043539E+03  2.132872E+01 -1.044348E+00 -5.819345E+01  4.024817E+00  1.802669E+00
       131  20  1.059735E+03  1.787493E+01 -9.660177E-01 -6.709059E+01  4.666328E+00  7.954211E-01
       131  21  1.076586E+03  1.664535E+01 -6.643561E-01 -7.629478E+01  5.300854E+00 -2.962900E-01
       131  22  1.045066E+03  3.575871E+01  3.354744E-01 -8.114718E+01  3.089530E+00  5.461932E-01
       131  23  1.059006E+03  3.142890E+01  3.433127E-01 -9.050073E+01  3.621591E+00 -6.131756E-01
       131  24  1.073623E+03  2.948851E+01  7.016400E-01 -1.002453E+02  4.142584E+00 -1.868751E+00
       131  25  1.037354E+03  4.579627E+01 -5.028505E-01 -1.018133E+02  1.849410E+00 -5.272346E-01
       131  26  1.048575E+03  4.034924E+01 -6.169184E-01 -1.115032E+02  2.256204E+00 -1.833178E+00
       131  27  1.060465E+03  3.744193E+01 -2.672100E-01 -1.216638E+02  2.646849E+00 -3.247102E+00
       132   1  1.012422E+03  2.542924E+01 -1.927900E+00 -3.070066E+01 -2.878380E+00 -3.372954E+00
       132   2  1.024588E+03  2.375845E+01 -1.264682E+00 -4.155117E+01 -3.261605E+00 -2.840976E+00
       132   3  1.037041E+03  2.316441E+01 -5.698233E-01 -5.258335E+01 -3.643526E+00 -2.293200E+00
       132   4  1.017788E+03  4.325756E+01 -1.383608E-01 -5.205466E+01 -2.249404E+00 -2.839601E+00
       132   5  1.027902E+03  3.974806E+01  1.459895E-02 -6.331198E+01 -2.578423E+00 -1.982758E+00
       132   6  1.038276E+03  3.734675E+01  2.117729E-01 -7.481371E+01 -2.903648E+00 -1.092930E+00
       132   7  1.016290E+03  5.852713E+01 -1.580701E-01 -7.209014E+01 -1.163288E+00 -2.594098E+00
       132   8  1.024172E+03  5.317194E+01 -2.190934E-01 -8.368842E+01 -1.415846E+00 -1.421187E+00
       132   9  1.032265E+03  4.894610E+01 -2.326458E-01 -9.559213E+01 -1.660895E+00 -1.980977E-01
       132  10  1.012422E+03  2.542924E+01 -1.927900E+00 -3.070066E+01  4.906414E-13  1.085675E-13
       132  11  1.024588E+03  2.375845E+01 -1.264682E+00 -4.155117E+01 -1.252701E-13 -2.630673E-13
       132  12  1.037041E+03  2.316441E+01 -5.698233E-01 -5.258335E+01 -5.720670E-13 -2.834237E-13
       132  13  1.017788E+03  4.325756E+01 -1.383608E-01 -5.205466E+01  2.505403E-13  1.169188E-13
       132  14  1.027902E+03  3.974806E+01  1.459895E-02 -6.331198E+01 -6.012967E-13  1.169188E-13
       132  15  1.038276E+03  3.734675E+01  2.117729E-01 -7.481371E+01 -6.179994E-13  2.651551E-13
       132  16  1.016290E+03  5.852713E+01 -1.580701E-01 -7.209014E+01 -3.925131E-13 -1.670269E-13
       132  17  1.024172E+03  5.317194E+01 -2.190934E-01 -8.368842E+01 -5.845940E-14  4.175671E-15
       132  18  1.032265E+03  4.894610E+01 -2.326458E-01 -9.559213E+01  9.186477E-14  5.021245E-13
       132  19  1.012422E+03  2.542924E+01 -1.927900E+00 -3.070066E+01  2.878380E+00  3.372954E+00
       132  20  1.024588E+03  2.375845E+01 -1.264682E+00 -4.155117E+01  3.261605E+00  2.840976E+00
       132  21  1.037041E+03  2.316441E+01 -5.698233E-01 -5.258335E+01  3.643526E+00  2.293200E+00
       132  22  1.017788E+03  4.325756E+01 -1.383608E-01 -5.205466E+01  2.249404E+00  2.839601E+00
       132  23  1.027902E+03  3.974806E+01  1.459895E-02 -6.331198E+01  2.578423E+00  1.982758E+00
       132  24  1.038276E+03  3.734675E+01  2.117729E-01 -7.481371E+01  2.903648E+00  1.092930E+00
       132  25  1.016290E+03  5.852713E+01 -1.580701E-01 -7.209014E+01  1.163288E+00  2.594098E+00
       132  26  1.024172E+03  5.317194E+01 -2.190934E-01 -8.368842E+01  1.415846E+00  1.421187E+00
       132  27  1.032265E+03  4.894610E+01 -2.326458E-01 -9.559213E+01  1.660895E+00  1.980977E-01
       133   1  1.000443E+03  1.661970E+01 -5.587589E+00 -3.168637E+00 -8.966236E-01 -4.222520E+00
       133   2  9.993745E+02  6.675702E+00 -6.145565E+00 -9.042493E-01 -8.848103E-01 -3.453098E+00
       133   3  9.975425E+02 -3.690624E+00 -7.605425E+00  5.604766E-01 -6.259619E-01 -2.692801E+00
       133   4  1.002789E+03  3.109546E+01 -3.025780E+00 -1.605969E+01 -1.447725E+00 -4.419330E+00
       133   5  1.002890E+03  2.174520E+01 -2.874315E+00 -1.191440E+01 -1.546979E+00 -3.855800E+00
       133   6  1.002833E+03  1.221472E+01 -3.187517E+00 -7.785693E+00 -1.363408E+00 -3.341696E+00
       133   7  1.004960E+03  4.425675E+01 -1.358084E+00 -2.904741E+01 -2.227555E+00 -4.225388E+00
       133   8  1.005572E+03  3.279873E+01 -1.618761E+00 -2.250941E+01 -2.527614E+00 -3.835013E+00
       133   9  1.006573E+03  1.982256E+01 -2.398427E+00 -1.438645E+01 -2.543167E+00 -3.539144E+00
       133  10  1.000443E+03  1.661970E+01 -5.587589E+00 -3.168637E+00 -2.672430E-13  1.962566E-13
       133  11  9.993745E+02  6.675702E+00 -6.145565E+00 -9.042493E-01 -4.008645E-13  2.296619E-14
       133  12  9.975425E+02 -3.690624E+00 -7.605425E+00  5.604766E-01 -2.484524E-13  3.079558E-14
       133  13  1.002789E+03  3.109546E+01 -3.025780E+00 -1.605969E+01  0.000000E+00  1.670269E-14
       133  14  1.002890E+03  2.174520E+01 -2.874315E+00 -1.191440E+01  5.010806E-13  5.845940E-14
       133  15  1.002833E+03  1.221472E+01 -3.187517E+00 -7.785693E+00 -3.006483E-13  1.190066E-13
       133  16  1.004960E+03  4.425675E+01 -1.358084E+00 -2.904741E+01  0.000000E+00 -1.419728E-13
       133  17  1.005572E+03  3.279873E+01 -1.618761E+00 -2.250941E+01  4.008645E-13 -1.043918E-13
       133  18  1.006573E+03  1.982256E+01 -2.398427E+00 -1.438645E+01  1.169188E-13 -9.917219E-15
       133  19  1.000443E+03  1.661970E+01 -5.587589E+00 -3.168637E+00  8.966236E-01  4.222520E+00
       133  20  9.993745E+02  6.675702E+00 -6.145565E+00 -9.042493E-01  8.848103E-01  3.453098E+00
       133  21  9.975425E+02 -3.690624E+00 -7.605425E+00  5.604766E-01  6.259619E-01  2.692801E+00
       133  22  1.002789E+03  3.109546E+01 -3.025780E+00 -1.605969E+01  1.447725E+00  4.419330E+00
       133  23  1.002890E+03  2.174520E+01 -2.874315E+00 -1.191440E+01  1.546979E+00  3.855800E+00
       133  24  1.002833E+03  1.221472E+01 -3.187517E+00 -7.785693E+00  1.363408E+00  3.341696E+00
       133  25  1.004960E+03  4.425675E+01 -1.358084E+00 -2.904741E+01  2.227555E+00  4.225388E+00
       133  26  1.005572E+03  3.279873E+01 -1.618761E+00 -2.250941E+01  2.527614E+00  3.835013E+00
       133  27  1.006573E+03  1.982256E+01 -2.398427E+00 -1.438645E+01  2.543167E+00  3.539144E+00
       134   1  1.000172E+03 -2.094688E+00 -5.422261E+00 -3.346885E-01 -7.176469E-01 -1.945678E+00
       134   2  1.002002E+03 -1.323770E+00 -3.546318E+00  8.728921E-01 -3.907835E-01 -1.451564E+00
       134   3  1.001113E+03 -1.760531E+00 -3.162556E+00  2.582751E+00 -3.361340E-01 -9.683616E-01
       134   4  9.993982E+02  5.079462E+00 -5.380222E+00 -5.200245E+00 -1.483791E+00 -2.807701E+00
       134   5  9.999068E+02  4.079681E+00 -4.634466E+00 -5.024106E+00 -1.590723E+00 -2.318922E+00
       134   6  1.000199E+03  3.413936E+00 -4.070172E+00 -4.248910E+00 -1.815921E+00 -1.863022E+00
       134   7  1.004224E+03  2.129462E+01 -1.807411E+00 -1.345601E+01 -2.207178E+00 -3.707042E+00
       134   8  1.006616E+03  1.766192E+01 -2.017569E+00 -1.472613E+01 -2.506891E+00 -3.392912E+00
       134   9  1.010882E+03  1.669616E+01 -9.846858E-01 -1.510229E+01 -2.804648E+00 -3.076560E+00
       134  10  1.000172E+03 -2.094688E+00 -5.422261E+00 -3.346885E-01  1.336215E-13 -1.837295E-13
       134  11  1.002002E+03 -1.323770E+00 -3.546318E+00  8.728921E-01 -1.002161E-13 -8.768910E-14
       134  12  1.001113E+03 -1.760531E+00 -3.162556E+00  2.582751E+00 -6.263507E-14  5.845940E-14
       134  13  9.993982E+02  5.079462E+00 -5.380222E+00 -5.200245E+00  1.002161E-13 -3.340537E-13
       134  14  9.999068E+02  4.079681E+00 -4.634466E+00 -5.024106E+00  3.674591E-13 -1.920809E-13
       134  15  1.000199E+03  3.413936E+00 -4.070172E+00 -4.248910E+00  8.685396E-13 -1.920809E-13
       134  16  1.004224E+03  2.129462E+01 -1.807411E+00 -1.345601E+01  3.340537E-13 -1.085675E-13
       134  17  1.006616E+03  1.766192E+01 -2.017569E+00 -1.472613E+01 -6.681074E-14 -1.085675E-13
       134  18  1.010882E+03  1.669616E+01 -9.846858E-01 -1.510229E+01  1.670269E-13 -3.027362E-14
       134  19  1.000172E+03 -2.094688E+00 -5.422261E+00 -3.346885E-01  7.176469E-01  1.945678E+00
       134  20  1.002002E+03 -1.323770E+00 -3.546318E+00  8.728921E-01  3.907835E-01  1.451564E+00
       134  21  1.001113E+03 -1.760531E+00 -3.162556E+00  2.582751E+00  3.361340E-01  9.683616E-01
       134  22  9.993982E+02  5.079462E+00 -5.380222E+00 -5.200245E+00  1.483791E+00  2.807701E+00
       134  23  9.999068E+02  4.079681E+00 -4.634466E+00 -5.024106E+00  1.590723E+00  2.318922E+00
       134  24  1.000199E+03  3.413936E+00 -4.070172E+00 -4.248910E+00  1.815921E+00  1.863022E+00
       134  25  1.004224E+03  2.129462E+01 -1.807411E+00 -1.345601E+01  2.207178E+00  3.707042E+00
       134  26  1.006616E+03  1.766192E+01 -2.017569E+00 -1.472613E+01  2.506891E+00  3.392912E+00
       134  27  1.010882E+03  1.669616E+01 -9.846858E-01 -1.510229E+01  2.804648E+00  3.076560E+00
       135   1  1.007036E+03  4.979737E+01 -7.332399E-01 -3.851001E+01 -1.694225E+00 -4.130046E+00
       135   2  1.009149E+03  3.629778E+01 -9.296471E-01 -2.779525E+01 -2.532494E+00 -3.755447E+00
       135   3  1.006342E+03  2.523265E+01 -1.881615E+00 -1.989309E+01 -2.579741E+00 -3.720318E+00
       135   4  1.011949E+03  5.347652E+01 -4.121181E-01 -5.242669E+01 -1.458814E+00 -3.511362E+00
       135   5  1.010034E+03  3.934478E+01 -1.347758E+00 -3.676894E+01 -2.251888E+00 -3.540709E+00
       135   6  1.010502E+03  2.843563E+01 -2.078359E-01 -2.261072E+01 -2.707519E+00 -3.753520E+00
       135   7  1.015814E+03  5.901789E+01  5.058214E-01 -6.536398E+01 -1.134215E+00 -3.070025E+00
       135   8  1.010429E+03  4.166370E+01 -1.972294E+00 -4.540348E+01 -1.974678E+00 -3.314083E+00
       135   9  1.012251E+03  2.714523E+01 -6.398855E-01 -2.638596E+01 -2.791472E+00 -3.572723E+00
       135  10  1.007036E+03  4.979737E+01 -7.332399E-01 -3.851001E+01 -6.681074E-14 -2.630673E-13
       135  11  1.009149E+03  3.629778E+01 -9.296471E-01 -2.779525E+01 -3.340537E-14 -2.568038E-13
       135  12  1.006342E+03  2.523265E+01 -1.881615E+00 -1.989309E+01  3.841618E-13 -1.424948E-13
       135  13  1.011949E+03  5.347652E+01 -4.121181E-01 -5.242669E+01  9.604044E-13 -5.511886E-13
       135  14  1.010034E+03  3.934478E+01 -1.347758E+00 -3.676894E+01 -2.755943E-13 -3.089997E-13
       135  15  1.010502E+03  2.843563E+01 -2.078359E-01 -2.261072E+01  5.052562E-13  9.812828E-14
       135  16  1.015814E+03  5.901789E+01  5.058214E-01 -6.536398E+01  6.681074E-13 -9.269990E-13
       135  17  1.010429E+03  4.166370E+01 -1.972294E+00 -4.540348E+01  2.672430E-13 -3.382294E-13
       135  18  1.012251E+03  2.714523E+01 -6.398855E-01 -2.638596E+01  1.670269E-13  3.089997E-13
       135  19  1.007036E+03  4.979737E+01 -7.332399E-01 -3.851001E+01  1.694225E+00  4.130046E+00
       135  20  1.009149E+03  3.629778E+01 -9.296471E-01 -2.779525E+01  2.532494E+00  3.755447E+00
       135  21  1.006342E+03  2.523265E+01 -1.881615E+00 -1.989309E+01  2.579741E+00  3.720318E+00
       135  22  1.011949E+03  5.347652E+01 -4.121181E-01 -5.242669E+01  1.458814E+00  3.511362E+00
       135  23  1.010034E+03  3.934478E+01 -1.347758E+00 -3.676894E+01  2.251888E+00  3.540709E+00
       135  24  1.010502E+03  2.843563E+01 -2.078359E-01 -2.261072E+01  2.707519E+00  3.753520E+00
       135  25  1.015814E+03  5.901789E+01  5.058214E-01 -6.536398E+01  1.134215E+00  3.070025E+00
       135  26  1.010429E+03  4.166370E+01 -1.972294E+00 -4.540348E+01  1.974678E+00  3.314083E+00
       135  27  1.012251E+03  2.714523E+01 -6.398855E-01 -2.638596E+01  2.791472E+00  3.572723E+00
       136   1  1.012989E+03  6.643935E+01  6.421076E-01 -6.680831E+01 -8.299899E-01 -3.093887E+00
       136   2  1.006471E+03  7.073305E+01 -8.458613E-01 -5.757272E+01 -3.566868E-01 -3.912007E+00
       136   3  1.002163E+03  8.092142E+01 -4.890160E-01 -4.746031E+01  1.245554E-01 -4.715222E+00
       136   4  1.010766E+03  6.255509E+01  7.087121E-01 -5.467185E+01 -1.130395E+00 -3.595253E+00
       136   5  1.005384E+03  6.657920E+01 -6.418751E-01 -4.746496E+01 -7.075437E-01 -4.269865E+00
       136   6  1.001456E+03  7.335825E+01 -1.161100E+00 -3.946723E+01 -2.962875E-01 -4.959940E+00
       136   7  1.005757E+03  5.276083E+01 -1.449976E+00 -4.131403E+01 -1.460538E+00 -4.045950E+00
       136   8  1.003596E+03  6.021687E+01 -1.013479E+00 -3.685764E+01 -1.117947E+00 -4.553634E+00
       136   9  1.002954E+03  6.761838E+01 -4.147606E-01 -3.220698E+01 -8.376708E-01 -5.111544E+00
       136  10  1.012989E+03  6.643935E+01  6.421076E-01 -6.680831E+01  0.000000E+00  1.336215E-13
       136  11  1.006471E+03  7.073305E+01 -8.458613E-01 -5.757272E+01 -1.670269E-13 -7.933776E-14
       136  12  1.002163E+03  8.092142E+01 -4.890160E-01 -4.746031E+01 -6.127798E-13 -4.160013E-13
       136  13  1.010766E+03  6.255509E+01  7.087121E-01 -5.467185E+01 -1.169188E-13  1.503242E-13
       136  14  1.005384E+03  6.657920E+01 -6.418751E-01 -4.746496E+01 -2.171349E-13  1.085675E-13
       136  15  1.001456E+03  7.335825E+01 -1.161100E+00 -3.946723E+01 -5.177832E-13 -4.175671E-15
       136  16  1.005757E+03  5.276083E+01 -1.449976E+00 -4.131403E+01 -1.336215E-13  2.213106E-13
       136  17  1.003596E+03  6.021687E+01 -1.013479E+00 -3.685764E+01 -3.006483E-13  4.593238E-14
       136  18  1.002954E+03  6.761838E+01 -4.147606E-01 -3.220698E+01  5.010806E-14 -3.340537E-14
       136  19  1.012989E+03  6.643935E+01  6.421076E-01 -6.680831E+01  8.299899E-01  3.093887E+00
       136  20  1.006471E+03  7.073305E+01 -8.458613E-01 -5.757272E+01  3.566868E-01  3.912007E+00
       136  21  1.002163E+03  8.092142E+01 -4.890160E-01 -4.746031E+01 -1.245554E-01  4.715222E+00
       136  22  1.010766E+03  6.255509E+01  7.087121E-01 -5.467185E+01  1.130395E+00  3.595253E+00
       136  23  1.005384E+03  6.657920E+01 -6.418751E-01 -4.746496E+01  7.075437E-01  4.269865E+00
       136  24  1.001456E+03  7.335825E+01 -1.161100E+00 -3.946723E+01  2.962875E-01  4.959940E+00
       136  25  1.005757E+03  5.276083E+01 -1.449976E+00 -4.131403E+01  1.460538E+00  4.045950E+00
       136  26  1.003596E+03  6.021687E+01 -1.013479E+00 -3.685764E+01  1.117947E+00  4.553634E+00
       136  27  1.002954E+03  6.761838E+01 -4.147606E-01 -3.220698E+01  8.376708E-01  5.111544E+00
       137   1  1.002371E+03  8.809458E+01  6.833898E-01 -3.969819E+01  3.346010E-01 -5.286915E+00
       137   2  1.000694E+03  9.601596E+01  6.438592E-01 -2.333883E+01  2.769444E-01 -6.015332E+00
       137   3  9.991059E+02  1.046344E+02  6.588841E-01 -6.982524E+00  3.164410E-01 -6.527896E+00
       137   4  1.003115E+03  7.865135E+01  2.295810E-01 -3.403442E+01 -2.191350E-01 -5.356020E+00
       137   5  1.000805E+03  8.112707E+01 -5.462408E-01 -2.007898E+01 -1.358019E-01 -5.920290E+00
       137   6  9.996233E+02  8.575073E+01 -4.806912E-01 -5.639985E+00  9.918151E-04 -6.295932E+00
       137   7  1.001429E+03  6.925782E+01 -7.956362E-01 -2.864971E+01 -6.432657E-01 -5.490742E+00
       137   8  9.999783E+02  6.598950E+01 -2.096060E+00 -1.701059E+01 -4.565308E-01 -5.844879E+00
       137   9  1.000477E+03  6.695583E+01 -1.642628E+00 -4.246786E+00 -2.623912E-01 -6.065968E+00
       137  10  1.002371E+03  8.809458E+01  6.833898E-01 -3.969819E+01  4.342698E-13 -7.265668E-13
       137  11  1.000694E+03  9.601596E+01  6.438592E-01 -2.333883E+01 -5.177832E-13 -6.409656E-13
       137  12  9.991059E+02  1.046344E+02  6.588841E-01 -6.982524E+00 -1.068972E-12 -3.794641E-13
       137  13  1.003115E+03  7.865135E+01  2.295810E-01 -3.403442E+01 -2.338376E-13 -3.340537E-13
       137  14  1.000805E+03  8.112707E+01 -5.462408E-01 -2.007898E+01  1.503242E-13 -4.384455E-13
       137  15  9.996233E+02  8.575073E+01 -4.806912E-01 -5.639985E+00 -3.340537E-13 -1.461485E-13
       137  16  1.001429E+03  6.925782E+01 -7.956362E-01 -2.864971E+01 -2.338376E-13  2.714186E-13
       137  17  9.999783E+02  6.598950E+01 -2.096060E+00 -1.701059E+01 -4.676752E-13 -1.315336E-13
       137  18  1.000477E+03  6.695583E+01 -1.642628E+00 -4.246786E+00  2.254863E-13  1.372752E-13
       137  19  1.002371E+03  8.809458E+01  6.833898E-01 -3.969819E+01 -3.346010E-01  5.286915E+00
       137  20  1.000694E+03  9.601596E+01  6.438592E-01 -2.333883E+01 -2.769444E-01  6.015332E+00
       137  21  9.991059E+02  1.046344E+02  6.588841E-01 -6.982524E+00 -3.164410E-01  6.527896E+00
       137  22  1.003115E+03  7.865135E+01  2.295810E-01 -3.403442E+01  2.191350E-01  5.356020E+00
       137  23  1.000805E+03  8.112707E+01 -5.462408E-01 -2.007898E+01  1.358019E-01  5.920290E+00
       137  24  9.996233E+02  8.575073E+01 -4.806912E-01 -5.639985E+00 -9.918151E-04  6.295932E+00
       137  25  1.001429E+03  6.925782E+01 -7.956362E-01 -2.864971E+01  6.432657E-01  5.490742E+00
       137  26  9.999783E+02  6.598950E+01 -2.096060E+00 -1.701059E+01  4.565308E-01  5.844879E+00
       137  27  1.000477E+03  6.695583E+01 -1.642628E+00 -4.246786E+00  2.623912E-01  6.065968E+00
       138   1  1.005176E+03  4.900778E+01 -1.172549E+00 -3.141667E+01 -1.925991E+00 -4.558059E+00
       138   2  1.001706E+03  5.620011E+01 -1.588253E+00 -3.035876E+01 -1.449532E+00 -4.936547E+00
       138   3  1.000113E+03  6.416082E+01 -1.459041E+00 -2.897292E+01 -9.076630E-01 -5.280958E+00
       138   4  1.002674E+03  3.768512E+01 -2.672008E+00 -1.741696E+01 -1.324175E+00 -4.635831E+00
       138   5  1.002062E+03  4.968191E+01 -1.751000E+00 -1.747135E+01 -9.537951E-01 -5.120654E+00
       138   6  1.001481E+03  6.213481E+01 -9.882029E-01 -1.664949E+01 -6.140275E-01 -5.612076E+00
       138   7  1.000375E+03  2.363953E+01 -5.305280E+00 -3.979436E+00 -7.510124E-01 -4.656808E+00
       138   8  1.000632E+03  3.784450E+01 -4.297376E+00 -4.652482E+00 -5.015475E-01 -5.176027E+00
       138   9  9.989781E+02  5.126812E+01 -4.457188E+00 -3.922145E+00 -3.472774E-01 -5.698903E+00
       138  10  1.005176E+03  4.900778E+01 -1.172549E+00 -3.141667E+01 -1.002161E-13  2.672430E-13
       138  11  1.001706E+03  5.620011E+01 -1.588253E+00 -3.035876E+01 -1.670269E-13  9.604044E-14
       138  12  1.000113E+03  6.416082E+01 -1.459041E+00 -2.897292E+01 -1.419728E-13 -8.716714E-14
       138  13  1.002674E+03  3.768512E+01 -2.672008E+00 -1.741696E+01 -3.340537E-13  1.670269E-14
       138  14  1.002062E+03  4.968191E+01 -1.751000E+00 -1.747135E+01 -2.087836E-13  1.002161E-13
       138  15  1.001481E+03  6.213481E+01 -9.882029E-01 -1.664949E+01  4.593238E-13  4.989927E-13
       138  16  1.000375E+03  2.363953E+01 -5.305280E+00 -3.979436E+00  4.676752E-13 -3.966888E-13
       138  17  1.000632E+03  3.784450E+01 -4.297376E+00 -4.652482E+00  2.338376E-13  5.010806E-14
       138  18  9.989781E+02  5.126812E+01 -4.457188E+00 -3.922145E+00  2.338376E-13  5.496227E-13
       138  19  1.005176E+03  4.900778E+01 -1.172549E+00 -3.141667E+01  1.925991E+00  4.558059E+00
       138  20  1.001706E+03  5.620011E+01 -1.588253E+00 -3.035876E+01  1.449532E+00  4.936547E+00
       138  21  1.000113E+03  6.416082E+01 -1.459041E+00 -2.897292E+01  9.076630E-01  5.280958E+00
       138  22  1.002674E+03  3.768512E+01 -2.672008E+00 -1.741696E+01  1.324175E+00  4.635831E+00
       138  23  1.002062E+03  4.968191E+01 -1.751000E+00 -1.747135E+01  9.537951E-01  5.120654E+00
       138  24  1.001481E+03  6.213481E+01 -9.882029E-01 -1.664949E+01  6.140275E-01  5.612076E+00
       138  25  1.000375E+03  2.363953E+01 -5.305280E+00 -3.979436E+00  7.510124E-01  4.656808E+00
       138  26  1.000632E+03  3.784450E+01 -4.297376E+00 -4.652482E+00  5.015475E-01  5.176027E+00
       138  27  9.989781E+02  5.126812E+01 -4.457188E+00 -3.922145E+00  3.472774E-01  5.698903E+00
       139   1  1.400218E+03 -7.163410E+01 -2.064694E+00 -6.415091E+01 -4.194797E+00  2.420090E+01
       139   2  1.429431E+03 -4.303946E+01  3.793522E+00 -6.362712E+01 -5.665947E+00  2.277852E+01
       139   3  1.446800E+03 -1.840197E+01  6.738507E+00 -5.941825E+01 -6.774280E+00  2.098382E+01
       139   4  1.442901E+03 -4.606595E+01  2.619115E+00 -4.038348E+01 -3.211896E+00  2.263887E+01
       139   5  1.467731E+03 -2.456317E+01  8.989906E+00 -4.210790E+01 -4.732247E+00  2.141642E+01
       139   6  1.487124E+03 -7.389249E+00  1.388509E+01 -4.129408E+01 -6.012253E+00  1.987543E+01
       139   7  1.488534E+03 -1.935927E+01  9.821082E+00 -1.661779E+01 -2.402597E+00  2.098673E+01
       139   8  1.500611E+03 -1.077062E+01  1.211022E+01 -2.280052E+01 -3.869739E+00  1.999607E+01
       139   9  1.512674E+03 -1.053910E+01  1.296954E+01 -2.971374E+01 -5.231694E+00  1.879477E+01
       139  10  1.400218E+03 -7.163410E+01 -2.064694E+00 -6.415091E+01 -6.681074E-14 -1.169188E-13
       139  11  1.429431E+03 -4.303946E+01  3.793522E+00 -6.362712E+01  0.000000E+00  1.169188E-13
       139  12  1.446800E+03 -1.840197E+01  6.738507E+00 -5.941825E+01 -2.087836E-13  1.524120E-13
       139  13  1.442901E+03 -4.606595E+01  2.619115E+00 -4.038348E+01 -5.010806E-14  0.000000E+00
       139  14  1.467731E+03 -2.456317E+01  8.989906E+00 -4.210790E+01  1.837295E-13  1.336215E-13
       139  15  1.487124E+03 -7.389249E+00  1.388509E+01 -4.129408E+01  1.670269E-14  5.010806E-14
       139  16  1.488534E+03 -1.935927E+01  9.821082E+00 -1.661779E+01 -1.670269E-14  5.010806E-14
       139  17  1.500611E+03 -1.077062E+01  1.211022E+01 -2.280052E+01  1.169188E-13  1.002161E-13
       139  18  1.512674E+03 -1.053910E+01  1.296954E+01 -2.971374E+01  1.064796E-13 -1.544998E-13
       139  19  1.400218E+03 -7.163410E+01 -2.064694E+00 -6.415091E+01  4.194797E+00 -2.420090E+01
       139  20  1.429431E+03 -4.303946E+01  3.793522E+00 -6.362712E+01  5.665947E+00 -2.277852E+01
       139  21  1.446800E+03 -1.840197E+01  6.738507E+00 -5.941825E+01  6.774280E+00 -2.098382E+01
       139  22  1.442901E+03 -4.606595E+01  2.619115E+00 -4.038348E+01  3.211896E+00 -2.263887E+01
       139  23  1.467731E+03 -2.456317E+01  8.989906E+00 -4.210790E+01  4.732247E+00 -2.141642E+01
       139  24  1.487124E+03 -7.389249E+00  1.388509E+01 -4.129408E+01  6.012253E+00 -1.987543E+01
       139  25  1.488534E+03 -1.935927E+01  9.821082E+00 -1.661779E+01  2.402597E+00 -2.098673E+01
       139  26  1.500611E+03 -1.077062E+01  1.211022E+01 -2.280052E+01  3.869739E+00 -1.999607E+01
       139  27  1.512674E+03 -1.053910E+01  1.296954E+01 -2.971374E+01  5.231694E+00 -1.879477E+01
       140   1  1.460382E+03 -1.069680E+01  8.038431E+00 -5.472892E+01 -7.382997E+00  1.928183E+01
       140   2  1.500942E+03  2.174092E+00  1.890938E+01 -3.630306E+01 -9.411074E+00  1.195186E+01
       140   3  1.531243E+03  1.638017E+00  2.863337E+01 -1.159995E+01 -1.057238E+01  3.831036E+00
       140   4  1.493313E+03 -9.469223E+00  1.115578E+01 -4.208548E+01 -6.545001E+00  1.836791E+01
       140   5  1.532866E+03 -6.443247E+00  1.844136E+01 -2.590611E+01 -8.327112E+00  1.133031E+01
       140   6  1.567948E+03 -8.427724E+00  2.751628E+01 -6.435956E+00 -9.403802E+00  3.811304E+00
       140   7  1.527475E+03 -5.476712E+00  1.606065E+01 -2.927411E+01 -5.739015E+00  1.737605E+01
       140   8  1.570504E+03 -3.729479E-01  2.491539E+01 -1.667390E+01 -7.207453E+00  1.092927E+01
       140   9  1.615700E+03  7.098612E+00  3.844612E+01 -4.410139E+00 -8.220543E+00  4.314834E+00
       140  10  1.460382E+03 -1.069680E+01  8.038431E+00 -5.472892E+01 -3.340537E-13  1.336215E-13
       140  11  1.500942E+03  2.174092E+00  1.890938E+01 -3.630306E+01 -1.002161E-13  8.351343E-15
       140  12  1.531243E+03  1.638017E+00  2.863337E+01 -1.159995E+01  2.338376E-13  1.085675E-13
       140  13  1.493313E+03 -9.469223E+00  1.115578E+01 -4.208548E+01 -2.588916E-13 -2.171349E-13
       140  14  1.532866E+03 -6.443247E+00  1.844136E+01 -2.590611E+01  1.586755E-13 -6.681074E-14
       140  15  1.567948E+03 -8.427724E+00  2.751628E+01 -6.435956E+00 -1.701586E-13  2.922970E-14
       140  16  1.527475E+03 -5.476712E+00  1.606065E+01 -2.927411E+01  2.004322E-13  2.505403E-13
       140  17  1.570504E+03 -3.729479E-01  2.491539E+01 -1.667390E+01 -2.672430E-13  5.845940E-14
       140  18  1.615700E+03  7.098612E+00  3.844612E+01 -4.410139E+00 -4.092158E-13 -3.110875E-13
       140  19  1.460382E+03 -1.069680E+01  8.038431E+00 -5.472892E+01  7.382997E+00 -1.928183E+01
       140  20  1.500942E+03  2.174092E+00  1.890938E+01 -3.630306E+01  9.411074E+00 -1.195186E+01
       140  21  1.531243E+03  1.638017E+00  2.863337E+01 -1.159995E+01  1.057238E+01 -3.831036E+00
       140  22  1.493313E+03 -9.469223E+00  1.115578E+01 -4.208548E+01  6.545001E+00 -1.836791E+01
       140  23  1.532866E+03 -6.443247E+00  1.844136E+01 -2.590611E+01  8.327112E+00 -1.133031E+01
       140  24  1.567948E+03 -8.427724E+00  2.751628E+01 -6.435956E+00  9.403802E+00 -3.811304E+00
       140  25  1.527475E+03 -5.476712E+00  1.606065E+01 -2.927411E+01  5.739015E+00 -1.737605E+01
       140  26  1.570504E+03 -3.729479E-01  2.491539E+01 -1.667390E+01  7.207453E+00 -1.092927E+01
       140  27  1.615700E+03  7.098612E+00  3.844612E+01 -4.410139E+00  8.220543E+00 -4.314834E+00
       141   1  1.517112E+03 -1.986318E+01  1.011488E+01 -6.765056E+00 -2.082189E+00  2.000761E+01
       141   2  1.524753E+03 -5.611572E+00  1.450039E+01 -1.836475E+01 -3.782248E+00  1.914777E+01
       141   3  1.527833E+03 -1.374151E+00  1.568153E+01 -2.828723E+01 -5.285974E+00  1.771039E+01
       141   4  1.579988E+03 -1.019977E+01  2.091865E+01 -2.024343E-01 -3.412546E-01  1.280881E+01
       141   5  1.575270E+03 -8.633240E+00  1.971025E+01 -1.124227E+01 -2.657689E+00  1.192163E+01
       141   6  1.571245E+03 -1.134444E+00  2.232802E+01 -1.680128E+01 -4.953790E+00  1.089856E+01
       141   7  1.645589E+03 -2.603834E+00  3.704500E+01  2.379365E+00  4.626430E-01  5.230250E+00
       141   8  1.639051E+03 -5.566479E+00  3.489368E+01 -5.488653E+00 -2.260866E+00  4.567951E+00
       141   9  1.640871E+03  1.069612E+01  4.352638E+01 -4.533748E+00 -4.990821E+00  4.138029E+00
       141  10  1.517112E+03 -1.986318E+01  1.011488E+01 -6.765056E+00 -6.681074E-14 -1.670269E-14
       141  11  1.524753E+03 -5.611572E+00  1.450039E+01 -1.836475E+01 -3.340537E-14  1.252701E-13
       141  12  1.527833E+03 -1.374151E+00  1.568153E+01 -2.828723E+01 -5.845940E-14  4.384455E-13
       141  13  1.579988E+03 -1.019977E+01  2.091865E+01 -2.024343E-01 -8.351343E-14  9.186477E-14
       141  14  1.575270E+03 -8.633240E+00  1.971025E+01 -1.124227E+01 -3.173510E-13  9.604044E-14
       141  15  1.571245E+03 -1.134444E+00  2.232802E+01 -1.680128E+01  1.670269E-14 -2.922970E-14
       141  16  1.645589E+03 -2.603834E+00  3.704500E+01  2.379365E+00  2.087836E-13  3.340537E-14
       141  17  1.639051E+03 -5.566479E+00  3.489368E+01 -5.488653E+00 -1.419728E-13 -1.920809E-13
       141  18  1.640871E+03  1.069612E+01  4.352638E+01 -4.533748E+00 -2.505403E-14 -4.321820E-13
       141  19  1.517112E+03 -1.986318E+01  1.011488E+01 -6.765056E+00  2.082189E+00 -2.000761E+01
       141  20  1.524753E+03 -5.611572E+00  1.450039E+01 -1.836475E+01  3.782248E+00 -1.914777E+01
       141  21  1.527833E+03 -1.374151E+00  1.568153E+01 -2.828723E+01  5.285974E+00 -1.771039E+01
       141  22  1.579988E+03 -1.019977E+01  2.091865E+01 -2.024343E-01  3.412546E-01 -1.280881E+01
       141  23  1.575270E+03 -8.633240E+00  1.971025E+01 -1.124227E+01  2.657689E+00 -1.192163E+01
       141  24  1.571245E+03 -1.134444E+00  2.232802E+01 -1.680128E+01  4.953790E+00 -1.089856E+01
       141  25  1.645589E+03 -2.603834E+00  3.704500E+01  2.379365E+00 -4.626430E-01 -5.230250E+00
       141  26  1.639051E+03 -5.566479E+00  3.489368E+01 -5.488653E+00  2.260866E+00 -4.567951E+00
       141  27  1.640871E+03  1.069612E+01  4.352638E+01 -4.533748E+00  4.990821E+00 -4.138029E+00
       142   1  1.637177E+03  3.473264E-01  3.637381E+01  8.424929E+00  3.217037E+00  5.525506E+00
       142   2  1.596708E+03 -2.048129E+00  2.803175E+01  1.079205E+01  6.664524E+00  3.919334E+00
       142   3  1.568855E+03  2.204039E+01  3.469550E+01  1.575274E+01  1.009159E+01  1.555965E+00
       142   4  1.582150E+03 -6.213341E+00  2.303031E+01  9.385349E+00  1.500100E+00  1.274354E+01
       142   5  1.557892E+03 -1.459727E+01  1.440109E+01  1.662489E+01  4.292236E+00  1.060093E+01
       142   6  1.547513E+03  3.465828E-01  1.955960E+01  3.265452E+01  6.906418E+00  7.104652E+00
       142   7  1.526694E+03 -1.692100E+01  1.356965E+01  6.419153E+00  4.680337E-01  2.031553E+01
       142   8  1.527334E+03 -3.385581E+01  5.981164E+00  1.942332E+01  2.327477E+00  1.758686E+01
       142   9  1.549830E+03 -3.381059E+01  1.201887E+01  5.189469E+01  3.576539E+00  1.249967E+01
       142  10  1.637177E+03  3.473264E-01  3.637381E+01  8.424929E+00  8.768910E-14  1.002161E-13
       142  11  1.596708E+03 -2.048129E+00  2.803175E+01  1.079205E+01 -4.175671E-14 -7.516208E-14
       142  12  1.568855E+03  2.204039E+01  3.469550E+01  1.575274E+01  1.544998E-13 -1.440607E-13
       142  13  1.582150E+03 -6.213341E+00  2.303031E+01  9.385349E+00 -3.340537E-14 -1.670269E-14
       142  14  1.557892E+03 -1.459727E+01  1.440109E+01  1.662489E+01  1.169188E-13  1.336215E-13
       142  15  1.547513E+03  3.465828E-01  1.955960E+01  3.265452E+01  1.169188E-13  1.503242E-13
       142  16  1.526694E+03 -1.692100E+01  1.356965E+01  6.419153E+00 -1.336215E-13  0.000000E+00
       142  17  1.527334E+03 -3.385581E+01  5.981164E+00  1.942332E+01 -3.340537E-14  7.516208E-14
       142  18  1.549830E+03 -3.381059E+01  1.201887E+01  5.189469E+01  1.336215E-13 -2.213106E-13
       142  19  1.637177E+03  3.473264E-01  3.637381E+01  8.424929E+00 -3.217037E+00 -5.525506E+00
       142  20  1.596708E+03 -2.048129E+00  2.803175E+01  1.079205E+01 -6.664524E+00 -3.919334E+00
       142  21  1.568855E+03  2.204039E+01  3.469550E+01  1.575274E+01 -1.009159E+01 -1.555965E+00
       142  22  1.582150E+03 -6.213341E+00  2.303031E+01  9.385349E+00 -1.500100E+00 -1.274354E+01
       142  23  1.557892E+03 -1.459727E+01  1.440109E+01  1.662489E+01 -4.292236E+00 -1.060093E+01
       142  24  1.547513E+03  3.465828E-01  1.955960E+01  3.265452E+01 -6.906418E+00 -7.104652E+00
       142  25  1.526694E+03 -1.692100E+01  1.356965E+01  6.419153E+00 -4.680337E-01 -2.031553E+01
       142  26  1.527334E+03 -3.385581E+01  5.981164E+00  1.942332E+01 -2.327477E+00 -1.758686E+01
       142  27  1.549830E+03 -3.381059E+01  1.201887E+01  5.189469E+01 -3.576539E+00 -1.249967E+01
       143   1  1.482216E+03 -1.785539E+01  3.176276E+00  3.713538E+00  1.411984E+01  1.950697E+00
       143   2  1.403004E+03 -1.243740E+01 -5.703887E+00  2.584168E+01  1.605628E+01 -2.228982E+00
       143   3  1.326787E+03 -2.971336E+00 -1.087499E+01  3.902999E+01  1.795239E+01 -5.008137E+00
       143   4  1.552909E+03  1.883881E+01  3.019558E+01  4.940606E+01  9.762031E+00  6.952422E+00
       143   5  1.487862E+03  6.364476E+00  1.383497E+01  5.540573E+01  1.133197E+01  4.997000E+00
       143   6  1.423331E+03 -3.755762E+00 -9.576550E-01  6.261369E+01  1.282415E+01  3.450313E+00
       143   7  1.524520E+03 -1.187218E+01  1.230947E+01  5.543641E+01  5.199526E+00  1.169000E+01
       143   8  1.523812E+03 -2.245955E+01  1.272650E+01  6.101338E+01  5.460014E+00  1.038155E+01
       143   9  1.501678E+03 -3.977442E+01  4.515572E+00  7.579462E+01  5.955996E+00  8.716784E+00
       143  10  1.482216E+03 -1.785539E+01  3.176276E+00  3.713538E+00 -3.257024E-13 -4.008645E-13
       143  11  1.403004E+03 -1.243740E+01 -5.703887E+00  2.584168E+01 -2.505403E-14 -3.006483E-13
       143  12  1.326787E+03 -2.971336E+00 -1.087499E+01  3.902999E+01  2.046079E-13  1.002161E-13
       143  13  1.552909E+03  1.883881E+01  3.019558E+01  4.940606E+01 -2.338376E-13 -4.008645E-13
       143  14  1.487862E+03  6.364476E+00  1.383497E+01  5.540573E+01 -2.505403E-13 -1.336215E-13
       143  15  1.423331E+03 -3.755762E+00 -9.576550E-01  6.261369E+01  1.670269E-14 -9.186477E-14
       143  16  1.524520E+03 -1.187218E+01  1.230947E+01  5.543641E+01 -1.336215E-13  1.002161E-13
       143  17  1.523812E+03 -2.245955E+01  1.272650E+01  6.101338E+01 -1.544998E-13  1.670269E-13
       143  18  1.501678E+03 -3.977442E+01  4.515572E+00  7.579462E+01 -1.879052E-13  1.252701E-13
       143  19  1.482216E+03 -1.785539E+01  3.176276E+00  3.713538E+00 -1.411984E+01 -1.950697E+00
       143  20  1.403004E+03 -1.243740E+01 -5.703887E+00  2.584168E+01 -1.605628E+01  2.228982E+00
       143  21  1.326787E+03 -2.971336E+00 -1.087499E+01  3.902999E+01 -1.795239E+01  5.008137E+00
       143  22  1.552909E+03  1.883881E+01  3.019558E+01  4.940606E+01 -9.762031E+00 -6.952422E+00
       143  23  1.487862E+03  6.364476E+00  1.383497E+01  5.540573E+01 -1.133197E+01 -4.997000E+00
       143  24  1.423331E+03 -3.755762E+00 -9.576550E-01  6.261369E+01 -1.282415E+01 -3.450313E+00
       143  25  1.524520E+03 -1.187218E+01  1.230947E+01  5.543641E+01 -5.199526E+00 -1.169000E+01
       143  26  1.523812E+03 -2.245955E+01  1.272650E+01  6.101338E+01 -5.460014E+00 -1.038155E+01
       143  27  1.501678E+03 -3.977442E+01  4.515572E+00  7.579462E+01 -5.955996E+00 -8.716784E+00
       144   1  1.501536E+03 -1.831005E+01  1.339453E+01  4.412238E-02 -9.772169E-01  2.072183E+01
       144   2  1.508845E+03 -4.302348E+01  2.799764E+00  1.857074E+01  8.764696E-01  1.803486E+01
       144   3  1.521205E+03 -2.791158E+01  7.899581E+00  2.845944E+01  2.561342E+00  1.485415E+01
       144   4  1.454241E+03 -5.067539E+01  3.245661E+00 -2.714701E+01 -2.860386E+00  2.186122E+01
       144   5  1.483573E+03 -4.558863E+01  2.745273E+00  1.610004E+01 -4.266321E-01  1.895516E+01
       144   6  1.501631E+03 -4.313395E+01  1.835499E+00  5.054000E+01  1.394032E+00  1.467117E+01
       144   7  1.428744E+03 -6.647909E+01  5.787122E+00 -4.638738E+01 -4.268013E+00  2.319223E+01
       144   8  1.477137E+03 -3.951838E+01  1.140659E+01  1.554309E+01 -1.604078E+00  1.988850E+01
       144   9  1.503609E+03 -4.377394E+01  6.377472E+00  6.622454E+01  3.903140E-02  1.459587E+01
       144  10  1.501536E+03 -1.831005E+01  1.339453E+01  4.412238E-02  6.681074E-14  0.000000E+00
       144  11  1.508845E+03 -4.302348E+01  2.799764E+00  1.857074E+01  3.340537E-14 -6.681074E-14
       144  12  1.521205E+03 -2.791158E+01  7.899581E+00  2.845944E+01  2.140032E-13  4.175671E-14
       144  13  1.454241E+03 -5.067539E+01  3.245661E+00 -2.714701E+01 -5.010806E-13 -2.087836E-13
       144  14  1.483573E+03 -4.558863E+01  2.745273E+00  1.610004E+01 -8.351343E-14 -2.046079E-13
       144  15  1.501631E+03 -4.313395E+01  1.835499E+00  5.054000E+01  1.336215E-13 -2.087836E-13
       144  16  1.428744E+03 -6.647909E+01  5.787122E+00 -4.638738E+01 -4.676752E-13 -2.672430E-13
       144  17  1.477137E+03 -3.951838E+01  1.140659E+01  1.554309E+01 -3.006483E-13 -3.340537E-13
       144  18  1.503609E+03 -4.377394E+01  6.377472E+00  6.622454E+01  2.505403E-14 -3.716348E-13
       144  19  1.501536E+03 -1.831005E+01  1.339453E+01  4.412238E-02  9.772169E-01 -2.072183E+01
       144  20  1.508845E+03 -4.302348E+01  2.799764E+00  1.857074E+01 -8.764696E-01 -1.803486E+01
       144  21  1.521205E+03 -2.791158E+01  7.899581E+00  2.845944E+01 -2.561342E+00 -1.485415E+01
       144  22  1.454241E+03 -5.067539E+01  3.245661E+00 -2.714701E+01  2.860386E+00 -2.186122E+01
       144  23  1.483573E+03 -4.558863E+01  2.745273E+00  1.610004E+01  4.266321E-01 -1.895516E+01
       144  24  1.501631E+03 -4.313395E+01  1.835499E+00  5.054000E+01 -1.394032E+00 -1.467117E+01
       144  25  1.428744E+03 -6.647909E+01  5.787122E+00 -4.638738E+01  4.268013E+00 -2.319223E+01
       144  26  1.477137E+03 -3.951838E+01  1.140659E+01  1.554309E+01  1.604078E+00 -1.988850E+01
       144  27  1.503609E+03 -4.377394E+01  6.377472E+00  6.622454E+01 -3.903140E-02 -1.459587E+01
       145   1  1.003808E+03  2.545769E+02  1.432337E+01 -4.422146E-01 -4.262082E+00  3.643977E-01
       145   2  1.002569E+03  2.498047E+02  1.313346E+01 -2.031243E+00 -4.241641E+00  1.299956E+00
       145   3  1.003414E+03  2.461540E+02  1.359788E+01 -3.751751E+00 -4.045622E+00  2.235342E+00
       145   4  9.900962E+02  2.110226E+02  3.156337E+00 -1.804653E+00 -6.474441E+00  4.105323E-01
       145   5  9.897178E+02  2.069211E+02  2.429485E+00 -8.056630E+00 -6.357264E+00  1.176280E+00
       145   6  9.907209E+02  2.036164E+02  2.972217E+00 -1.444231E+01 -6.083458E+00  1.941397E+00
       145   7  9.851299E+02  1.860107E+02  2.651410E+00 -3.466859E+00 -8.689065E+00  3.192179E-01
       145   8  9.855260E+02  1.825028E+02  2.214370E+00 -1.386257E+01 -8.481175E+00  9.394413E-01
       145   9  9.866984E+02  1.795080E+02  2.703399E+00 -2.439193E+01 -8.132848E+00  1.558736E+00
       145  10  1.003808E+03  2.545769E+02  1.432337E+01 -4.422146E-01  1.002161E-13 -1.920483E-13
       145  11  1.002569E+03  2.498047E+02  1.313346E+01 -2.031243E+00  7.850262E-13  1.671900E-14
       145  12  1.003414E+03  2.461540E+02  1.359788E+01 -3.751751E+00  1.879052E-13  2.671002E-13
       145  13  9.900962E+02  2.110226E+02  3.156337E+00 -1.804653E+00  2.385352E-13 -1.167883E-13
       145  14  9.897178E+02  2.069211E+02  2.429485E+00 -8.056630E+00  6.086041E-13  1.787709E-14
       145  15  9.907209E+02  2.036164E+02  2.972217E+00 -1.444231E+01  2.881213E-13  1.162990E-13
       145  16  9.851299E+02  1.860107E+02  2.651410E+00 -3.466859E+00 -1.336215E-13  5.888349E-14
       145  17  9.855260E+02  1.825028E+02  2.214370E+00 -1.386257E+01 -1.503242E-13  7.976185E-15
       145  18  9.866984E+02  1.795080E+02  2.703399E+00 -2.439193E+01  3.758104E-14 -8.444317E-14
       145  19  1.003808E+03  2.545769E+02  1.432337E+01 -4.422146E-01  4.262082E+00 -3.643977E-01
       145  20  1.002569E+03  2.498047E+02  1.313346E+01 -2.031243E+00  4.241641E+00 -1.299956E+00
       145  21  1.003414E+03  2.461540E+02  1.359788E+01 -3.751751E+00  4.045622E+00 -2.235342E+00
       145  22  9.900962E+02  2.110226E+02  3.156337E+00 -1.804653E+00  6.474441E+00 -4.105323E-01
       145  23  9.897178E+02  2.069211E+02  2.429485E+00 -8.056630E+00  6.357264E+00 -1.176280E+00
       145  24  9.907209E+02  2.036164E+02  2.972217E+00 -1.444231E+01  6.083458E+00 -1.941397E+00
       145  25  9.851299E+02  1.860107E+02  2.651410E+00 -3.466859E+00  8.689065E+00 -3.192179E-01
       145  26  9.855260E+02  1.825028E+02  2.214370E+00 -1.386257E+01  8.481175E+00 -9.394413E-01
       145  27  9.866984E+02  1.795080E+02  2.703399E+00 -2.439193E+01  8.132848E+00 -1.558736E+00
       146   1  1.003202E+03  2.407283E+02  1.302233E+01 -4.642341E+00 -3.870539E+00  2.927633E+00
       146   2  1.002169E+03  2.283433E+02  1.145280E+01 -5.734648E+00 -3.584048E+00  3.710988E+00
       146   3  1.001854E+03  2.164583E+02  1.082897E+01 -7.278440E+00 -3.154561E+00  4.494209E+00
       146   4  9.911700E+02  1.991869E+02  2.841685E+00 -1.780378E+01 -5.812364E+00  2.635382E+00
       146   5  9.918533E+02  1.883942E+02  2.170416E+00 -2.255369E+01 -5.316522E+00  3.283581E+00
       146   6  9.928277E+02  1.779035E+02  2.199809E+00 -2.773102E+01 -4.692320E+00  3.931262E+00
       146   7  9.868392E+02  1.744564E+02  2.121147E+00 -3.065452E+01 -7.799820E+00  2.064325E+00
       146   8  9.890507E+02  1.649900E+02  1.923071E+00 -3.866701E+01 -7.106538E+00  2.595994E+00
       146   9  9.911848E+02  1.556513E+02  2.205222E+00 -4.708492E+01 -6.297417E+00  3.126889E+00
       146  10  1.003202E+03  2.407283E+02  1.302233E+01 -4.642341E+00 -6.681074E-14  7.015128E-13
       146  11  1.002169E+03  2.283433E+02  1.145280E+01 -5.734648E+00  1.169188E-13  6.602780E-14
       146  12  1.001854E+03  2.164583E+02  1.082897E+01 -7.278440E+00 -6.597561E-13 -7.002079E-13
       146  13  9.911700E+02  1.991869E+02  2.841685E+00 -1.780378E+01  6.973371E-13  3.330098E-13
       146  14  9.918533E+02  1.883942E+02  2.170416E+00 -2.255369E+01  4.467968E-13  1.691147E-13
       146  15  9.928277E+02  1.779035E+02  2.199809E+00 -2.773102E+01  5.010806E-13 -1.539779E-14
       146  16  9.868392E+02  1.744564E+02  2.121147E+00 -3.065452E+01  2.338376E-13 -1.769441E-13
       146  17  9.890507E+02  1.649900E+02  1.923071E+00 -3.866701E+01  6.347020E-13  5.663254E-14
       146  18  9.911848E+02  1.556513E+02  2.205222E+00 -4.708492E+01  3.236145E-13  3.228968E-13
       146  19  1.003202E+03  2.407283E+02  1.302233E+01 -4.642341E+00  3.870539E+00 -2.927633E+00
       146  20  1.002169E+03  2.283433E+02  1.145280E+01 -5.734648E+00  3.584048E+00 -3.710988E+00
       146  21  1.001854E+03  2.164583E+02  1.082897E+01 -7.278440E+00  3.154561E+00 -4.494209E+00
       146  22  9.911700E+02  1.991869E+02  2.841685E+00 -1.780378E+01  5.812364E+00 -2.635382E+00
       146  23  9.918533E+02  1.883942E+02  2.170416E+00 -2.255369E+01  5.316522E+00 -3.283581E+00
       146  24  9.928277E+02  1.779035E+02  2.199809E+00 -2.773102E+01  4.692320E+00 -3.931262E+00
       146  25  9.868392E+02  1.744564E+02  2.121147E+00 -3.065452E+01  7.799820E+00 -2.064325E+00
       146  26  9.890507E+02  1.649900E+02  1.923071E+00 -3.866701E+01  7.106538E+00 -2.595994E+00
       146  27  9.911848E+02  1.556513E+02  2.205222E+00 -4.708492E+01  6.297417E+00 -3.126889E+00
       147   1  9.786760E+02  1.631713E+02  1.564861E+00 -3.758578E+01 -7.562871E+00  1.660032E+00
       147   2  9.802867E+02  1.530105E+02  6.368953E-01 -4.760489E+01 -6.822852E+00  2.075246E+00
       147   3  9.836242E+02  1.437080E+02  8.652534E-01 -5.731386E+01 -5.822768E+00  2.488378E+00
       147   4  9.612860E+02  1.478979E+02  2.496692E-01 -4.857881E+01 -7.268889E+00  9.281695E-01
       147   5  9.671409E+02  1.376062E+02 -1.795627E-01 -6.142211E+01 -6.445548E+00  1.073431E+00
       147   6  9.740617E+02  1.278134E+02  9.179419E-03 -7.402956E+01 -5.392732E+00  1.216383E+00
       147   7  9.451456E+02  1.377230E+02  3.786723E-01 -6.097759E+01 -6.992829E+00  8.684299E-02
       147   8  9.550342E+02  1.273689E+02  2.011828E-01 -7.637010E+01 -6.085209E+00 -5.077423E-03
       147   9  9.653927E+02  1.171828E+02  1.313729E-01 -9.159098E+01 -4.974911E+00 -9.940331E-02
       147  10  9.786760E+02  1.631713E+02  1.564861E+00 -3.758578E+01 -1.336215E-13 -3.570199E-13
       147  11  9.802867E+02  1.530105E+02  6.368953E-01 -4.760489E+01  6.681074E-14 -7.829384E-14
       147  12  9.836242E+02  1.437080E+02  8.652534E-01 -5.731386E+01 -1.210945E-13  2.113934E-13
       147  13  9.612860E+02  1.478979E+02  2.496692E-01 -4.857881E+01 -1.148310E-13 -1.816417E-13
       147  14  9.671409E+02  1.376062E+02 -1.795627E-01 -6.142211E+01 -3.591077E-13 -1.701586E-13
       147  15  9.740617E+02  1.278134E+02  9.179419E-03 -7.402956E+01  5.804183E-13 -1.291848E-13
       147  16  9.451456E+02  1.377230E+02  3.786723E-01 -6.097759E+01  1.336215E-13  2.797700E-13
       147  17  9.550342E+02  1.273689E+02  2.011828E-01 -7.637010E+01  1.670269E-14 -5.323981E-14
       147  18  9.653927E+02  1.171828E+02  1.313729E-01 -9.159098E+01 -4.781144E-13 -3.211352E-13
       147  19  9.786760E+02  1.631713E+02  1.564861E+00 -3.758578E+01  7.562871E+00 -1.660032E+00
       147  20  9.802867E+02  1.530105E+02  6.368953E-01 -4.760489E+01  6.822852E+00 -2.075246E+00
       147  21  9.836242E+02  1.437080E+02  8.652534E-01 -5.731386E+01  5.822768E+00 -2.488378E+00
       147  22  9.612860E+02  1.478979E+02  2.496692E-01 -4.857881E+01  7.268889E+00 -9.281695E-01
       147  23  9.671409E+02  1.376062E+02 -1.795627E-01 -6.142211E+01  6.445548E+00 -1.073431E+00
       147  24  9.740617E+02  1.278134E+02  9.179419E-03 -7.402956E+01  5.392732E+00 -1.216383E+00
       147  25  9.451456E+02  1.377230E+02  3.786723E-01 -6.097759E+01  6.992829E+00 -8.684299E-02
       147  26  9.550342E+02  1.273689E+02  2.011828E-01 -7.637010E+01  6.085209E+00  5.077423E-03
       147  27  9.653927E+02  1.171828E+02  1.313729E-01 -9.159098E+01  4.974911E+00  9.940331E-02
       148   1  9.758625E+02  1.745580E+02  2.182748E+00 -4.142941E+00 -8.599043E+00  2.656386E-01
       148   2  9.744910E+02  1.701164E+02  8.343633E-01 -1.724185E+01 -8.430025E+00  7.450624E-01
       148   3  9.775524E+02  1.677143E+02  1.862502E+00 -3.018556E+01 -7.952802E+00  1.222031E+00
       148   4  9.529482E+02  1.585805E+02  4.998200E-03 -4.980423E+00 -8.358478E+00  2.249768E-01
       148   5  9.537841E+02  1.543036E+02 -8.144658E-01 -2.246562E+01 -8.163754E+00  3.809087E-01
       148   6  9.579121E+02  1.514844E+02 -5.618152E-02 -3.983257E+01 -7.697565E+00  5.341162E-01
       148   7  9.331773E+02  1.502542E+02  7.958157E-01 -6.776180E+00 -8.118765E+00  1.327387E-01
       148   8  9.361255E+02  1.461931E+02  4.348767E-01 -2.821537E+01 -7.898359E+00  4.823509E-03
       148   9  9.413454E+02  1.430598E+02  9.046554E-01 -4.956733E+01 -7.438695E+00 -1.259271E-01
       148  10  9.758625E+02  1.745580E+02  2.182748E+00 -4.142941E+00  3.340537E-14  2.531501E-14
       148  11  9.744910E+02  1.701164E+02  8.343633E-01 -1.724185E+01  8.351343E-14  4.335521E-14
       148  12  9.775524E+02  1.677143E+02  1.862502E+00 -3.018556E+01 -1.043918E-13 -3.491416E-14
       148  13  9.529482E+02  1.585805E+02  4.998200E-03 -4.980423E+00 -2.870774E-15  2.344900E-13
       148  14  9.537841E+02  1.543036E+02 -8.144658E-01 -2.246562E+01 -2.599355E-13  1.017167E-13
       148  15  9.579121E+02  1.514844E+02 -5.618152E-02 -3.983257E+01  6.263507E-14  5.167393E-14
       148  16  9.331773E+02  1.502542E+02  7.958157E-01 -6.776180E+00 -3.340537E-14  1.999103E-13
       148  17  9.361255E+02  1.461931E+02  4.348767E-01 -2.821537E+01  2.505403E-13  4.257227E-14
       148  18  9.413454E+02  1.430598E+02  9.046554E-01 -4.956733E+01  5.261346E-13 -5.057700E-14
       148  19  9.758625E+02  1.745580E+02  2.182748E+00 -4.142941E+00  8.599043E+00 -2.656386E-01
       148  20  9.744910E+02  1.701164E+02  8.343633E-01 -1.724185E+01  8.430025E+00 -7.450624E-01
       148  21  9.775524E+02  1.677143E+02  1.862502E+00 -3.018556E+01  7.952802E+00 -1.222031E+00
       148  22  9.529482E+02  1.585805E+02  4.998200E-03 -4.980423E+00  8.358478E+00 -2.249768E-01
       148  23  9.537841E+02  1.543036E+02 -8.144658E-01 -2.246562E+01  8.163754E+00 -3.809087E-01
       148  24  9.579121E+02  1.514844E+02 -5.618152E-02 -3.983257E+01  7.697565E+00 -5.341162E-01
       148  25  9.331773E+02  1.502542E+02  7.958157E-01 -6.776180E+00  8.118765E+00 -1.327387E-01
       148  26  9.361255E+02  1.461931E+02  4.348767E-01 -2.821537E+01  7.898359E+00 -4.823509E-03
       148  27  9.413454E+02  1.430598E+02  9.046554E-01 -4.956733E+01  7.438695E+00  1.259271E-01
       149   1  7.952708E+02 -2.279151E+02 -3.855162E+00 -3.379426E+02 -1.767575E+01 -4.838944E+01
       149   2  9.652862E+02 -2.328188E+02  1.965216E+00 -2.978486E+02 -5.790446E+00 -4.511952E+01
       149   3  1.095232E+03 -2.565406E+02 -7.942556E+00 -2.665514E+02  6.383268E-01 -4.242421E+01
       149   4  8.140914E+02 -3.231137E+02 -1.198370E+01 -3.350777E+02 -8.104169E+00 -6.484788E+01
       149   5  1.017045E+03 -2.936368E+02 -7.755427E-01 -2.844875E+02  4.177412E+00 -5.507216E+01
       149   6  1.187539E+03 -2.767889E+02  5.590039E+00 -2.422180E+02  1.124537E+01 -4.567830E+01
       149   7  8.319382E+02 -4.120970E+02 -2.954588E+01 -3.400081E+02  1.467273E+00 -8.161649E+01
       149   8  1.067087E+03 -3.487616E+02 -1.366717E+01 -2.799017E+02  1.413584E+01 -6.559408E+01
       149   9  1.277214E+03 -2.919718E+02  8.170978E+00 -2.277126E+02  2.182388E+01 -4.978254E+01
       149  10  7.952708E+02 -2.279151E+02 -3.855162E+00 -3.379426E+02  8.351343E-14 -1.920809E-13
       149  11  9.652862E+02 -2.328188E+02  1.965216E+00 -2.978486E+02 -1.085675E-13  7.516208E-14
       149  12  1.095232E+03 -2.565406E+02 -7.942556E+00 -2.665514E+02 -4.634995E-13  3.789422E-13
       149  13  8.140914E+02 -3.231137E+02 -1.198370E+01 -3.350777E+02 -1.791481E-13  9.186477E-14
       149  14  1.017045E+03 -2.936368E+02 -7.755427E-01 -2.844875E+02 -2.241814E-13  1.920809E-13
       149  15  1.187539E+03 -2.767889E+02  5.590039E+00 -2.422180E+02 -8.299147E-14  3.069118E-13
       149  16  8.319382E+02 -4.120970E+02 -2.954588E+01 -3.400081E+02 -1.670269E-13  5.219589E-14
       149  17  1.067087E+03 -3.487616E+02 -1.366717E+01 -2.799017E+02  1.336215E-13  8.977693E-14
       149  18  1.277214E+03 -2.919718E+02  8.170978E+00 -2.277126E+02  2.129592E-13  1.085675E-13
       149  19  7.952708E+02 -2.279151E+02 -3.855162E+00 -3.379426E+02  1.767575E+01  4.838944E+01
       149  20  9.652862E+02 -2.328188E+02  1.965216E+00 -2.978486E+02  5.790446E+00  4.511952E+01
       149  21  1.095232E+03 -2.565406E+02 -7.942556E+00 -2.665514E+02 -6.383268E-01  4.242421E+01
       149  22  8.140914E+02 -3.231137E+02 -1.198370E+01 -3.350777E+02  8.104169E+00  6.484788E+01
       149  23  1.017045E+03 -2.936368E+02 -7.755427E-01 -2.844875E+02 -4.177412E+00  5.507216E+01
       149  24  1.187539E+03 -2.767889E+02  5.590039E+00 -2.422180E+02 -1.124537E+01  4.567830E+01
       149  25  8.319382E+02 -4.120970E+02 -2.954588E+01 -3.400081E+02 -1.467273E+00  8.161649E+01
       149  26  1.067087E+03 -3.487616E+02 -1.366717E+01 -2.799017E+02 -1.413584E+01  6.559408E+01
       149  27  1.277214E+03 -2.919718E+02  8.170978E+00 -2.277126E+02 -2.182388E+01  4.978254E+01
       150   1  1.171538E+03 -2.473219E+02 -5.419683E+00 -2.273352E+02  3.062463E+00 -3.948383E+01
       150   2  1.288281E+03 -2.084074E+02  5.629995E+00 -1.598155E+02  6.921578E+00 -3.370467E+01
       150   3  1.351711E+03 -1.917900E+02 -8.435745E-01 -9.779166E+01  7.911145E+00 -2.822775E+01
       150   4  1.258528E+03 -2.862327E+02 -1.654782E+00 -1.943720E+02  1.319988E+01 -4.286331E+01
       150   5  1.360124E+03 -2.426117E+02  3.269091E+00 -1.174525E+02  1.502456E+01 -3.406203E+01
       150   6  1.411683E+03 -2.185074E+02 -4.193007E+00 -4.582042E+01  1.397630E+01 -2.547120E+01
       150   7  1.351107E+03 -3.055869E+02 -1.381961E+00 -1.543242E+02  2.342887E+01 -4.415000E+01
       150   8  1.439927E+03 -2.544051E+02  1.540924E+00 -6.815122E+01  2.325869E+01 -3.231377E+01
       150   9  1.481983E+03 -2.199129E+02 -2.771790E+00  1.292532E+01  2.021467E+01 -2.059924E+01
       150  10  1.171538E+03 -2.473219E+02 -5.419683E+00 -2.273352E+02 -3.340537E-13  7.516208E-14
       150  11  1.288281E+03 -2.084074E+02  5.629995E+00 -1.598155E+02 -2.004322E-13 -8.351343E-14
       150  12  1.351711E+03 -1.917900E+02 -8.435745E-01 -9.779166E+01 -3.340537E-13 -2.359254E-13
       150  13  1.258528E+03 -2.862327E+02 -1.654782E+00 -1.943720E+02  2.035640E-14  4.175671E-14
       150  14  1.360124E+03 -2.426117E+02  3.269091E+00 -1.174525E+02  1.012600E-13 -4.175671E-14
       150  15  1.411683E+03 -2.185074E+02 -4.193007E+00 -4.582042E+01  6.889858E-14 -1.252701E-13
       150  16  1.351107E+03 -3.055869E+02 -1.381961E+00 -1.543242E+02  4.342698E-13  1.670269E-14
       150  17  1.439927E+03 -2.544051E+02  1.540924E+00 -6.815122E+01  5.010806E-13  8.351343E-15
       150  18  1.481983E+03 -2.199129E+02 -2.771790E+00  1.292532E+01  3.674591E-13 -3.862496E-14
       150  19  1.171538E+03 -2.473219E+02 -5.419683E+00 -2.273352E+02 -3.062463E+00  3.948383E+01
       150  20  1.288281E+03 -2.084074E+02  5.629995E+00 -1.598155E+02 -6.921578E+00  3.370467E+01
       150  21  1.351711E+03 -1.917900E+02 -8.435745E-01 -9.779166E+01 -7.911145E+00  2.822775E+01
       150  22  1.258528E+03 -2.862327E+02 -1.654782E+00 -1.943720E+02 -1.319988E+01  4.286331E+01
       150  23  1.360124E+03 -2.426117E+02  3.269091E+00 -1.174525E+02 -1.502456E+01  3.406203E+01
       150  24  1.411683E+03 -2.185074E+02 -4.193007E+00 -4.582042E+01 -1.397630E+01  2.547120E+01
       150  25  1.351107E+03 -3.055869E+02 -1.381961E+00 -1.543242E+02 -2.342887E+01  4.415000E+01
       150  26  1.439927E+03 -2.544051E+02  1.540924E+00 -6.815122E+01 -2.325869E+01  3.231377E+01
       150  27  1.481983E+03 -2.199129E+02 -2.771790E+00  1.292532E+01 -2.021467E+01  2.059924E+01
       151   1  1.363425E+03 -3.180639E+02 -1.952893E+01 -1.141694E+02  3.236601E+01 -4.348312E+01
       151   2  1.480661E+03 -2.498110E+02 -1.841857E+00 -2.805898E+01  2.963413E+01 -3.037848E+01
       151   3  1.533167E+03 -2.050314E+02  2.646693E+00  5.607112E+01  2.552482E+01 -1.730812E+01
       151   4  1.543028E+03 -2.461403E+02  7.507985E+00 -9.133230E+01  5.438358E+01 -3.662171E+01
       151   5  1.593084E+03 -1.989409E+02  6.878013E+00  5.455244E+00  4.428513E+01 -2.197321E+01
       151   6  1.578160E+03 -1.746301E+02 -5.145133E+00  1.002189E+02  3.243923E+01 -7.317216E+00
       151   7  1.728703E+03 -1.484332E+02  2.079991E+01 -4.640214E+01  7.669513E+01 -2.304370E+01
       151   8  1.718945E+03 -1.145193E+02  1.495290E+01  6.169799E+01  5.937682E+01 -6.492981E+00
       151   9  1.644141E+03 -1.027331E+02 -3.735249E-01  1.677683E+02  3.996374E+01  1.012572E+01
       151  10  1.363425E+03 -3.180639E+02 -1.952893E+01 -1.141694E+02 -1.336215E-13  3.340537E-14
       151  11  1.480661E+03 -2.498110E+02 -1.841857E+00 -2.805898E+01 -1.169188E-13 -1.670269E-14
       151  12  1.533167E+03 -2.050314E+02  2.646693E+00  5.607112E+01 -2.087836E-14 -1.879052E-14
       151  13  1.543028E+03 -2.461403E+02  7.507985E+00 -9.133230E+01  1.404069E-13 -6.681074E-14
       151  14  1.593084E+03 -1.989409E+02  6.878013E+00  5.455244E+00  4.175671E-15 -1.670269E-14
       151  15  1.578160E+03 -1.746301E+02 -5.145133E+00  1.002189E+02 -2.505403E-14 -6.681074E-14
       151  16  1.728703E+03 -1.484332E+02  2.079991E+01 -4.640214E+01  6.681074E-14 -5.845940E-14
       151  17  1.718945E+03 -1.145193E+02  1.495290E+01  6.169799E+01 -5.010806E-14  6.681074E-14
       151  18  1.644141E+03 -1.027331E+02 -3.735249E-01  1.677683E+02 -4.593238E-14 -1.336215E-13
       151  19  1.363425E+03 -3.180639E+02 -1.952893E+01 -1.141694E+02 -3.236601E+01  4.348312E+01
       151  20  1.480661E+03 -2.498110E+02 -1.841857E+00 -2.805898E+01 -2.963413E+01  3.037848E+01
       151  21  1.533167E+03 -2.050314E+02  2.646693E+00  5.607112E+01 -2.552482E+01  1.730812E+01
       151  22  1.543028E+03 -2.461403E+02  7.507985E+00 -9.133230E+01 -5.438358E+01  3.662171E+01
       151  23  1.593084E+03 -1.989409E+02  6.878013E+00  5.455244E+00 -4.428513E+01  2.197321E+01
       151  24  1.578160E+03 -1.746301E+02 -5.145133E+00  1.002189E+02 -3.243923E+01  7.317216E+00
       151  25  1.728703E+03 -1.484332E+02  2.079991E+01 -4.640214E+01 -7.669513E+01  2.304370E+01
       151  26  1.718945E+03 -1.145193E+02  1.495290E+01  6.169799E+01 -5.937682E+01  6.492981E+00
       151  27  1.644141E+03 -1.027331E+02 -3.735249E-01  1.677683E+02 -3.996374E+01 -1.012572E+01
       152   1  8.831655E+02 -3.799971E+02 -7.589829E+00 -3.184473E+02  1.249554E+01 -9.270238E+01
       152   2  1.227662E+03 -3.106960E+02  3.309104E+01 -2.761871E+02  2.663295E+01 -7.210655E+01
       152   3  1.326970E+03 -3.366329E+02 -7.972846E+00 -1.918072E+02  3.278234E+01 -5.170933E+01
       152   4  7.936297E+02 -2.107344E+02 -2.306718E+01 -3.327996E+02  5.599220E+01 -1.078247E+02
       152   5  1.227099E+03 -2.424113E+02  2.543664E+00 -2.617140E+02  6.175201E+01 -7.793434E+01
       152   6  1.438258E+03 -3.597452E+02 -3.357671E+01 -1.509044E+02  5.938571E+01 -4.800873E+01
       152   7  7.510126E+02  1.065805E+02 -3.004082E+01 -3.918253E+02  9.949243E+01 -1.147566E+02
       152   8  1.283703E+03 -4.883193E+00  4.925671E-01 -2.965515E+02  9.700873E+01 -7.542359E+01
       152   9  1.616561E+03 -1.917568E+02 -1.061157E+01 -1.641070E+02  8.627305E+01 -3.582218E+01
       152  10  8.831655E+02 -3.799971E+02 -7.589829E+00 -3.184473E+02  3.841618E-13  1.252701E-13
       152  11  1.227662E+03 -3.106960E+02  3.309104E+01 -2.761871E+02  1.753782E-13  1.190066E-13
       152  12  1.326970E+03 -3.366329E+02 -7.972846E+00 -1.918072E+02  4.175671E-15  2.505403E-14
       152  13  7.936297E+02 -2.107344E+02 -2.306718E+01 -3.327996E+02 -9.340210E-15  3.257024E-13
       152  14  1.227099E+03 -2.424113E+02  2.543664E+00 -2.617140E+02 -4.267014E-14  2.588916E-13
       152  15  1.438258E+03 -3.597452E+02 -3.357671E+01 -1.509044E+02 -1.565877E-14  2.087836E-14
       152  16  7.510126E+02  1.065805E+02 -3.004082E+01 -3.918253E+02 -3.173510E-13  2.797700E-13
       152  17  1.283703E+03 -4.883193E+00  4.925671E-01 -2.965515E+02 -2.839457E-13  1.085675E-13
       152  18  1.616561E+03 -1.917568E+02 -1.061157E+01 -1.641070E+02  1.023039E-13 -1.148310E-13
       152  19  8.831655E+02 -3.799971E+02 -7.589829E+00 -3.184473E+02 -1.249554E+01  9.270238E+01
       152  20  1.227662E+03 -3.106960E+02  3.309104E+01 -2.761871E+02 -2.663295E+01  7.210655E+01
       152  21  1.326970E+03 -3.366329E+02 -7.972846E+00 -1.918072E+02 -3.278234E+01  5.170933E+01
       152  22  7.936297E+02 -2.107344E+02 -2.306718E+01 -3.327996E+02 -5.599220E+01  1.078247E+02
       152  23  1.227099E+03 -2.424113E+02  2.543664E+00 -2.617140E+02 -6.175201E+01  7.793434E+01
       152  24  1.438258E+03 -3.597452E+02 -3.357671E+01 -1.509044E+02 -5.938571E+01  4.800873E+01
       152  25  7.510126E+02  1.065805E+02 -3.004082E+01 -3.918253E+02 -9.949243E+01  1.147566E+02
       152  26  1.283703E+03 -4.883193E+00  4.925671E-01 -2.965515E+02 -9.700873E+01  7.542359E+01
       152  27  1.616561E+03 -1.917568E+02 -1.061157E+01 -1.641070E+02 -8.627305E+01  3.582218E+01
       153   1  1.065752E+03  3.768915E+01  2.049783E-01 -1.318262E+02  2.560432E+00 -4.366072E+00
       153   2  1.037556E+03  5.101428E+01  1.855046E-01 -1.316609E+02  8.675014E-01 -3.443482E+00
       153   3  1.013035E+03  6.600801E+01  5.981281E-02 -1.303936E+02 -7.652087E-01 -2.487085E+00
       153   4  1.059613E+03  3.880552E+01  2.755881E-01 -1.189874E+02  2.668741E+00 -2.888926E+00
       153   5  1.035442E+03  5.060148E+01 -4.730685E-01 -1.197348E+02  1.130152E+00 -2.165979E+00
       153   6  1.017313E+03  6.556751E+01  2.523787E-01 -1.188711E+02 -2.882245E-01 -1.379498E+00
       153   7  1.053266E+03  3.899566E+01  3.335370E-01 -1.062279E+02  2.769909E+00 -1.375099E+00
       153   8  1.033493E+03  4.882948E+01 -9.912762E-01 -1.082945E+02  1.399731E+00 -9.108740E-01
       153   9  1.022622E+03  6.357415E+01  9.586599E-01 -1.081592E+02  2.242412E-01 -3.513706E-01
       153  10  1.065752E+03  3.768915E+01  2.049783E-01 -1.318262E+02  1.670269E-13  6.681074E-14
       153  11  1.037556E+03  5.101428E+01  1.855046E-01 -1.316609E+02 -5.010806E-14 -7.098641E-14
       153  12  1.013035E+03  6.600801E+01  5.981281E-02 -1.303936E+02  2.922970E-14 -1.127431E-13
       153  13  1.059613E+03  3.880552E+01  2.755881E-01 -1.189874E+02 -1.795539E-13  3.674591E-13
       153  14  1.035442E+03  5.060148E+01 -4.730685E-01 -1.197348E+02 -5.511886E-13 -7.516208E-14
       153  15  1.017313E+03  6.556751E+01  2.523787E-01 -1.188711E+02 -2.463646E-13 -3.424051E-13
       153  16  1.053266E+03  3.899566E+01  3.335370E-01 -1.062279E+02 -5.344859E-13  5.344859E-13
       153  17  1.033493E+03  4.882948E+01 -9.912762E-01 -1.082945E+02 -3.340537E-13 -1.461485E-13
       153  18  1.022622E+03  6.357415E+01  9.586599E-01 -1.081592E+02  1.920809E-13 -5.939893E-13
       153  19  1.065752E+03  3.768915E+01  2.049783E-01 -1.318262E+02 -2.560432E+00  4.366072E+00
       153  20  1.037556E+03  5.101428E+01  1.855046E-01 -1.316609E+02 -8.675014E-01  3.443482E+00
       153  21  1.013035E+03  6.600801E+01  5.981281E-02 -1.303936E+02  7.652087E-01  2.487085E+00
       153  22  1.059613E+03  3.880552E+01  2.755881E-01 -1.189874E+02 -2.668741E+00  2.888926E+00
       153  23  1.035442E+03  5.060148E+01 -4.730685E-01 -1.197348E+02 -1.130152E+00  2.165979E+00
       153  24  1.017313E+03  6.556751E+01  2.523787E-01 -1.188711E+02  2.882245E-01  1.379498E+00
       153  25  1.053266E+03  3.899566E+01  3.335370E-01 -1.062279E+02 -2.769909E+00  1.375099E+00
       153  26  1.033493E+03  4.882948E+01 -9.912762E-01 -1.082945E+02 -1.399731E+00  9.108740E-01
       153  27  1.022622E+03  6.357415E+01  9.586599E-01 -1.081592E+02 -2.242412E-01  3.513706E-01
       154   1  1.000750E+03  7.474005E+01 -1.083202E-01 -1.263338E+02 -1.491424E+00 -2.187929E+00
       154   2  9.851017E+02  8.909936E+01 -2.814645E-02 -1.151244E+02 -2.829265E+00 -1.261073E+00
       154   3  9.741627E+02  1.049104E+02  3.690725E-01 -1.030514E+02 -4.168299E+00 -3.348798E-01
       154   4  1.008706E+03  7.344484E+01  5.124328E-01 -1.169614E+02 -9.065467E-01 -1.226027E+00
       154   5  9.928279E+02  8.602711E+01 -4.556841E-01 -1.087290E+02 -2.193375E+00 -4.617213E-01
       154   6  9.840736E+02  1.013261E+02  3.160556E-01 -9.927836E+01 -3.441578E+00  3.230053E-01
       154   7  1.014503E+03  7.109456E+01  8.863703E-01 -1.062608E+02 -3.605493E-01 -1.921581E-01
       154   8  9.988088E+02  8.192578E+01 -1.007258E+00 -1.014653E+02 -1.584764E+00  3.749635E-01
       154   9  9.932417E+02  9.700957E+01  5.198589E-01 -9.504874E+01 -2.719648E+00  9.858085E-01
       154  10  1.000750E+03  7.474005E+01 -1.083202E-01 -1.263338E+02 -3.340537E-14  4.175671E-15
       154  11  9.851017E+02  8.909936E+01 -2.814645E-02 -1.151244E+02 -1.169188E-13 -4.175671E-14
       154  12  9.741627E+02  1.049104E+02  3.690725E-01 -1.030514E+02 -4.488847E-13 -1.738123E-13
       154  13  1.008706E+03  7.344484E+01  5.124328E-01 -1.169614E+02  3.340537E-13  8.351343E-14
       154  14  9.928279E+02  8.602711E+01 -4.556841E-01 -1.087290E+02 -3.089997E-13  1.503242E-13
       154  15  9.840736E+02  1.013261E+02  3.160556E-01 -9.927836E+01 -4.843779E-13  1.910370E-13
       154  16  1.014503E+03  7.109456E+01  8.863703E-01 -1.062608E+02  3.674591E-13 -8.768910E-14
       154  17  9.988088E+02  8.192578E+01 -1.007258E+00 -1.014653E+02  4.008645E-13  1.983444E-13
       154  18  9.932417E+02  9.700957E+01  5.198589E-01 -9.504874E+01  1.670269E-13  4.744607E-13
       154  19  1.000750E+03  7.474005E+01 -1.083202E-01 -1.263338E+02  1.491424E+00  2.187929E+00
       154  20  9.851017E+02  8.909936E+01 -2.814645E-02 -1.151244E+02  2.829265E+00  1.261073E+00
       154  21  9.741627E+02  1.049104E+02  3.690725E-01 -1.030514E+02  4.168299E+00  3.348798E-01
       154  22  1.008706E+03  7.344484E+01  5.124328E-01 -1.169614E+02  9.065467E-01  1.226027E+00
       154  23  9.928279E+02  8.602711E+01 -4.556841E-01 -1.087290E+02  2.193375E+00  4.617213E-01
       154  24  9.840736E+02  1.013261E+02  3.160556E-01 -9.927836E+01  3.441578E+00 -3.230053E-01
       154  25  1.014503E+03  7.109456E+01  8.863703E-01 -1.062608E+02  3.605493E-01  1.921581E-01
       154  26  9.988088E+02  8.192578E+01 -1.007258E+00 -1.014653E+02  1.584764E+00 -3.749635E-01
       154  27  9.932417E+02  9.700957E+01  5.198589E-01 -9.504874E+01  2.719648E+00 -9.858085E-01
       155   1  1.013654E+03  6.823441E+01 -2.949023E-01 -1.002269E+02 -1.204374E-01  3.706122E-01
       155   2  1.004559E+03  8.100052E+01  1.274752E-01 -9.595224E+01 -1.201352E+00  8.951638E-01
       155   3  9.972197E+02  9.430180E+01  4.956431E-01 -9.137008E+01 -2.312452E+00  1.405739E+00
       155   4  1.015879E+03  6.626881E+01  1.438940E-01 -8.897069E+01  3.355120E-01  1.289886E+00
       155   5  1.007046E+03  7.718834E+01 -2.479831E-01 -8.635509E+01 -6.332921E-01  1.721235E+00
       155   6  1.001486E+03  8.945241E+01  2.071048E-01 -8.322550E+01 -1.592762E+00  2.156407E+00
       155   7  1.016531E+03  6.332584E+01  4.362220E-01 -7.673872E+01  7.831317E-01  2.224578E+00
       155   8  1.008343E+03  7.238055E+01 -5.989671E-01 -7.610310E+01 -4.642001E-02  2.521547E+00
       155   9  1.005500E+03  8.383491E+01  3.543314E-01 -7.471274E+01 -8.092193E-01  2.841371E+00
       155  10  1.013654E+03  6.823441E+01 -2.949023E-01 -1.002269E+02 -2.338376E-13 -5.678913E-13
       155  11  1.004559E+03  8.100052E+01  1.274752E-01 -9.595224E+01 -5.010806E-14 -2.275741E-13
       155  12  9.972197E+02  9.430180E+01  4.956431E-01 -9.137008E+01 -2.745504E-13  1.607633E-13
       155  13  1.015879E+03  6.626881E+01  1.438940E-01 -8.897069E+01  4.175671E-13 -3.507564E-13
       155  14  1.007046E+03  7.718834E+01 -2.479831E-01 -8.635509E+01 -8.518370E-13 -2.087836E-13
       155  15  1.001486E+03  8.945241E+01  2.071048E-01 -8.322550E+01 -6.514047E-13 -5.219589E-14
       155  16  1.016531E+03  6.332584E+01  4.362220E-01 -7.673872E+01  1.336215E-13 -4.175671E-15
       155  17  1.008343E+03  7.238055E+01 -5.989671E-01 -7.610310E+01 -1.336215E-13 -5.428373E-14
       155  18  1.005500E+03  8.383491E+01  3.543314E-01 -7.471274E+01 -5.010806E-14 -7.516208E-14
       155  19  1.013654E+03  6.823441E+01 -2.949023E-01 -1.002269E+02  1.204374E-01 -3.706122E-01
       155  20  1.004559E+03  8.100052E+01  1.274752E-01 -9.595224E+01  1.201352E+00 -8.951638E-01
       155  21  9.972197E+02  9.430180E+01  4.956431E-01 -9.137008E+01  2.312452E+00 -1.405739E+00
       155  22  1.015879E+03  6.626881E+01  1.438940E-01 -8.897069E+01 -3.355120E-01 -1.289886E+00
       155  23  1.007046E+03  7.718834E+01 -2.479831E-01 -8.635509E+01  6.332921E-01 -1.721235E+00
       155  24  1.001486E+03  8.945241E+01  2.071048E-01 -8.322550E+01  1.592762E+00 -2.156407E+00
       155  25  1.016531E+03  6.332584E+01  4.362220E-01 -7.673872E+01 -7.831317E-01 -2.224578E+00
       155  26  1.008343E+03  7.238055E+01 -5.989671E-01 -7.610310E+01  4.642001E-02 -2.521547E+00
       155  27  1.005500E+03  8.383491E+01  3.543314E-01 -7.471274E+01  8.092193E-01 -2.841371E+00
       156   1  1.048281E+03  3.887347E+01  2.926341E-02 -9.848427E+01  2.696904E+00 -6.301813E-01
       156   2  1.034407E+03  5.003799E+01  2.324795E-01 -1.001296E+02  1.578153E+00 -2.002152E-01
       156   3  1.021171E+03  6.133184E+01 -1.975123E-02 -1.015819E+02  4.521245E-01  2.263690E-01
       156   4  1.040464E+03  3.905799E+01 -4.347796E-02 -8.484497E+01  2.683234E+00  5.342540E-01
       156   5  1.029406E+03  4.912785E+01 -2.103676E-01 -8.686464E+01  1.723340E+00  8.716683E-01
       156   6  1.020112E+03  6.000200E+01 -8.153751E-02 -8.848354E+01  7.994602E-01  1.223821E+00
       156   7  1.032534E+03  3.846599E+01 -2.067681E-01 -7.144105E+01  2.673489E+00  1.678611E+00
       156   8  1.024667E+03  4.728223E+01 -4.936403E-01 -7.408836E+01  1.891722E+00  1.868612E+00
       156   9  1.020035E+03  5.772183E+01  4.128152E-01 -7.608971E+01  1.204934E+00  2.091124E+00
       156  10  1.048281E+03  3.887347E+01  2.926341E-02 -9.848427E+01  2.672430E-13  1.102377E-12
       156  11  1.034407E+03  5.003799E+01  2.324795E-01 -1.001296E+02  3.340537E-13  2.046079E-13
       156  12  1.021171E+03  6.133184E+01 -1.975123E-02 -1.015819E+02  9.604044E-14 -6.827223E-13
       156  13  1.040464E+03  3.905799E+01 -4.347796E-02 -8.484497E+01  1.879052E-13  9.353504E-13
       156  14  1.029406E+03  4.912785E+01 -2.103676E-01 -8.686464E+01 -2.922970E-14  4.676752E-13
       156  15  1.020112E+03  6.000200E+01 -8.153751E-02 -8.848354E+01  1.503242E-13 -4.384455E-14
       156  16  1.032534E+03  3.846599E+01 -2.067681E-01 -7.144105E+01 -3.674591E-13  3.006483E-13
       156  17  1.024667E+03  4.728223E+01 -4.936403E-01 -7.408836E+01  4.342698E-13  2.100885E-13
       156  18  1.020035E+03  5.772183E+01  4.128152E-01 -7.608971E+01  2.839457E-13  1.200506E-13
       156  19  1.048281E+03  3.887347E+01  2.926341E-02 -9.848427E+01 -2.696904E+00  6.301813E-01
       156  20  1.034407E+03  5.003799E+01  2.324795E-01 -1.001296E+02 -1.578153E+00  2.002152E-01
       156  21  1.021171E+03  6.133184E+01 -1.975123E-02 -1.015819E+02 -4.521245E-01 -2.263690E-01
       156  22  1.040464E+03  3.905799E+01 -4.347796E-02 -8.484497E+01 -2.683234E+00 -5.342540E-01
       156  23  1.029406E+03  4.912785E+01 -2.103676E-01 -8.686464E+01 -1.723340E+00 -8.716683E-01
       156  24  1.020112E+03  6.000200E+01 -8.153751E-02 -8.848354E+01 -7.994602E-01 -1.223821E+00
       156  25  1.032534E+03  3.846599E+01 -2.067681E-01 -7.144105E+01 -2.673489E+00 -1.678611E+00
       156  26  1.024667E+03  4.728223E+01 -4.936403E-01 -7.408836E+01 -1.891722E+00 -1.868612E+00
       156  27  1.020035E+03  5.772183E+01  4.128152E-01 -7.608971E+01 -1.204934E+00 -2.091124E+00
       157   1  8.780000E+02  2.537335E+02 -3.187002E+01 -5.665332E+02  1.231393E+02 -1.072743E+02
       157   2  1.535442E+03  1.814528E+02  6.001492E+01 -3.616276E+02  1.154718E+02 -6.476597E+01
       157   3  1.745443E+03 -6.749175E+01  7.280498E+00 -1.683463E+02  1.010509E+02 -2.209185E+01
       157   4  1.582605E+03  3.434261E+02  4.756791E+01 -7.708425E+02  1.333846E+02 -7.224055E+01
       157   5  1.908340E+03  2.582554E+02  7.197820E+01 -4.307478E+02  1.177320E+02 -3.004676E+01
       157   6  1.925920E+03  5.152117E+01  5.571177E+00 -1.358224E+02  9.994050E+01  1.211152E+01
       157   7  2.315014E+03  3.411089E+02  1.207723E+02 -8.281287E+02  1.362477E+02 -3.079041E+01
       157   8  2.349117E+03  3.043372E+02  1.080976E+02 -3.935135E+02  1.166610E+02  8.802600E+00
       157   9  2.214382E+03  2.024082E+02  5.880916E+01 -1.413528E+01  9.858971E+01  4.843336E+01
       157  10  8.780000E+02  2.537335E+02 -3.187002E+01 -5.665332E+02 -6.681074E-14  1.837295E-13
       157  11  1.535442E+03  1.814528E+02  6.001492E+01 -3.616276E+02 -3.006483E-13 -5.845940E-14
       157  12  1.745443E+03 -6.749175E+01  7.280498E+00 -1.683463E+02 -2.630673E-13 -7.098641E-14
       157  13  1.582605E+03  3.434261E+02  4.756791E+01 -7.708425E+02  2.505403E-13  3.340537E-14
       157  14  1.908340E+03  2.582554E+02  7.197820E+01 -4.307478E+02  3.006483E-13 -3.340537E-14
       157  15  1.925920E+03  5.152117E+01  5.571177E+00 -1.358224E+02  3.340537E-14 -3.340537E-14
       157  16  2.315014E+03  3.411089E+02  1.207723E+02 -8.281287E+02  1.002161E-13 -5.845940E-14
       157  17  2.349117E+03  3.043372E+02  1.080976E+02 -3.935135E+02  3.006483E-13 -1.670269E-14
       157  18  2.214382E+03  2.024082E+02  5.880916E+01 -1.413528E+01  3.048240E-13  1.336215E-13
       157  19  8.780000E+02  2.537335E+02 -3.187002E+01 -5.665332E+02 -1.231393E+02  1.072743E+02
       157  20  1.535442E+03  1.814528E+02  6.001492E+01 -3.616276E+02 -1.154718E+02  6.476597E+01
       157  21  1.745443E+03 -6.749175E+01  7.280498E+00 -1.683463E+02 -1.010509E+02  2.209185E+01
       157  22  1.582605E+03  3.434261E+02  4.756791E+01 -7.708425E+02 -1.333846E+02  7.224055E+01
       157  23  1.908340E+03  2.582554E+02  7.197820E+01 -4.307478E+02 -1.177320E+02  3.004676E+01
       157  24  1.925920E+03  5.152117E+01  5.571177E+00 -1.358224E+02 -9.994050E+01 -1.211152E+01
       157  25  2.315014E+03  3.411089E+02  1.207723E+02 -8.281287E+02 -1.362477E+02  3.079041E+01
       157  26  2.349117E+03  3.043372E+02  1.080976E+02 -3.935135E+02 -1.166610E+02 -8.802600E+00
       157  27  2.214382E+03  2.024082E+02  5.880916E+01 -1.413528E+01 -9.858971E+01 -4.843336E+01
       158   1  1.823939E+03 -7.686630E+01  2.151947E+01 -1.018677E+01  8.574468E+01 -9.432256E+00
       158   2  1.746420E+03 -6.519461E+01  2.750074E+00  8.982220E+01  6.097590E+01  6.219560E+00
       158   3  1.680259E+03 -4.376691E+01  5.447103E+00  1.908029E+02  4.192070E+01  2.167121E+01
       158   4  1.911826E+03  4.380027E+01  9.063748E+00  9.765431E+00  8.332935E+01  2.094319E+01
       158   5  1.796380E+03  4.246107E+01 -1.161652E+00  9.920591E+01  5.803324E+01  2.995333E+01
       158   6  1.698038E+03  5.108524E+01  4.866217E+00  1.898181E+02  3.966828E+01  3.886797E+01
       158   7  2.031955E+03  1.830119E+02  2.378328E+01  5.001468E+01  8.150891E+01  5.300507E+01
       158   8  1.866324E+03  1.615226E+02  1.269273E+01  1.256446E+02  5.517626E+01  5.402523E+01
       158   9  1.726075E+03  1.513357E+02  1.374184E+01  2.028502E+02  3.726959E+01  5.514376E+01
       158  10  1.823939E+03 -7.686630E+01  2.151947E+01 -1.018677E+01 -6.681074E-14  7.516208E-14
       158  11  1.746420E+03 -6.519461E+01  2.750074E+00  8.982220E+01  6.681074E-14 -9.186477E-14
       158  12  1.680259E+03 -4.376691E+01  5.447103E+00  1.908029E+02  1.712025E-13 -3.089997E-13
       158  13  1.911826E+03  4.380027E+01  9.063748E+00  9.765431E+00 -3.340537E-14  6.681074E-14
       158  14  1.796380E+03  4.246107E+01 -1.161652E+00  9.920591E+01  8.351343E-15  1.002161E-13
       158  15  1.698038E+03  5.108524E+01  4.866217E+00  1.898181E+02 -5.010806E-14 -1.503242E-13
       158  16  2.031955E+03  1.830119E+02  2.378328E+01  5.001468E+01  3.674591E-13  5.010806E-14
       158  17  1.866324E+03  1.615226E+02  1.269273E+01  1.256446E+02 -1.670269E-14 -5.010806E-14
       158  18  1.726075E+03  1.513357E+02  1.374184E+01  2.028502E+02 -2.839457E-13 -3.298780E-13
       158  19  1.823939E+03 -7.686630E+01  2.151947E+01 -1.018677E+01 -8.574468E+01  9.432256E+00
       158  20  1.746420E+03 -6.519461E+01  2.750074E+00  8.982220E+01 -6.097590E+01 -6.219560E+00
       158  21  1.680259E+03 -4.376691E+01  5.447103E+00  1.908029E+02 -4.192070E+01 -2.167121E+01
       158  22  1.911826E+03  4.380027E+01  9.063748E+00  9.765431E+00 -8.332935E+01 -2.094319E+01
       158  23  1.796380E+03  4.246107E+01 -1.161652E+00  9.920591E+01 -5.803324E+01 -2.995333E+01
       158  24  1.698038E+03  5.108524E+01  4.866217E+00  1.898181E+02 -3.966828E+01 -3.886797E+01
       158  25  2.031955E+03  1.830119E+02  2.378328E+01  5.001468E+01 -8.150891E+01 -5.300507E+01
       158  26  1.866324E+03  1.615226E+02  1.269273E+01  1.256446E+02 -5.517626E+01 -5.402523E+01
       158  27  1.726075E+03  1.513357E+02  1.374184E+01  2.028502E+02 -3.726959E+01 -5.514376E+01
       159   1  2.160485E+03  2.867750E+02  6.183960E+01  4.652329E+01  6.206215E+01  6.919179E+01
       159   2  1.881174E+03  2.180384E+02  1.272982E+01  1.090825E+02  4.414509E+01  6.663554E+01
       159   3  1.708378E+03  1.943453E+02  7.240719E+00  1.722449E+02  2.943633E+01  6.413671E+01
       159   4  2.160974E+03  3.480955E+02  4.342920E+01  3.045991E+01  3.917299E+01  8.819823E+01
       159   5  1.877631E+03  2.810682E+02  7.077129E+00  6.675899E+01  2.645970E+01  8.179907E+01
       159   6  1.702530E+03  2.587587E+02  1.152160E+01  1.036135E+02  1.713061E+01  7.543459E+01
       159   7  2.155658E+03  3.769649E+02  3.890559E+01  1.165814E+01  1.522683E+01  1.006941E+02
       159   8  1.863853E+03  3.071589E+02  6.623482E+00  2.056349E+01  7.770198E+00  9.023610E+01
       159   9  1.682120E+03  2.817816E+02  1.235572E+01  2.995989E+01  3.880032E+00  7.978648E+01
       159  10  2.160485E+03  2.867750E+02  6.183960E+01  4.652329E+01  1.503242E-13  3.674591E-13
       159  11  1.881174E+03  2.180384E+02  1.272982E+01  1.090825E+02  2.004322E-13 -1.169188E-13
       159  12  1.708378E+03  1.943453E+02  7.240719E+00  1.722449E+02  2.192227E-14 -5.010806E-14
       159  13  2.160974E+03  3.480955E+02  4.342920E+01  3.045991E+01  0.000000E+00  6.681074E-14
       159  14  1.877631E+03  2.810682E+02  7.077129E+00  6.675899E+01  6.681074E-14 -3.340537E-14
       159  15  1.702530E+03  2.587587E+02  1.152160E+01  1.036135E+02 -2.296619E-14  5.010806E-14
       159  16  2.155658E+03  3.769649E+02  3.890559E+01  1.165814E+01 -2.004322E-13  1.670269E-13
       159  17  1.863853E+03  3.071589E+02  6.623482E+00  2.056349E+01 -4.175671E-14 -6.681074E-14
       159  18  1.682120E+03  2.817816E+02  1.235572E+01  2.995989E+01 -5.637156E-14 -1.670269E-14
       159  19  2.160485E+03  2.867750E+02  6.183960E+01  4.652329E+01 -6.206215E+01 -6.919179E+01
       159  20  1.881174E+03  2.180384E+02  1.272982E+01  1.090825E+02 -4.414509E+01 -6.663554E+01
       159  21  1.708378E+03  1.943453E+02  7.240719E+00  1.722449E+02 -2.943633E+01 -6.413671E+01
       159  22  2.160974E+03  3.480955E+02  4.342920E+01  3.045991E+01 -3.917299E+01 -8.819823E+01
       159  23  1.877631E+03  2.810682E+02  7.077129E+00  6.675899E+01 -2.645970E+01 -8.179907E+01
       159  24  1.702530E+03  2.587587E+02  1.152160E+01  1.036135E+02 -1.713061E+01 -7.543459E+01
       159  25  2.155658E+03  3.769649E+02  3.890559E+01  1.165814E+01 -1.522683E+01 -1.006941E+02
       159  26  1.863853E+03  3.071589E+02  6.623482E+00  2.056349E+01 -7.770198E+00 -9.023610E+01
       159  27  1.682120E+03  2.817816E+02  1.235572E+01  2.995989E+01 -3.880032E+00 -7.978648E+01
       160   1  2.890887E+03  3.868935E+02  2.304309E+02 -7.643272E+02  1.211926E+02 -5.840733E+00
       160   2  2.439543E+03  2.551101E+02  6.378331E+01 -3.492015E+02  9.805650E+01  3.147580E+01
       160   3  2.275191E+03  2.524426E+02  5.248619E+01  8.067743E+00  7.580044E+01  6.881239E+01
       160   4  3.505180E+03  3.041354E+02  2.970207E+02 -5.040949E+02  7.323647E+01  3.103839E+01
       160   5  2.700247E+03  2.364493E+02  6.984654E+01 -2.313029E+02  5.797696E+01  6.277307E+01
       160   6  2.322232E+03  3.559246E+02  5.139021E+01 -1.307909E+01  4.779518E+01  9.462790E+01
       160   7  3.747482E+03  1.319151E+02  2.774913E+02 -1.287632E+02  1.715626E+01  5.238055E+01
       160   8  2.863310E+03  2.257493E+02  9.032173E+01 -3.906392E+01  1.248731E+01  7.606037E+01
       160   9  2.405553E+03  5.076005E+02  1.059513E+02  1.256549E+01  1.595044E+01  9.980066E+01
       160  10  2.890887E+03  3.868935E+02  2.304309E+02 -7.643272E+02  1.336215E-13 -8.351343E-14
       160  11  2.439543E+03  2.551101E+02  6.378331E+01 -3.492015E+02  3.340537E-13  1.670269E-14
       160  12  2.275191E+03  2.524426E+02  5.248619E+01  8.067743E+00 -3.758104E-14  2.254863E-13
       160  13  3.505180E+03  3.041354E+02  2.970207E+02 -5.040949E+02  6.681074E-14  1.336215E-13
       160  14  2.700247E+03  2.364493E+02  6.984654E+01 -2.313029E+02  0.000000E+00  1.670269E-13
       160  15  2.322232E+03  3.559246E+02  5.139021E+01 -1.307909E+01  2.087836E-14  1.837295E-13
       160  16  3.747482E+03  1.319151E+02  2.774913E+02 -1.287632E+02 -3.340537E-13  1.336215E-13
       160  17  2.863310E+03  2.257493E+02  9.032173E+01 -3.906392E+01 -1.336215E-13  5.010806E-14
       160  18  2.405553E+03  5.076005E+02  1.059513E+02  1.256549E+01 -3.006483E-13 -3.131754E-13
       160  19  2.890887E+03  3.868935E+02  2.304309E+02 -7.643272E+02 -1.211926E+02  5.840733E+00
       160  20  2.439543E+03  2.551101E+02  6.378331E+01 -3.492015E+02 -9.805650E+01 -3.147580E+01
       160  21  2.275191E+03  2.524426E+02  5.248619E+01  8.067743E+00 -7.580044E+01 -6.881239E+01
       160  22  3.505180E+03  3.041354E+02  2.970207E+02 -5.040949E+02 -7.323647E+01 -3.103839E+01
       160  23  2.700247E+03  2.364493E+02  6.984654E+01 -2.313029E+02 -5.797696E+01 -6.277307E+01
       160  24  2.322232E+03  3.559246E+02  5.139021E+01 -1.307909E+01 -4.779518E+01 -9.462790E+01
       160  25  3.747482E+03  1.319151E+02  2.774913E+02 -1.287632E+02 -1.715626E+01 -5.238055E+01
       160  26  2.863310E+03  2.257493E+02  9.032173E+01 -3.906392E+01 -1.248731E+01 -7.606037E+01
       160  27  2.405553E+03  5.076005E+02  1.059513E+02  1.256549E+01 -1.595044E+01 -9.980066E+01
       161   1  8.836621E+02  1.003226E+02  3.538517E-01 -1.415696E+02 -7.722287E+00 -5.982033E+00
       161   2  8.476304E+02  1.104212E+02 -1.193108E-01 -1.204465E+02 -9.298237E+00 -5.241305E+00
       161   3  8.174279E+02  1.222019E+02  1.342737E+00 -9.881184E+01 -1.077845E+01 -4.524971E+00
       161   4  9.025677E+02  1.032478E+02 -2.558022E-01 -1.313216E+02 -6.978901E+00 -4.782835E+00
       161   5  8.717790E+02  1.127568E+02 -8.964450E-01 -1.112978E+02 -8.399476E+00 -4.076143E+00
       161   6  8.459612E+02  1.237241E+02 -1.379640E-02 -9.064894E+01 -9.741097E+00 -3.385285E+00
       161   7  9.229618E+02  1.075087E+02  7.781924E-01 -1.229408E+02 -6.218148E+00 -3.724014E+00
       161   8  8.972718E+02  1.165098E+02  1.016255E-01 -1.037556E+02 -7.489190E+00 -3.034252E+00
       161   9  8.757608E+02  1.267550E+02  5.592360E-01 -8.386453E+01 -8.696575E+00 -2.353960E+00
       161  10  8.836621E+02  1.003226E+02  3.538517E-01 -1.415696E+02  0.000000E+00  3.236145E-13
       161  11  8.476304E+02  1.104212E+02 -1.193108E-01 -1.204465E+02  6.012967E-13 -1.267708E-13
       161  12  8.174279E+02  1.222019E+02  1.342737E+00 -9.881184E+01  2.964727E-13 -5.188272E-13
       161  13  9.025677E+02  1.032478E+02 -2.558022E-01 -1.313216E+02  6.054723E-14  5.010806E-14
       161  14  8.717790E+02  1.127568E+02 -8.964450E-01 -1.112978E+02  2.849896E-13 -1.461485E-13
       161  15  8.459612E+02  1.237241E+02 -1.379640E-02 -9.064894E+01 -1.116992E-13 -3.022142E-13
       161  16  9.229618E+02  1.075087E+02  7.781924E-01 -1.229408E+02  6.681074E-14 -6.681074E-14
       161  17  8.972718E+02  1.165098E+02  1.016255E-01 -1.037556E+02 -2.505403E-13 -5.115197E-14
       161  18  8.757608E+02  1.267550E+02  5.592360E-01 -8.386453E+01 -5.303103E-13  1.200506E-14
       161  19  8.836621E+02  1.003226E+02  3.538517E-01 -1.415696E+02  7.722287E+00  5.982033E+00
       161  20  8.476304E+02  1.104212E+02 -1.193108E-01 -1.204465E+02  9.298237E+00  5.241305E+00
       161  21  8.174279E+02  1.222019E+02  1.342737E+00 -9.881184E+01  1.077845E+01  4.524971E+00
       161  22  9.025677E+02  1.032478E+02 -2.558022E-01 -1.313216E+02  6.978901E+00  4.782835E+00
       161  23  8.717790E+02  1.127568E+02 -8.964450E-01 -1.112978E+02  8.399476E+00  4.076143E+00
       161  24  8.459612E+02  1.237241E+02 -1.379640E-02 -9.064894E+01  9.741097E+00  3.385285E+00
       161  25  9.229618E+02  1.075087E+02  7.781924E-01 -1.229408E+02  6.218148E+00  3.724014E+00
       161  26  8.972718E+02  1.165098E+02  1.016255E-01 -1.037556E+02  7.489190E+00  3.034252E+00
       161  27  8.757608E+02  1.267550E+02  5.592360E-01 -8.386453E+01  8.696575E+00  2.353960E+00
       162   1  7.996433E+02  1.253055E+02  7.684574E-01 -8.148224E+01 -1.153981E+01 -3.656628E+00
       162   2  7.745693E+02  1.285379E+02 -2.143195E-01 -4.652622E+01 -1.251422E+01 -2.073401E+00
       162   3  7.598807E+02  1.353334E+02  1.734129E+00 -1.174598E+01 -1.324303E+01 -5.527970E-01
       162   4  8.314622E+02  1.280899E+02 -1.275001E-01 -7.447521E+01 -1.038765E+01 -2.921281E+00
       162   5  8.106717E+02  1.305788E+02 -1.376656E+00 -4.246341E+01 -1.118100E+01 -1.571961E+00
       162   6  7.994582E+02  1.364339E+02  1.126260E-01 -1.041966E+01 -1.175367E+01 -2.669178E-01
       162   7  8.645274E+02  1.323693E+02  1.004345E+00 -6.889713E+01 -9.227703E+00 -2.337564E+00
       162   8  8.480373E+02  1.342633E+02 -2.397440E-01 -3.952197E+01 -9.844368E+00 -1.193623E+00
       162   9  8.403665E+02  1.393368E+02  1.080110E+00 -9.944591E+00 -1.026372E+01 -7.904421E-02
       162  10  7.996433E+02  1.253055E+02  7.684574E-01 -8.148224E+01  2.338376E-13  2.922970E-13
       162  11  7.745693E+02  1.285379E+02 -2.143195E-01 -4.652622E+01  7.683235E-13 -2.870774E-14
       162  12  7.598807E+02  1.353334E+02  1.734129E+00 -1.174598E+01  2.046079E-13 -2.926885E-13
       162  13  8.314622E+02  1.280899E+02 -1.275001E-01 -7.447521E+01  5.621498E-13  3.319659E-13
       162  14  8.106717E+02  1.305788E+02 -1.376656E+00 -4.246341E+01 -4.167842E-13  1.315336E-13
       162  15  7.994582E+02  1.364339E+02  1.126260E-01 -1.041966E+01 -2.465603E-13 -2.609795E-16
       162  16  8.645274E+02  1.323693E+02  1.004345E+00 -6.889713E+01 -4.008645E-13  9.082085E-14
       162  17  8.480373E+02  1.342633E+02 -2.397440E-01 -3.952197E+01  3.340537E-14  5.584960E-14
       162  18  8.403665E+02  1.393368E+02  1.080110E+00 -9.944591E+00  3.131754E-13 -1.605024E-14
       162  19  7.996433E+02  1.253055E+02  7.684574E-01 -8.148224E+01  1.153981E+01  3.656628E+00
       162  20  7.745693E+02  1.285379E+02 -2.143195E-01 -4.652622E+01  1.251422E+01  2.073401E+00
       162  21  7.598807E+02  1.353334E+02  1.734129E+00 -1.174598E+01  1.324303E+01  5.527970E-01
       162  22  8.314622E+02  1.280899E+02 -1.275001E-01 -7.447521E+01  1.038765E+01  2.921281E+00
       162  23  8.106717E+02  1.305788E+02 -1.376656E+00 -4.246341E+01  1.118100E+01  1.571961E+00
       162  24  7.994582E+02  1.364339E+02  1.126260E-01 -1.041966E+01  1.175367E+01  2.669178E-01
       162  25  8.645274E+02  1.323693E+02  1.004345E+00 -6.889713E+01  9.227703E+00  2.337564E+00
       162  26  8.480373E+02  1.342633E+02 -2.397440E-01 -3.952197E+01  9.844368E+00  1.193623E+00
       162  27  8.403665E+02  1.393368E+02  1.080110E+00 -9.944591E+00  1.026372E+01  7.904421E-02
       163   1  8.815182E+02  1.337583E+02  1.292488E+00 -6.556845E+01 -8.396330E+00 -2.015593E+00
       163   2  8.667454E+02  1.353557E+02 -1.040293E-01 -3.736939E+01 -9.061294E+00 -1.019037E+00
       163   3  8.594806E+02  1.398027E+02  6.920066E-01 -9.251651E+00 -9.351589E+00 -6.733714E-02
       163   4  9.045051E+02  1.347922E+02  7.694585E-02 -5.944509E+01 -8.064101E+00 -1.245451E+00
       163   5  8.930448E+02  1.369068E+02 -1.171591E+00 -3.388138E+01 -8.681648E+00 -6.056915E-01
       163   6  8.886708E+02  1.418047E+02 -6.688636E-02 -8.209217E+00 -8.943260E+00  8.615759E-03
       163   7  9.294220E+02  1.397438E+02  9.923517E-01 -5.423997E+01 -7.729810E+00 -5.154575E-01
       163   8  9.211002E+02  1.421107E+02 -2.021211E-01 -3.110169E+01 -8.301437E+00 -2.127129E-01
       163   9  9.194860E+02  1.472299E+02  1.140776E+00 -7.691390E+00 -8.534913E+00  8.144702E-02
       163  10  8.815182E+02  1.337583E+02  1.292488E+00 -6.556845E+01 -2.004322E-13 -1.242262E-13
       163  11  8.667454E+02  1.353557E+02 -1.040293E-01 -3.736939E+01  6.681074E-14 -8.455735E-14
       163  12  8.594806E+02  1.398027E+02  6.920066E-01 -9.251651E+00  1.252701E-14 -6.654976E-14
       163  13  9.045051E+02  1.347922E+02  7.694585E-02 -5.944509E+01  2.802919E-13 -2.672430E-13
       163  14  8.930448E+02  1.369068E+02 -1.171591E+00 -3.388138E+01 -5.034294E-13 -1.837295E-13
       163  15  8.886708E+02  1.418047E+02 -6.688636E-02 -8.209217E+00 -1.585450E-14 -1.002161E-13
       163  16  9.294220E+02  1.397438E+02  9.923517E-01 -5.423997E+01  2.672430E-13 -2.171349E-13
       163  17  9.211002E+02  1.421107E+02 -2.021211E-01 -3.110169E+01 -2.171349E-13 -7.985971E-14
       163  18  9.194860E+02  1.472299E+02  1.140776E+00 -7.691390E+00 -3.131754E-13  1.265750E-14
       163  19  8.815182E+02  1.337583E+02  1.292488E+00 -6.556845E+01  8.396330E+00  2.015593E+00
       163  20  8.667454E+02  1.353557E+02 -1.040293E-01 -3.736939E+01  9.061294E+00  1.019037E+00
       163  21  8.594806E+02  1.398027E+02  6.920066E-01 -9.251651E+00  9.351589E+00  6.733714E-02
       163  22  9.045051E+02  1.347922E+02  7.694585E-02 -5.944509E+01  8.064101E+00  1.245451E+00
       163  23  8.930448E+02  1.369068E+02 -1.171591E+00 -3.388138E+01  8.681648E+00  6.056915E-01
       163  24  8.886708E+02  1.418047E+02 -6.688636E-02 -8.209217E+00  8.943260E+00 -8.615759E-03
       163  25  9.294220E+02  1.397438E+02  9.923517E-01 -5.423997E+01  7.729810E+00  5.154575E-01
       163  26  9.211002E+02  1.421107E+02 -2.021211E-01 -3.110169E+01  8.301437E+00  2.127129E-01
       163  27  9.194860E+02  1.472299E+02  1.140776E+00 -7.691390E+00  8.534913E+00 -8.144702E-02
       164   1  9.326911E+02  1.088493E+02  7.856995E-01 -1.176635E+02 -5.744085E+00 -3.128619E+00
       164   2  9.087887E+02  1.173812E+02 -2.568961E-01 -9.896880E+01 -6.983536E+00 -2.502223E+00
       164   3  8.907642E+02  1.280853E+02  6.386998E-01 -7.993360E+01 -7.930863E+00 -1.910800E+00
       164   4  9.461409E+02  1.103339E+02  7.245048E-03 -1.078338E+02 -5.401314E+00 -1.981704E+00
       164   5  9.265483E+02  1.191892E+02 -9.654229E-01 -9.059654E+01 -6.641686E+00 -1.564922E+00
       164   6  9.122420E+02  1.300809E+02 -7.606400E-02 -7.289088E+01 -7.600480E+00 -1.168275E+00
       164   7  9.613630E+02  1.145557E+02  1.014504E+00 -9.937489E+01 -5.059639E+00 -8.259471E-01
       164   8  9.458236E+02  1.235351E+02 -5.441214E-02 -8.338592E+01 -6.301509E+00 -6.097243E-01
       164   9  9.350350E+02  1.344431E+02  6.879012E-01 -6.682694E+01 -7.271770E+00 -4.003993E-01
       164  10  9.326911E+02  1.088493E+02  7.856995E-01 -1.176635E+02 -3.006483E-13 -2.296619E-14
       164  11  9.087887E+02  1.173812E+02 -2.568961E-01 -9.896880E+01  6.681074E-14  4.071280E-14
       164  12  8.907642E+02  1.280853E+02  6.386998E-01 -7.993360E+01 -4.509725E-13  1.411899E-13
       164  13  9.461409E+02  1.103339E+02  7.245048E-03 -1.078338E+02  3.382294E-13 -1.753782E-13
       164  14  9.265483E+02  1.191892E+02 -9.654229E-01 -9.059654E+01 -1.691147E-13  4.593238E-14
       164  15  9.122420E+02  1.300809E+02 -7.606400E-02 -7.289088E+01 -2.004322E-13  2.348815E-13
       164  16  9.613630E+02  1.145557E+02  1.014504E+00 -9.937489E+01  3.340537E-13 -3.507564E-13
       164  17  9.458236E+02  1.235351E+02 -5.441214E-02 -8.338592E+01  6.347020E-13  5.219589E-15
       164  18  9.350350E+02  1.344431E+02  6.879012E-01 -6.682694E+01  2.421889E-13  4.501896E-13
       164  19  9.326911E+02  1.088493E+02  7.856995E-01 -1.176635E+02  5.744085E+00  3.128619E+00
       164  20  9.087887E+02  1.173812E+02 -2.568961E-01 -9.896880E+01  6.983536E+00  2.502223E+00
       164  21  8.907642E+02  1.280853E+02  6.386998E-01 -7.993360E+01  7.930863E+00  1.910800E+00
       164  22  9.461409E+02  1.103339E+02  7.245048E-03 -1.078338E+02  5.401314E+00  1.981704E+00
       164  23  9.265483E+02  1.191892E+02 -9.654229E-01 -9.059654E+01  6.641686E+00  1.564922E+00
       164  24  9.122420E+02  1.300809E+02 -7.606400E-02 -7.289088E+01  7.600480E+00  1.168275E+00
       164  25  9.613630E+02  1.145557E+02  1.014504E+00 -9.937489E+01  5.059639E+00  8.259471E-01
       164  26  9.458236E+02  1.235351E+02 -5.441214E-02 -8.338592E+01  6.301509E+00  6.097243E-01
       164  27  9.350350E+02  1.344431E+02  6.879012E-01 -6.682694E+01  7.271770E+00  4.003993E-01
       165   1  1.067234E+03 -8.799081E+00 -4.167519E-01 -2.124780E+02 -1.897013E+00 -1.780615E+01
       165   2  1.108254E+03 -4.061792E+01  4.556606E-01 -2.085947E+02 -1.449094E+00 -2.093196E+01
       165   3  1.146597E+03 -7.766343E+01 -2.156195E+00 -2.050804E+02 -1.011257E+00 -2.411604E+01
       165   4  1.018201E+03 -7.112620E+00  5.789020E-01 -2.235530E+02 -4.244461E+00 -1.863800E+01
       165   5  1.052057E+03 -3.961308E+01  2.051005E+00 -2.255119E+02 -3.998474E+00 -2.190013E+01
       165   6  1.082175E+03 -7.974981E+01 -6.726693E-01 -2.282525E+02 -3.765159E+00 -2.524489E+01
       165   7  9.591499E+02 -8.616738E+00 -1.127307E+00 -2.343370E+02 -6.884759E+00 -1.937468E+01
       165   8  9.847894E+02 -4.206920E+01  5.484531E-01 -2.430346E+02 -6.865723E+00 -2.279822E+01
       165   9  1.005489E+03 -8.596945E+01 -2.846468E+00 -2.529439E+02 -6.860990E+00 -2.633131E+01
       165  10  1.067234E+03 -8.799081E+00 -4.167519E-01 -2.124780E+02 -3.340537E-14  3.340537E-14
       165  11  1.108254E+03 -4.061792E+01  4.556606E-01 -2.085947E+02  1.800758E-14  3.966888E-14
       165  12  1.146597E+03 -7.766343E+01 -2.156195E+00 -2.050804E+02  2.922970E-13  1.033479E-13
       165  13  1.018201E+03 -7.112620E+00  5.789020E-01 -2.235530E+02 -3.591077E-13  4.175671E-14
       165  14  1.052057E+03 -3.961308E+01  2.051005E+00 -2.255119E+02  2.505403E-14 -6.263507E-14
       165  15  1.082175E+03 -7.974981E+01 -6.726693E-01 -2.282525E+02  1.586755E-13 -6.576682E-14
       165  16  9.591499E+02 -8.616738E+00 -1.127307E+00 -2.343370E+02 -2.171349E-13 -2.922970E-14
       165  17  9.847894E+02 -4.206920E+01  5.484531E-01 -2.430346E+02  1.252701E-13 -2.254863E-13
       165  18  1.005489E+03 -8.596945E+01 -2.846468E+00 -2.529439E+02  2.714186E-13 -2.453207E-13
       165  19  1.067234E+03 -8.799081E+00 -4.167519E-01 -2.124780E+02  1.897013E+00  1.780615E+01
       165  20  1.108254E+03 -4.061792E+01  4.556606E-01 -2.085947E+02  1.449094E+00  2.093196E+01
       165  21  1.146597E+03 -7.766343E+01 -2.156195E+00 -2.050804E+02  1.011257E+00  2.411604E+01
       165  22  1.018201E+03 -7.112620E+00  5.789020E-01 -2.235530E+02  4.244461E+00  1.863800E+01
       165  23  1.052057E+03 -3.961308E+01  2.051005E+00 -2.255119E+02  3.998474E+00  2.190013E+01
       165  24  1.082175E+03 -7.974981E+01 -6.726693E-01 -2.282525E+02  3.765159E+00  2.524489E+01
       165  25  9.591499E+02 -8.616738E+00 -1.127307E+00 -2.343370E+02  6.884759E+00  1.937468E+01
       165  26  9.847894E+02 -4.206920E+01  5.484531E-01 -2.430346E+02  6.865723E+00  2.279822E+01
       165  27  1.005489E+03 -8.596945E+01 -2.846468E+00 -2.529439E+02  6.860990E+00  2.633131E+01
       166   1  1.179734E+03 -9.869181E+01 -1.053159E+00 -1.955578E+02  3.732862E-01 -2.573247E+01
       166   2  1.242363E+03 -1.369225E+02 -7.354766E-01 -1.641716E+02  2.873465E+00 -2.742035E+01
       166   3  1.305574E+03 -1.752603E+02 -3.418099E+00 -1.293771E+02  5.491046E+00 -2.842953E+01
       166   4  1.115024E+03 -1.014308E+02  2.074643E+00 -2.245105E+02 -1.981572E+00 -2.737845E+01
       166   5  1.174404E+03 -1.439324E+02  3.169680E+00 -2.043339E+02  6.753070E-01 -3.044309E+01
       166   6  1.233231E+03 -1.889748E+02  5.226758E-02 -1.805292E+02  3.455174E+00 -3.270532E+01
       166   7  1.025623E+03 -1.137193E+02 -3.477343E+00 -2.554210E+02 -5.737333E+00 -2.892442E+01
       166   8  1.082905E+03 -1.602564E+02 -5.419757E-02 -2.477451E+02 -2.819748E+00 -3.348372E+01
       166   9  1.138312E+03 -2.120991E+02 -2.209932E+00 -2.361220E+02  2.219358E-01 -3.709238E+01
       166  10  1.179734E+03 -9.869181E+01 -1.053159E+00 -1.955578E+02 -3.277902E-13  2.839457E-13
       166  11  1.242363E+03 -1.369225E+02 -7.354766E-01 -1.641716E+02  4.384455E-14  1.503242E-13
       166  12  1.305574E+03 -1.752603E+02 -3.418099E+00 -1.293771E+02  2.964727E-13 -5.532765E-14
       166  13  1.115024E+03 -1.014308E+02  2.074643E+00 -2.245105E+02 -3.925131E-13  5.323981E-14
       166  14  1.174404E+03 -1.439324E+02  3.169680E+00 -2.043339E+02 -9.186477E-14  1.922114E-13
       166  15  1.233231E+03 -1.889748E+02  5.226758E-02 -1.805292E+02  4.008645E-13  4.071280E-14
       166  16  1.025623E+03 -1.137193E+02 -3.477343E+00 -2.554210E+02 -2.087836E-13 -1.002161E-13
       166  17  1.082905E+03 -1.602564E+02 -5.419757E-02 -2.477451E+02  5.010806E-14  1.002161E-13
       166  18  1.138312E+03 -2.120991E+02 -2.209932E+00 -2.361220E+02  4.593238E-14  1.691147E-13
       166  19  1.179734E+03 -9.869181E+01 -1.053159E+00 -1.955578E+02 -3.732862E-01  2.573247E+01
       166  20  1.242363E+03 -1.369225E+02 -7.354766E-01 -1.641716E+02 -2.873465E+00  2.742035E+01
       166  21  1.305574E+03 -1.752603E+02 -3.418099E+00 -1.293771E+02 -5.491046E+00  2.842953E+01
       166  22  1.115024E+03 -1.014308E+02  2.074643E+00 -2.245105E+02  1.981572E+00  2.737845E+01
       166  23  1.174404E+03 -1.439324E+02  3.169680E+00 -2.043339E+02 -6.753070E-01  3.044309E+01
       166  24  1.233231E+03 -1.889748E+02  5.226758E-02 -1.805292E+02 -3.455174E+00  3.270532E+01
       166  25  1.025623E+03 -1.137193E+02 -3.477343E+00 -2.554210E+02  5.737333E+00  2.892442E+01
       166  26  1.082905E+03 -1.602564E+02 -5.419757E-02 -2.477451E+02  2.819748E+00  3.348372E+01
       166  27  1.138312E+03 -2.120991E+02 -2.209932E+00 -2.361220E+02 -2.219358E-01  3.709238E+01
       167   1  9.723088E+02 -1.077028E+02 -2.661256E+00 -2.692744E+02 -8.277184E+00 -2.867295E+01
       167   2  1.020447E+03 -1.629968E+02 -1.698762E+00 -2.687443E+02 -5.622787E+00 -3.379753E+01
       167   3  1.063102E+03 -2.262221E+02 -7.784331E+00 -2.716911E+02 -3.064320E+00 -3.975180E+01
       167   4  8.795660E+02 -9.471681E+01 -5.345604E-01 -2.811322E+02 -1.273722E+01 -2.918424E+01
       167   5  9.121563E+02 -1.400845E+02  3.625551E+00 -2.875022E+02 -1.142493E+01 -3.431596E+01
       167   6  9.381082E+02 -1.972350E+02  7.564495E-01 -2.985545E+02 -1.020271E+01 -4.048997E+01
       167   7  7.704168E+02 -8.929077E+01 -4.869424E+00 -2.888853E+02 -1.759026E+01 -2.966747E+01
       167   8  7.828314E+02 -1.259696E+02  4.000621E-01 -3.041855E+02 -1.788004E+01 -3.484337E+01
       167   9  7.873571E+02 -1.790938E+02 -1.612715E+00 -3.254684E+02 -1.823643E+01 -4.131127E+01
       167  10  9.723088E+02 -1.077028E+02 -2.661256E+00 -2.692744E+02 -1.257921E-13 -2.922970E-14
       167  11  1.020447E+03 -1.629968E+02 -1.698762E+00 -2.687443E+02 -3.131754E-14  1.127431E-13
       167  12  1.063102E+03 -2.262221E+02 -7.784331E+00 -2.716911E+02  6.263507E-14  2.782041E-13
       167  13  8.795660E+02 -9.471681E+01 -5.345604E-01 -2.811322E+02  4.175671E-14 -3.131754E-15
       167  14  9.121563E+02 -1.400845E+02  3.625551E+00 -2.875022E+02  2.755943E-13 -9.786730E-15
       167  15  9.381082E+02 -1.972350E+02  7.564495E-01 -2.985545E+02  4.509725E-13  8.351343E-15
       167  16  7.704168E+02 -8.929077E+01 -4.869424E+00 -2.888853E+02  8.351343E-15  1.002161E-13
       167  17  7.828314E+02 -1.259696E+02  4.000621E-01 -3.041855E+02  7.098641E-14 -1.002161E-13
       167  18  7.873571E+02 -1.790938E+02 -1.612715E+00 -3.254684E+02 -8.351343E-15 -3.048240E-13
       167  19  9.723088E+02 -1.077028E+02 -2.661256E+00 -2.692744E+02  8.277184E+00  2.867295E+01
       167  20  1.020447E+03 -1.629968E+02 -1.698762E+00 -2.687443E+02  5.622787E+00  3.379753E+01
       167  21  1.063102E+03 -2.262221E+02 -7.784331E+00 -2.716911E+02  3.064320E+00  3.975180E+01
       167  22  8.795660E+02 -9.471681E+01 -5.345604E-01 -2.811322E+02  1.273722E+01  2.918424E+01
       167  23  9.121563E+02 -1.400845E+02  3.625551E+00 -2.875022E+02  1.142493E+01  3.431596E+01
       167  24  9.381082E+02 -1.972350E+02  7.564495E-01 -2.985545E+02  1.020271E+01  4.048997E+01
       167  25  7.704168E+02 -8.929077E+01 -4.869424E+00 -2.888853E+02  1.759026E+01  2.966747E+01
       167  26  7.828314E+02 -1.259696E+02  4.000621E-01 -3.041855E+02  1.788004E+01  3.484337E+01
       167  27  7.873571E+02 -1.790938E+02 -1.612715E+00 -3.254684E+02  1.823643E+01  4.131127E+01
       168   1  9.222899E+02 -7.347805E+00 -1.826318E+00 -2.387737E+02 -8.438809E+00 -1.896832E+01
       168   2  9.427368E+02 -4.065371E+01  3.098748E-02 -2.498795E+02 -8.616523E+00 -2.238896E+01
       168   3  9.603960E+02 -7.872252E+01 -5.796547E-01 -2.631833E+02 -8.838241E+00 -2.619020E+01
       168   4  8.605919E+02  1.165184E+00 -8.729675E-02 -2.383329E+02 -1.143169E+01 -1.932511E+01
       168   5  8.702818E+02 -3.045529E+01  1.856134E+00 -2.521309E+02 -1.211778E+01 -2.277200E+01
       168   6  8.762686E+02 -6.930422E+01  8.524909E-01 -2.689958E+02 -1.284434E+01 -2.668700E+01
       168   7  7.904092E+02  6.198665E+00 -8.864463E-01 -2.368526E+02 -1.483672E+01 -1.954799E+01
       168   8  7.863645E+02 -2.444319E+01 -6.131664E-02 -2.542668E+02 -1.612803E+01 -2.304288E+01
       168   9  7.776557E+02 -6.529512E+01 -2.830922E+00 -2.757286E+02 -1.744885E+01 -2.710957E+01
       168  10  9.222899E+02 -7.347805E+00 -1.826318E+00 -2.387737E+02 -5.368347E-13 -1.315336E-13
       168  11  9.427368E+02 -4.065371E+01  3.098748E-02 -2.498795E+02 -1.357093E-13 -1.586755E-13
       168  12  9.603960E+02 -7.872252E+01 -5.796547E-01 -2.631833E+02  3.215267E-13 -1.077845E-13
       168  13  8.605919E+02  1.165184E+00 -8.729675E-02 -2.383329E+02 -9.186477E-14  6.681074E-14
       168  14  8.702818E+02 -3.045529E+01  1.856134E+00 -2.521309E+02  1.753782E-13  3.549321E-14
       168  15  8.762686E+02 -6.930422E+01  8.524909E-01 -2.689958E+02  1.670269E-13 -1.252701E-14
       168  16  7.904092E+02  6.198665E+00 -8.864463E-01 -2.368526E+02 -1.670269E-14  2.714186E-13
       168  17  7.863645E+02 -2.444319E+01 -6.131664E-02 -2.542668E+02  3.340537E-14  1.993883E-13
       168  18  7.776557E+02 -6.529512E+01 -2.830922E+00 -2.757286E+02 -8.351343E-15  1.359703E-13
       168  19  9.222899E+02 -7.347805E+00 -1.826318E+00 -2.387737E+02  8.438809E+00  1.896832E+01
       168  20  9.427368E+02 -4.065371E+01  3.098748E-02 -2.498795E+02  8.616523E+00  2.238896E+01
       168  21  9.603960E+02 -7.872252E+01 -5.796547E-01 -2.631833E+02  8.838241E+00  2.619020E+01
       168  22  8.605919E+02  1.165184E+00 -8.729675E-02 -2.383329E+02  1.143169E+01  1.932511E+01
       168  23  8.702818E+02 -3.045529E+01  1.856134E+00 -2.521309E+02  1.211778E+01  2.277200E+01
       168  24  8.762686E+02 -6.930422E+01  8.524909E-01 -2.689958E+02  1.284434E+01  2.668700E+01
       168  25  7.904092E+02  6.198665E+00 -8.864463E-01 -2.368526E+02  1.483672E+01  1.954799E+01
       168  26  7.863645E+02 -2.444319E+01 -6.131664E-02 -2.542668E+02  1.612803E+01  2.304288E+01
       168  27  7.776557E+02 -6.529512E+01 -2.830922E+00 -2.757286E+02  1.744885E+01  2.710957E+01
       169   1  1.034725E+03 -1.870116E+00 -6.766374E+00 -6.596691E+00  5.887782E+00  9.101121E-01
       169   2  1.043308E+03  4.494096E+00 -2.291162E+00 -2.099587E+01  5.369073E+00  1.495618E+00
       169   3  1.042750E+03  6.793519E+00 -2.308244E+00 -3.588448E+01  4.750626E+00  2.060028E+00
       169   4  1.018888E+03 -9.204348E-01 -6.180674E+00 -4.178130E+00  4.705202E+00  1.126378E+00
       169   5  1.029069E+03  5.745985E+00 -1.660306E+00 -1.517457E+01  4.430905E+00  1.841950E+00
       169   6  1.030005E+03  8.286224E+00 -1.726564E+00 -2.655203E+01  4.072529E+00  2.543231E+00
       169   7  1.001772E+03 -2.099282E+00 -7.744372E+00 -2.299068E+00  3.523247E+00  1.094410E+00
       169   8  1.013709E+03  5.003371E+00 -2.823609E+00 -9.864563E+00  3.495866E+00  1.921579E+00
       169   9  1.016296E+03  7.916089E+00 -2.585008E+00 -1.769802E+01  3.400622E+00  2.740092E+00
       169  10  1.034725E+03 -1.870116E+00 -6.766374E+00 -6.596691E+00  1.670269E-13  4.927292E-13
       169  11  1.043308E+03  4.494096E+00 -2.291162E+00 -2.099587E+01  3.507564E-13  1.461485E-13
       169  12  1.042750E+03  6.793519E+00 -2.308244E+00 -3.588448E+01  2.004322E-13 -2.098275E-13
       169  13  1.018888E+03 -9.204348E-01 -6.180674E+00 -4.178130E+00 -2.561513E-13  4.843779E-13
       169  14  1.029069E+03  5.745985E+00 -1.660306E+00 -1.517457E+01 -2.059128E-13  1.503242E-13
       169  15  1.030005E+03  8.286224E+00 -1.726564E+00 -2.655203E+01 -1.471924E-13 -6.263507E-14
       169  16  1.001772E+03 -2.099282E+00 -7.744372E+00 -2.299068E+00 -1.670269E-13  2.129592E-13
       169  17  1.013709E+03  5.003371E+00 -2.823609E+00 -9.864563E+00 -5.511886E-13  1.043918E-13
       169  18  1.016296E+03  7.916089E+00 -2.585008E+00 -1.769802E+01 -1.712025E-13 -1.440607E-13
       169  19  1.034725E+03 -1.870116E+00 -6.766374E+00 -6.596691E+00 -5.887782E+00 -9.101121E-01
       169  20  1.043308E+03  4.494096E+00 -2.291162E+00 -2.099587E+01 -5.369073E+00 -1.495618E+00
       169  21  1.042750E+03  6.793519E+00 -2.308244E+00 -3.588448E+01 -4.750626E+00 -2.060028E+00
       169  22  1.018888E+03 -9.204348E-01 -6.180674E+00 -4.178130E+00 -4.705202E+00 -1.126378E+00
       169  23  1.029069E+03  5.745985E+00 -1.660306E+00 -1.517457E+01 -4.430905E+00 -1.841950E+00
       169  24  1.030005E+03  8.286224E+00 -1.726564E+00 -2.655203E+01 -4.072529E+00 -2.543231E+00
       169  25  1.001772E+03 -2.099282E+00 -7.744372E+00 -2.299068E+00 -3.523247E+00 -1.094410E+00
       169  26  1.013709E+03  5.003371E+00 -2.823609E+00 -9.864563E+00 -3.495866E+00 -1.921579E+00
       169  27  1.016296E+03  7.916089E+00 -2.585008E+00 -1.769802E+01 -3.400622E+00 -2.740092E+00
       170   1  1.041239E+03  1.278601E+01 -1.473583E+00 -4.234143E+01  4.380179E+00  2.085668E+00
       170   2  1.037171E+03  2.296039E+01 -5.742210E-01 -5.163158E+01  3.711069E+00  2.070636E+00
       170   3  1.030498E+03  3.209158E+01 -8.657416E-01 -6.090565E+01  2.919237E+00  2.029626E+00
       170   4  1.029371E+03  1.414886E+01 -1.002249E+00 -3.223969E+01  3.840451E+00  2.566598E+00
       170   5  1.027084E+03  2.433141E+01 -1.538676E-01 -4.031257E+01  3.377159E+00  2.689094E+00
       170   6  1.022284E+03  3.348694E+01 -5.189819E-01 -4.830086E+01  2.804908E+00  2.793058E+00
       170   7  1.016243E+03  1.281403E+01 -2.175354E+00 -2.269388E+01  3.306433E+00  2.841456E+00
       170   8  1.015829E+03  2.301765E+01 -1.147860E+00 -2.958059E+01  3.051831E+00  3.086659E+00
       170   9  1.012998E+03  3.220365E+01 -1.357980E+00 -3.631487E+01  2.702631E+00  3.319792E+00
       170  10  1.041239E+03  1.278601E+01 -1.473583E+00 -4.234143E+01  6.681074E-14 -4.175671E-13
       170  11  1.037171E+03  2.296039E+01 -5.742210E-01 -5.163158E+01  4.175671E-13  8.351343E-15
       170  12  1.030498E+03  3.209158E+01 -8.657416E-01 -6.090565E+01  5.762426E-13  4.196550E-13
       170  13  1.029371E+03  1.414886E+01 -1.002249E+00 -3.223969E+01  4.906414E-14 -4.342698E-13
       170  14  1.027084E+03  2.433141E+01 -1.538676E-01 -4.031257E+01  3.705908E-14 -1.336215E-13
       170  15  1.022284E+03  3.348694E+01 -5.189819E-01 -4.830086E+01 -2.870774E-13  2.776821E-13
       170  16  1.016243E+03  1.281403E+01 -2.175354E+00 -2.269388E+01  1.336215E-13 -5.616278E-13
       170  17  1.015829E+03  2.301765E+01 -1.147860E+00 -2.958059E+01  3.173510E-13 -9.604044E-14
       170  18  1.012998E+03  3.220365E+01 -1.357980E+00 -3.631487E+01 -3.298780E-13  3.862496E-13
       170  19  1.041239E+03  1.278601E+01 -1.473583E+00 -4.234143E+01 -4.380179E+00 -2.085668E+00
       170  20  1.037171E+03  2.296039E+01 -5.742210E-01 -5.163158E+01 -3.711069E+00 -2.070636E+00
       170  21  1.030498E+03  3.209158E+01 -8.657416E-01 -6.090565E+01 -2.919237E+00 -2.029626E+00
       170  22  1.029371E+03  1.414886E+01 -1.002249E+00 -3.223969E+01 -3.840451E+00 -2.566598E+00
       170  23  1.027084E+03  2.433141E+01 -1.538676E-01 -4.031257E+01 -3.377159E+00 -2.689094E+00
       170  24  1.022284E+03  3.348694E+01 -5.189819E-01 -4.830086E+01 -2.804908E+00 -2.793058E+00
       170  25  1.016243E+03  1.281403E+01 -2.175354E+00 -2.269388E+01 -3.306433E+00 -2.841456E+00
       170  26  1.015829E+03  2.301765E+01 -1.147860E+00 -2.958059E+01 -3.051831E+00 -3.086659E+00
       170  27  1.012998E+03  3.220365E+01 -1.357980E+00 -3.631487E+01 -2.702631E+00 -3.319792E+00
       171   1  1.010602E+03  1.279635E+01 -2.241870E+00 -1.608627E+01  2.938972E+00  2.853960E+00
       171   2  1.009724E+03  2.214600E+01 -1.726825E+00 -2.276521E+01  2.862998E+00  3.207098E+00
       171   3  1.007408E+03  3.088926E+01 -2.092914E+00 -2.914637E+01  2.584658E+00  3.539512E+00
       171   4  1.006258E+03  9.954127E+00 -2.173999E+00 -8.205083E+00  2.032579E+00  2.692978E+00
       171   5  1.006449E+03  1.888837E+01 -1.533368E+00 -1.256135E+01  2.045813E+00  3.266271E+00
       171   6  1.005197E+03  2.714884E+01 -1.947389E+00 -1.644070E+01  1.858997E+00  3.827885E+00
       171   7  9.978423E+02 -1.863094E+00 -6.810337E+00 -7.106049E-01  1.128210E+00  2.459010E+00
       171   8  9.989214E+02  6.108855E+00 -6.151977E+00 -2.740146E+00  1.231584E+00  3.249398E+00
       171   9  9.985359E+02  1.328993E+01 -6.742021E+00 -4.108333E+00  1.137367E+00  4.037156E+00
       171  10  1.010602E+03  1.279635E+01 -2.241870E+00 -1.608627E+01 -2.004322E-13 -5.428373E-13
       171  11  1.009724E+03  2.214600E+01 -1.726825E+00 -2.276521E+01 -5.845940E-13 -2.922970E-14
       171  12  1.007408E+03  3.088926E+01 -2.092914E+00 -2.914637E+01 -2.964727E-13  4.791583E-13
       171  13  1.006258E+03  9.954127E+00 -2.173999E+00 -8.205083E+00  2.474085E-13 -5.678913E-13
       171  14  1.006449E+03  1.888837E+01 -1.533368E+00 -1.256135E+01 -1.999103E-13 -1.085675E-13
       171  15  1.005197E+03  2.714884E+01 -1.947389E+00 -1.644070E+01 -3.758104E-13  3.131754E-13
       171  16  9.978423E+02 -1.863094E+00 -6.810337E+00 -7.106049E-01  4.342698E-13 -3.340537E-13
       171  17  9.989214E+02  6.108855E+00 -6.151977E+00 -2.740146E+00  4.008645E-13 -2.922970E-14
       171  18  9.985359E+02  1.328993E+01 -6.742021E+00 -4.108333E+00  1.461485E-13  3.048240E-13
       171  19  1.010602E+03  1.279635E+01 -2.241870E+00 -1.608627E+01 -2.938972E+00 -2.853960E+00
       171  20  1.009724E+03  2.214600E+01 -1.726825E+00 -2.276521E+01 -2.862998E+00 -3.207098E+00
       171  21  1.007408E+03  3.088926E+01 -2.092914E+00 -2.914637E+01 -2.584658E+00 -3.539512E+00
       171  22  1.006258E+03  9.954127E+00 -2.173999E+00 -8.205083E+00 -2.032579E+00 -2.692978E+00
       171  23  1.006449E+03  1.888837E+01 -1.533368E+00 -1.256135E+01 -2.045813E+00 -3.266271E+00
       171  24  1.005197E+03  2.714884E+01 -1.947389E+00 -1.644070E+01 -1.858997E+00 -3.827885E+00
       171  25  9.978423E+02 -1.863094E+00 -6.810337E+00 -7.106049E-01 -1.128210E+00 -2.459010E+00
       171  26  9.989214E+02  6.108855E+00 -6.151977E+00 -2.740146E+00 -1.231584E+00 -3.249398E+00
       171  27  9.985359E+02  1.328993E+01 -6.742021E+00 -4.108333E+00 -1.137367E+00 -4.037156E+00
       172   1  9.990154E+02 -4.612008E-01 -6.412483E+00 -3.369768E-01  2.512055E+00  9.234978E-01
       172   2  1.007250E+03  4.762130E+00 -3.176212E+00 -6.180933E+00  2.647691E+00  1.765551E+00
       172   3  1.009967E+03  7.508496E+00 -2.951993E+00 -1.187075E+01  2.850652E+00  2.614497E+00
       172   4  9.983817E+02  4.352735E-01 -4.401651E+00  5.779236E-01  1.537013E+00  6.961959E-01
       172   5  1.004934E+03  3.981509E+00 -2.091263E+00 -2.688257E+00  1.691626E+00  1.454216E+00
       172   6  1.005767E+03  4.955866E+00 -2.817124E+00 -5.684909E+00  1.916629E+00  2.216344E+00
       172   7  9.957171E+02 -2.684605E+00 -5.135049E+00  1.891798E+00  5.619214E-01  4.880074E-01
       172   8  1.000500E+03 -1.023390E+00 -3.791950E+00  1.290024E+00  7.353790E-01  1.158315E+00
       172   9  9.993482E+02 -2.049782E+00 -5.519885E+00  1.082517E+00  9.823580E-01  1.829600E+00
       172  10  9.990154E+02 -4.612008E-01 -6.412483E+00 -3.369768E-01 -7.015128E-13 -1.252701E-13
       172  11  1.007250E+03  4.762130E+00 -3.176212E+00 -6.180933E+00 -4.008645E-13 -1.503242E-13
       172  12  1.009967E+03  7.508496E+00 -2.951993E+00 -1.187075E+01 -2.380133E-13 -1.607633E-13
       172  13  9.983817E+02  4.352735E-01 -4.401651E+00  5.779236E-01  3.662847E-13 -6.179994E-13
       172  14  1.004934E+03  3.981509E+00 -2.091263E+00 -2.688257E+00  8.116461E-13 -2.338376E-13
       172  15  1.005767E+03  4.955866E+00 -2.817124E+00 -5.684909E+00  3.854667E-13 -2.714186E-14
       172  16  9.957171E+02 -2.684605E+00 -5.135049E+00  1.891798E+00  7.015128E-13 -8.768910E-13
       172  17  1.000500E+03 -1.023390E+00 -3.791950E+00  1.290024E+00  5.177832E-13 -1.252701E-13
       172  18  9.993482E+02 -2.049782E+00 -5.519885E+00  1.082517E+00  3.758104E-13  5.939893E-13
       172  19  9.990154E+02 -4.612008E-01 -6.412483E+00 -3.369768E-01 -2.512055E+00 -9.234978E-01
       172  20  1.007250E+03  4.762130E+00 -3.176212E+00 -6.180933E+00 -2.647691E+00 -1.765551E+00
       172  21  1.009967E+03  7.508496E+00 -2.951993E+00 -1.187075E+01 -2.850652E+00 -2.614497E+00
       172  22  9.983817E+02  4.352735E-01 -4.401651E+00  5.779236E-01 -1.537013E+00 -6.961959E-01
       172  23  1.004934E+03  3.981509E+00 -2.091263E+00 -2.688257E+00 -1.691626E+00 -1.454216E+00
       172  24  1.005767E+03  4.955866E+00 -2.817124E+00 -5.684909E+00 -1.916629E+00 -2.216344E+00
       172  25  9.957171E+02 -2.684605E+00 -5.135049E+00  1.891798E+00 -5.619214E-01 -4.880074E-01
       172  26  1.000500E+03 -1.023390E+00 -3.791950E+00  1.290024E+00 -7.353790E-01 -1.158315E+00
       172  27  9.993482E+02 -2.049782E+00 -5.519885E+00  1.082517E+00 -9.823580E-01 -1.829600E+00
       173   1  1.200552E+03 -3.587476E+00 -3.113472E+01  4.931026E+01 -1.927298E+01  7.386314E+00
       173   2  1.088948E+03 -1.826161E+00 -4.622824E+01  3.832152E+01 -1.768114E+01  1.159873E+01
       173   3  9.762874E+02 -2.008201E+00 -6.372404E+01  4.010838E+01 -1.609565E+01  1.495943E+01
       173   4  1.301915E+03 -1.410814E+00 -1.054318E+01  1.229566E+02 -1.295923E+01  1.555629E+01
       173   5  1.222155E+03  1.082752E+01 -1.810899E+01  1.063857E+02 -1.211498E+01  2.358546E+01
       173   6  1.142951E+03  2.204123E+01 -2.637278E+01  1.023085E+02 -1.129169E+01  3.097966E+01
       173   7  1.388585E+03 -7.993075E+00 -4.464977E+00  1.957970E+02 -2.907413E+00  2.372159E+01
       173   8  1.337972E+03  1.251338E+01 -9.167506E+00  1.736169E+02 -2.615858E+00  3.556814E+01
       173   9  1.289481E+03  3.289332E+01 -1.288426E+01  1.636469E+02 -2.348796E+00  4.699663E+01
       173  10  1.200552E+03 -3.587476E+00 -3.113472E+01  4.931026E+01  3.841618E-13  3.340537E-14
       173  11  1.088948E+03 -1.826161E+00 -4.622824E+01  3.832152E+01 -1.670269E-14  0.000000E+00
       173  12  9.762874E+02 -2.008201E+00 -6.372404E+01  4.010838E+01 -3.737226E-13 -2.547160E-13
       173  13  1.301915E+03 -1.410814E+00 -1.054318E+01  1.229566E+02  1.336215E-13 -8.963013E-14
       173  14  1.222155E+03  1.082752E+01 -1.810899E+01  1.063857E+02 -5.010806E-14 -1.697345E-13
       173  15  1.142951E+03  2.204123E+01 -2.637278E+01  1.023085E+02 -3.507564E-13  5.792113E-14
       173  16  1.388585E+03 -7.993075E+00 -4.464977E+00  1.957970E+02  2.338376E-13 -1.670269E-13
       173  17  1.337972E+03  1.251338E+01 -9.167506E+00  1.736169E+02 -6.681074E-14 -3.507564E-13
       173  18  1.289481E+03  3.289332E+01 -1.288426E+01  1.636469E+02 -1.920809E-13 -4.593238E-14
       173  19  1.200552E+03 -3.587476E+00 -3.113472E+01  4.931026E+01  1.927298E+01 -7.386314E+00
       173  20  1.088948E+03 -1.826161E+00 -4.622824E+01  3.832152E+01  1.768114E+01 -1.159873E+01
       173  21  9.762874E+02 -2.008201E+00 -6.372404E+01  4.010838E+01  1.609565E+01 -1.495943E+01
       173  22  1.301915E+03 -1.410814E+00 -1.054318E+01  1.229566E+02  1.295923E+01 -1.555629E+01
       173  23  1.222155E+03  1.082752E+01 -1.810899E+01  1.063857E+02  1.211498E+01 -2.358546E+01
       173  24  1.142951E+03  2.204123E+01 -2.637278E+01  1.023085E+02  1.129169E+01 -3.097966E+01
       173  25  1.388585E+03 -7.993075E+00 -4.464977E+00  1.957970E+02  2.907413E+00 -2.372159E+01
       173  26  1.337972E+03  1.251338E+01 -9.167506E+00  1.736169E+02  2.615858E+00 -3.556814E+01
       173  27  1.289481E+03  3.289332E+01 -1.288426E+01  1.636469E+02  2.348796E+00 -4.699663E+01
       174   1  8.971993E+02 -1.198362E+01 -8.211053E+01  3.310677E+01 -1.289466E+01  1.704046E+01
       174   2  8.466159E+02 -5.167173E+00 -8.514099E+01  1.505173E+01 -7.809264E+00  1.976011E+01
       174   3  7.886015E+02 -1.234016E+01 -9.947482E+01  5.080069E+00 -2.744339E+00  1.972706E+01
       174   4  1.105331E+03  2.853877E+01 -2.953281E+01  8.472400E+01 -8.291071E+00  3.473079E+01
       174   5  1.066708E+03  3.927541E+01 -3.008103E+01  4.580228E+01 -5.515259E+00  3.906789E+01
       174   6  1.022586E+03  3.759058E+01 -3.853955E+01  1.377937E+01 -2.827066E+00  4.075024E+01
       174   7  1.254653E+03  3.889528E+01 -1.870158E+01  1.358447E+02 -1.846227E+00  5.241993E+01
       174   8  1.224258E+03  5.165590E+01 -1.935517E+01  7.604329E+01 -1.298394E+00  5.837495E+01
       174   9  1.190100E+03  5.347850E+01 -2.461051E+01  2.195469E+01 -9.003433E-01  6.177325E+01
       174  10  8.971993E+02 -1.198362E+01 -8.211053E+01  3.310677E+01 -9.186477E-14 -3.340537E-14
       174  11  8.466159E+02 -5.167173E+00 -8.514099E+01  1.505173E+01  2.087836E-14  3.340537E-14
       174  12  7.886015E+02 -1.234016E+01 -9.947482E+01  5.080069E+00  6.576682E-14 -9.186477E-14
       174  13  1.105331E+03  2.853877E+01 -2.953281E+01  8.472400E+01 -6.681074E-14 -2.414060E-15
       174  14  1.066708E+03  3.927541E+01 -3.008103E+01  4.580228E+01  5.010806E-14  2.937528E-13
       174  15  1.022586E+03  3.759058E+01 -3.853955E+01  1.377937E+01  9.812828E-14  4.941279E-15
       174  16  1.254653E+03  3.889528E+01 -1.870158E+01  1.358447E+02 -6.681074E-14  1.336215E-13
       174  17  1.224258E+03  5.165590E+01 -1.935517E+01  7.604329E+01  2.922970E-14  6.681074E-14
       174  18  1.190100E+03  5.347850E+01 -2.461051E+01  2.195469E+01  8.873302E-14 -3.340537E-14
       174  19  8.971993E+02 -1.198362E+01 -8.211053E+01  3.310677E+01  1.289466E+01 -1.704046E+01
       174  20  8.466159E+02 -5.167173E+00 -8.514099E+01  1.505173E+01  7.809264E+00 -1.976011E+01
       174  21  7.886015E+02 -1.234016E+01 -9.947482E+01  5.080069E+00  2.744339E+00 -1.972706E+01
       174  22  1.105331E+03  2.853877E+01 -2.953281E+01  8.472400E+01  8.291071E+00 -3.473079E+01
       174  23  1.066708E+03  3.927541E+01 -3.008103E+01  4.580228E+01  5.515259E+00 -3.906789E+01
       174  24  1.022586E+03  3.759058E+01 -3.853955E+01  1.377937E+01  2.827066E+00 -4.075024E+01
       174  25  1.254653E+03  3.889528E+01 -1.870158E+01  1.358447E+02  1.846227E+00 -5.241993E+01
       174  26  1.224258E+03  5.165590E+01 -1.935517E+01  7.604329E+01  1.298394E+00 -5.837495E+01
       174  27  1.190100E+03  5.347850E+01 -2.461051E+01  2.195469E+01  9.003433E-01 -6.177325E+01
       175   1  1.335848E+03  7.371617E+01 -1.059868E+01  1.501420E+02  2.583403E+00  5.354128E+01
       175   2  1.313233E+03  9.924302E+01 -7.554979E+00  8.665530E+01  1.320579E+00  6.097993E+01
       175   3  1.278452E+03  9.401441E+01 -1.564630E+01  2.460137E+01 -3.027578E-01  6.351211E+01
       175   4  1.473194E+03  1.171852E+02 -3.916373E+00  1.571073E+02  1.207585E+01  5.825173E+01
       175   5  1.454943E+03  1.518364E+02 -2.041451E+00  8.973735E+01  6.642262E+00  6.677498E+01
       175   6  1.427558E+03  1.589862E+02 -5.117720E+00  2.381258E+01  7.289133E-01  7.045591E+01
       175   7  1.618604E+03  1.627825E+02  1.810668E+00  1.667725E+02  2.262148E+01  6.296145E+01
       175   8  1.604936E+03  2.063971E+02  1.757091E+00  9.567705E+01  1.307061E+01  7.256955E+01
       175   9  1.585204E+03  2.257823E+02  2.953924E+00  2.604889E+01  2.923954E+00  7.739955E+01
       175  10  1.335848E+03  7.371617E+01 -1.059868E+01  1.501420E+02  1.252701E-14 -5.678913E-13
       175  11  1.313233E+03  9.924302E+01 -7.554979E+00  8.665530E+01  4.175671E-14 -3.674591E-13
       175  12  1.278452E+03  9.401441E+01 -1.564630E+01  2.460137E+01  1.002161E-13 -4.593238E-14
       175  13  1.473194E+03  1.171852E+02 -3.916373E+00  1.571073E+02  8.351343E-14 -9.891122E-14
       175  14  1.454943E+03  1.518364E+02 -2.041451E+00  8.973735E+01  1.503242E-13  2.332585E-13
       175  15  1.427558E+03  1.589862E+02 -5.117720E+00  2.381258E+01  1.670269E-13  1.869102E-13
       175  16  1.618604E+03  1.627825E+02  1.810668E+00  1.667725E+02  3.257024E-13  5.010806E-13
       175  17  1.604936E+03  2.063971E+02  1.757091E+00  9.567705E+01  1.252701E-13  4.342698E-13
       175  18  1.585204E+03  2.257823E+02  2.953924E+00  2.604889E+01  1.628512E-13  2.380133E-13
       175  19  1.335848E+03  7.371617E+01 -1.059868E+01  1.501420E+02 -2.583403E+00 -5.354128E+01
       175  20  1.313233E+03  9.924302E+01 -7.554979E+00  8.665530E+01 -1.320579E+00 -6.097993E+01
       175  21  1.278452E+03  9.401441E+01 -1.564630E+01  2.460137E+01  3.027578E-01 -6.351211E+01
       175  22  1.473194E+03  1.171852E+02 -3.916373E+00  1.571073E+02 -1.207585E+01 -5.825173E+01
       175  23  1.454943E+03  1.518364E+02 -2.041451E+00  8.973735E+01 -6.642262E+00 -6.677498E+01
       175  24  1.427558E+03  1.589862E+02 -5.117720E+00  2.381258E+01 -7.289133E-01 -7.045591E+01
       175  25  1.618604E+03  1.627825E+02  1.810668E+00  1.667725E+02 -2.262148E+01 -6.296145E+01
       175  26  1.604936E+03  2.063971E+02  1.757091E+00  9.567705E+01 -1.307061E+01 -7.256955E+01
       175  27  1.585204E+03  2.257823E+02  2.953924E+00  2.604889E+01 -2.923954E+00 -7.739955E+01
       176   1  1.437962E+03 -6.455728E+00 -2.086007E+00  2.121111E+02  3.930693E+00  2.339487E+01
       176   2  1.400997E+03  2.174722E+01 -6.339447E+00  1.937572E+02  3.786655E+00  3.566771E+01
       176   3  1.368762E+03  5.753570E+01 -5.892220E+00  1.809968E+02  3.593506E+00  4.727218E+01
       176   4  1.525916E+03 -2.036933E+01 -7.769353E-01  2.062161E+02  1.687013E+01  2.230005E+01
       176   5  1.507130E+03  2.975101E+01 -4.386305E+00  1.945935E+02  1.604043E+01  3.688834E+01
       176   6  1.494876E+03  8.963905E+01 -9.170969E-01  1.889246E+02  1.515752E+01  5.093953E+01
       176   7  1.628264E+03 -2.780887E+01  7.778663E+00  2.057095E+02  3.192577E+01  2.120255E+01
       176   8  1.627333E+03  4.340600E+01  2.385748E+00  2.011402E+02  3.052857E+01  3.810666E+01
       176   9  1.634786E+03  1.265926E+02  6.470965E+00  2.029032E+02  2.908078E+01  5.460500E+01
       176  10  1.437962E+03 -6.455728E+00 -2.086007E+00  2.121111E+02 -8.351343E-15  6.681074E-14
       176  11  1.400997E+03  2.174722E+01 -6.339447E+00  1.937572E+02 -1.085675E-13 -3.507564E-13
       176  12  1.368762E+03  5.753570E+01 -5.892220E+00  1.809968E+02 -1.670269E-13 -6.012967E-13
       176  13  1.525916E+03 -2.036933E+01 -7.769353E-01  2.062161E+02  3.340537E-14 -4.002772E-14
       176  14  1.507130E+03  2.975101E+01 -4.386305E+00  1.945935E+02 -2.004322E-13 -5.788851E-14
       176  15  1.494876E+03  8.963905E+01 -9.170969E-01  1.889246E+02 -3.925131E-13 -1.169188E-13
       176  16  1.628264E+03 -2.780887E+01  7.778663E+00  2.057095E+02  2.672430E-13  1.336215E-13
       176  17  1.627333E+03  4.340600E+01  2.385748E+00  2.011402E+02 -1.670269E-14  2.505403E-13
       176  18  1.634786E+03  1.265926E+02  6.470965E+00  2.029032E+02 -2.505403E-13  4.760265E-13
       176  19  1.437962E+03 -6.455728E+00 -2.086007E+00  2.121111E+02 -3.930693E+00 -2.339487E+01
       176  20  1.400997E+03  2.174722E+01 -6.339447E+00  1.937572E+02 -3.786655E+00 -3.566771E+01
       176  21  1.368762E+03  5.753570E+01 -5.892220E+00  1.809968E+02 -3.593506E+00 -4.727218E+01
       176  22  1.525916E+03 -2.036933E+01 -7.769353E-01  2.062161E+02 -1.687013E+01 -2.230005E+01
       176  23  1.507130E+03  2.975101E+01 -4.386305E+00  1.945935E+02 -1.604043E+01 -3.688834E+01
       176  24  1.494876E+03  8.963905E+01 -9.170969E-01  1.889246E+02 -1.515752E+01 -5.093953E+01
       176  25  1.628264E+03 -2.780887E+01  7.778663E+00  2.057095E+02 -3.192577E+01 -2.120255E+01
       176  26  1.627333E+03  4.340600E+01  2.385748E+00  2.011402E+02 -3.052857E+01 -3.810666E+01
       176  27  1.634786E+03  1.265926E+02  6.470965E+00  2.029032E+02 -2.908078E+01 -5.460500E+01
       177   1  1.037489E+03  3.227442E+01 -2.729305E-01 -6.836695E+01  3.181411E+00  1.546515E+00
       177   2  1.044631E+03  2.240585E+01 -5.099796E-01 -5.874790E+01  4.056299E+00  1.618186E+00
       177   3  1.050608E+03  1.223400E+01 -1.287812E+00 -4.885998E+01  4.965782E+00  1.697794E+00
       177   4  1.047269E+03  3.254726E+01 -1.494548E-01 -8.124878E+01  3.279458E+00  4.998685E-01
       177   5  1.058706E+03  2.300878E+01  8.048580E-02 -7.008227E+01  4.387106E+00  5.680025E-01
       177   6  1.068873E+03  1.308295E+01 -3.541479E-01 -5.871026E+01  5.517701E+00  6.418614E-01
       177   7  1.056882E+03  3.092356E+01 -5.907541E-01 -9.545019E+01  3.408548E+00 -7.474447E-01
       177   8  1.072377E+03  2.167808E+01 -2.099442E-01 -8.275936E+01  4.740675E+00 -6.722170E-01
       177   9  1.086505E+03  1.196111E+01 -6.151195E-01 -6.992127E+01  6.085174E+00 -5.936749E-01
       177  10  1.037489E+03  3.227442E+01 -2.729305E-01 -6.836695E+01 -3.340537E-13  2.505403E-14
       177  11  1.044631E+03  2.240585E+01 -5.099796E-01 -5.874790E+01 -2.004322E-13 -1.210945E-13
       177  12  1.050608E+03  1.223400E+01 -1.287812E+00 -4.885998E+01  4.802022E-13 -3.100436E-13
       177  13  1.047269E+03  3.254726E+01 -1.494548E-01 -8.124878E+01 -2.233984E-13 -2.338376E-13
       177  14  1.058706E+03  2.300878E+01  8.048580E-02 -7.008227E+01 -3.758104E-14 -2.755943E-13
       177  15  1.068873E+03  1.308295E+01 -3.541479E-01 -5.871026E+01 -6.785466E-14 -4.050401E-13
       177  16  1.056882E+03  3.092356E+01 -5.907541E-01 -9.545019E+01  8.017289E-13  1.795539E-13
       177  17  1.072377E+03  2.167808E+01 -2.099442E-01 -8.275936E+01 -1.670269E-14 -9.799779E-14
       177  18  1.086505E+03  1.196111E+01 -6.151195E-01 -6.992127E+01  1.210945E-13 -2.181788E-13
       177  19  1.037489E+03  3.227442E+01 -2.729305E-01 -6.836695E+01 -3.181411E+00 -1.546515E+00
       177  20  1.044631E+03  2.240585E+01 -5.099796E-01 -5.874790E+01 -4.056299E+00 -1.618186E+00
       177  21  1.050608E+03  1.223400E+01 -1.287812E+00 -4.885998E+01 -4.965782E+00 -1.697794E+00
       177  22  1.047269E+03  3.254726E+01 -1.494548E-01 -8.124878E+01 -3.279458E+00 -4.998685E-01
       177  23  1.058706E+03  2.300878E+01  8.048580E-02 -7.008227E+01 -4.387106E+00 -5.680025E-01
       177  24  1.068873E+03  1.308295E+01 -3.541479E-01 -5.871026E+01 -5.517701E+00 -6.418614E-01
       177  25  1.056882E+03  3.092356E+01 -5.907541E-01 -9.545019E+01 -3.408548E+00  7.474447E-01
       177  26  1.072377E+03  2.167808E+01 -2.099442E-01 -8.275936E+01 -4.740675E+00  6.722170E-01
       177  27  1.086505E+03  1.196111E+01 -6.151195E-01 -6.992127E+01 -6.085174E+00  5.936749E-01
       178   1  1.052956E+03  6.458789E+00 -2.084745E+00 -4.169573E+01  5.534354E+00  1.675157E+00
       178   2  1.054688E+03  3.862758E+00 -2.256408E+00 -2.458796E+01  6.366992E+00  1.284920E+00
       178   3  1.050233E+03 -1.062691E+00 -5.432781E+00 -7.168794E+00  6.895368E+00  8.248017E-01
       178   4  1.074062E+03  7.877784E+00 -7.484279E-01 -4.997670E+01  6.204725E+00  6.074916E-01
       178   5  1.080787E+03  4.917579E+00 -4.825894E-01 -2.914008E+01  7.208155E+00  5.876347E-01
       178   6  1.081758E+03 -1.198526E-01 -2.782957E+00 -8.078349E+00  7.920309E+00  4.949677E-01
       178   7  1.094225E+03  6.631778E+00 -1.039112E+00 -6.015734E+01  6.885474E+00 -6.126477E-01
       178   8  1.105739E+03  3.368112E+00 -5.951151E-01 -3.573211E+01  8.055629E+00 -2.782038E-01
       178   9  1.111915E+03 -1.734281E+00 -2.288103E+00 -1.115793E+01  8.946767E+00 -1.879738E-02
       178  10  1.052956E+03  6.458789E+00 -2.084745E+00 -4.169573E+01  1.670269E-13 -2.254863E-13
       178  11  1.054688E+03  3.862758E+00 -2.256408E+00 -2.458796E+01  2.839457E-13  8.351343E-14
       178  12  1.050233E+03 -1.062691E+00 -5.432781E+00 -7.168794E+00 -7.516208E-14  4.259185E-13
       178  13  1.074062E+03  7.877784E+00 -7.484279E-01 -4.997670E+01 -5.219589E-15 -2.505403E-13
       178  14  1.080787E+03  4.917579E+00 -4.825894E-01 -2.914008E+01  5.407494E-13  1.002161E-13
       178  15  1.081758E+03 -1.198526E-01 -2.782957E+00 -8.078349E+00 -1.118297E-13  3.778983E-13
       178  16  1.094225E+03  6.631778E+00 -1.039112E+00 -6.015734E+01 -1.002161E-13 -4.342698E-13
       178  17  1.105739E+03  3.368112E+00 -5.951151E-01 -3.573211E+01 -4.175671E-13  5.271785E-14
       178  18  1.111915E+03 -1.734281E+00 -2.288103E+00 -1.115793E+01  6.681074E-14  3.413611E-13
       178  19  1.052956E+03  6.458789E+00 -2.084745E+00 -4.169573E+01 -5.534354E+00 -1.675157E+00
       178  20  1.054688E+03  3.862758E+00 -2.256408E+00 -2.458796E+01 -6.366992E+00 -1.284920E+00
       178  21  1.050233E+03 -1.062691E+00 -5.432781E+00 -7.168794E+00 -6.895368E+00 -8.248017E-01
       178  22  1.074062E+03  7.877784E+00 -7.484279E-01 -4.997670E+01 -6.204725E+00 -6.074916E-01
       178  23  1.080787E+03  4.917579E+00 -4.825894E-01 -2.914008E+01 -7.208155E+00 -5.876347E-01
       178  24  1.081758E+03 -1.198526E-01 -2.782957E+00 -8.078349E+00 -7.920309E+00 -4.949677E-01
       178  25  1.094225E+03  6.631778E+00 -1.039112E+00 -6.015734E+01 -6.885474E+00  6.126477E-01
       178  26  1.105739E+03  3.368112E+00 -5.951151E-01 -3.573211E+01 -8.055629E+00  2.782038E-01
       178  27  1.111915E+03 -1.734281E+00 -2.288103E+00 -1.115793E+01 -8.946767E+00  1.879738E-02
       179   1  1.108054E+03  6.535142E+00 -7.189207E-01 -6.562454E+01  7.537251E+00 -1.392507E+00
       179   2  1.122291E+03  2.827015E+00 -4.042047E-01 -3.908151E+01  8.913497E+00 -7.562605E-01
       179   3  1.135049E+03 -5.229620E-01 -2.136554E-01 -1.154971E+01  9.801932E+00 -2.563123E-01
       179   4  1.134008E+03  8.108652E+00  6.017436E-01 -7.261836E+01  7.992569E+00 -3.124640E+00
       179   5  1.156241E+03  4.118521E+00  1.618493E+00 -4.282743E+01  9.495195E+00 -1.929358E+00
       179   6  1.177155E+03  6.598709E-01  3.051610E+00 -1.217873E+01  1.053575E+01 -8.710840E-01
       179   7  1.158929E+03  6.275210E+00  2.828612E-01 -8.226027E+01  8.453863E+00 -4.944534E+00
       179   8  1.188922E+03  2.156242E+00  1.782080E+00 -4.926026E+01  1.008123E+01 -3.218154E+00
       179   9  1.217765E+03 -1.260769E+00  4.240121E+00 -1.552441E+01  1.127074E+01 -1.628634E+00
       179  10  1.108054E+03  6.535142E+00 -7.189207E-01 -6.562454E+01  3.340537E-14 -8.351343E-14
       179  11  1.122291E+03  2.827015E+00 -4.042047E-01 -3.908151E+01 -4.008645E-13  4.175671E-15
       179  12  1.135049E+03 -5.229620E-01 -2.136554E-01 -1.154971E+01 -4.969049E-13  2.202667E-13
       179  13  1.134008E+03  8.108652E+00  6.017436E-01 -7.261836E+01  1.430167E-13  2.672430E-13
       179  14  1.156241E+03  4.118521E+00  1.618493E+00 -4.282743E+01 -6.524487E-13  1.837295E-13
       179  15  1.177155E+03  6.598709E-01  3.051610E+00 -1.217873E+01  1.016515E-13  1.628512E-13
       179  16  1.158929E+03  6.275210E+00  2.828612E-01 -8.226027E+01 -3.006483E-13  4.509725E-13
       179  17  1.188922E+03  2.156242E+00  1.782080E+00 -4.926026E+01 -1.336215E-13  6.785466E-14
       179  18  1.217765E+03 -1.260769E+00  4.240121E+00 -1.552441E+01  3.716348E-13 -2.724626E-13
       179  19  1.108054E+03  6.535142E+00 -7.189207E-01 -6.562454E+01 -7.537251E+00  1.392507E+00
       179  20  1.122291E+03  2.827015E+00 -4.042047E-01 -3.908151E+01 -8.913497E+00  7.562605E-01
       179  21  1.135049E+03 -5.229620E-01 -2.136554E-01 -1.154971E+01 -9.801932E+00  2.563123E-01
       179  22  1.134008E+03  8.108652E+00  6.017436E-01 -7.261836E+01 -7.992569E+00  3.124640E+00
       179  23  1.156241E+03  4.118521E+00  1.618493E+00 -4.282743E+01 -9.495195E+00  1.929358E+00
       179  24  1.177155E+03  6.598709E-01  3.051610E+00 -1.217873E+01 -1.053575E+01  8.710840E-01
       179  25  1.158929E+03  6.275210E+00  2.828612E-01 -8.226027E+01 -8.453863E+00  4.944534E+00
       179  26  1.188922E+03  2.156242E+00  1.782080E+00 -4.926026E+01 -1.008123E+01  3.218154E+00
       179  27  1.217765E+03 -1.260769E+00  4.240121E+00 -1.552441E+01 -1.127074E+01  1.628634E+00
       180   1  1.064534E+03  3.162418E+01  2.547773E-01 -1.027723E+02  3.595868E+00 -1.501421E+00
       180   2  1.080560E+03  2.100390E+01 -3.880513E-01 -9.000360E+01  5.018317E+00 -1.462571E+00
       180   3  1.098500E+03  1.169153E+01 -3.667096E-01 -7.635712E+01  6.555318E+00 -1.391728E+00
       180   4  1.073595E+03  3.192516E+01  3.016529E-01 -1.144123E+02  3.566843E+00 -2.967935E+00
       180   5  1.096183E+03  2.171585E+01  2.767229E-01 -1.002278E+02  5.190119E+00 -3.026130E+00
       180   6  1.120226E+03  1.251988E+01  5.224546E-01 -8.527823E+01  6.912285E+00 -3.055017E+00
       180   7  1.082403E+03  2.947472E+01 -3.347286E-01 -1.278356E+02  3.558652E+00 -4.569072E+00
       180   8  1.111288E+03  1.972550E+01 -1.129278E-02 -1.122025E+02  5.376384E+00 -4.710387E+00
       180   9  1.141195E+03  1.070245E+01  1.997269E-01 -9.591110E+01  7.278524E+00 -4.825335E+00
       180  10  1.064534E+03  3.162418E+01  2.547773E-01 -1.027723E+02 -2.338376E-13 -8.351343E-14
       180  11  1.080560E+03  2.100390E+01 -3.880513E-01 -9.000360E+01 -1.503242E-13 -6.263507E-14
       180  12  1.098500E+03  1.169153E+01 -3.667096E-01 -7.635712E+01  3.298780E-13 -3.966888E-14
       180  13  1.073595E+03  3.192516E+01  3.016529E-01 -1.144123E+02 -2.568038E-13 -1.169188E-13
       180  14  1.096183E+03  2.171585E+01  2.767229E-01 -1.002278E+02 -6.263507E-15 -1.503242E-13
       180  15  1.120226E+03  1.251988E+01  5.224546E-01 -8.527823E+01  2.223545E-13 -1.085675E-13
       180  16  1.082403E+03  2.947472E+01 -3.347286E-01 -1.278356E+02  2.672430E-13 -8.351343E-15
       180  17  1.111288E+03  1.972550E+01 -1.129278E-02 -1.122025E+02  6.681074E-14 -4.593238E-14
       180  18  1.141195E+03  1.070245E+01  1.997269E-01 -9.591110E+01 -3.507564E-13 -1.263141E-13
       180  19  1.064534E+03  3.162418E+01  2.547773E-01 -1.027723E+02 -3.595868E+00  1.501421E+00
       180  20  1.080560E+03  2.100390E+01 -3.880513E-01 -9.000360E+01 -5.018317E+00  1.462571E+00
       180  21  1.098500E+03  1.169153E+01 -3.667096E-01 -7.635712E+01 -6.555318E+00  1.391728E+00
       180  22  1.073595E+03  3.192516E+01  3.016529E-01 -1.144123E+02 -3.566843E+00  2.967935E+00
       180  23  1.096183E+03  2.171585E+01  2.767229E-01 -1.002278E+02 -5.190119E+00  3.026130E+00
       180  24  1.120226E+03  1.251988E+01  5.224546E-01 -8.527823E+01 -6.912285E+00  3.055017E+00
       180  25  1.082403E+03  2.947472E+01 -3.347286E-01 -1.278356E+02 -3.558652E+00  4.569072E+00
       180  26  1.111288E+03  1.972550E+01 -1.129278E-02 -1.122025E+02 -5.376384E+00  4.710387E+00
       180  27  1.141195E+03  1.070245E+01  1.997269E-01 -9.591110E+01 -7.278524E+00  4.825335E+00
       181   1  1.347934E+03 -1.502715E+02  7.858262E-01 -9.455739E+01  5.803012E+00 -2.696074E+01
       181   2  1.283157E+03 -1.213025E+02  5.255995E-01 -1.360855E+02  3.478316E+00 -2.698645E+01
       181   3  1.220465E+03 -9.128043E+01 -1.431185E+00 -1.723867E+02  1.378121E+00 -2.568945E+01
       181   4  1.401500E+03 -1.092662E+02  2.553070E+00 -5.228003E+01  5.256533E+00 -2.457829E+01
       181   5  1.349547E+03 -9.113147E+01  1.443411E+00 -9.358220E+01  4.211573E+00 -2.526021E+01
       181   6  1.301123E+03 -6.924790E+01  1.471024E+00 -1.290588E+02  3.368633E+00 -2.449163E+01
       181   7  1.446379E+03 -7.196216E+01  3.064947E+00 -1.560734E+01  3.840244E+00 -2.223983E+01
       181   8  1.408602E+03 -6.467978E+01  8.123221E-01 -5.618582E+01  4.207829E+00 -2.359466E+01
       181   9  1.375714E+03 -5.087241E+01  2.529611E+00 -9.033742E+01  4.744870E+00 -2.336250E+01
       181  10  1.347934E+03 -1.502715E+02  7.858262E-01 -9.455739E+01  2.380133E-13 -1.002161E-13
       181  11  1.283157E+03 -1.213025E+02  5.255995E-01 -1.360855E+02 -1.169188E-13 -1.753782E-13
       181  12  1.220465E+03 -9.128043E+01 -1.431185E+00 -1.723867E+02 -4.008645E-13  1.064796E-13
       181  13  1.401500E+03 -1.092662E+02  2.553070E+00 -5.228003E+01  1.169188E-13 -1.487583E-13
       181  14  1.349547E+03 -9.113147E+01  1.443411E+00 -9.358220E+01 -5.010806E-14 -1.252701E-13
       181  15  1.301123E+03 -6.924790E+01  1.471024E+00 -1.290588E+02 -6.681074E-14 -8.351343E-14
       181  16  1.446379E+03 -7.196216E+01  3.064947E+00 -1.560734E+01 -1.920809E-13 -1.503242E-13
       181  17  1.408602E+03 -6.467978E+01  8.123221E-01 -5.618582E+01  1.503242E-13 -2.922970E-13
       181  18  1.375714E+03 -5.087241E+01  2.529611E+00 -9.033742E+01  5.845940E-14 -2.046079E-13
       181  19  1.347934E+03 -1.502715E+02  7.858262E-01 -9.455739E+01 -5.803012E+00  2.696074E+01
       181  20  1.283157E+03 -1.213025E+02  5.255995E-01 -1.360855E+02 -3.478316E+00  2.698645E+01
       181  21  1.220465E+03 -9.128043E+01 -1.431185E+00 -1.723867E+02 -1.378121E+00  2.568945E+01
       181  22  1.401500E+03 -1.092662E+02  2.553070E+00 -5.228003E+01 -5.256533E+00  2.457829E+01
       181  23  1.349547E+03 -9.113147E+01  1.443411E+00 -9.358220E+01 -4.211573E+00  2.526021E+01
       181  24  1.301123E+03 -6.924790E+01  1.471024E+00 -1.290588E+02 -3.368633E+00  2.449163E+01
       181  25  1.446379E+03 -7.196216E+01  3.064947E+00 -1.560734E+01 -3.840244E+00  2.223983E+01
       181  26  1.408602E+03 -6.467978E+01  8.123221E-01 -5.618582E+01 -4.207829E+00  2.359466E+01
       181  27  1.375714E+03 -5.087241E+01  2.529611E+00 -9.033742E+01 -4.744870E+00  2.336250E+01
       182   1  1.189605E+03 -7.221754E+01 -1.634234E+00 -1.859399E+02  4.150426E-01 -2.437146E+01
       182   2  1.147312E+03 -4.009127E+01 -1.886592E-02 -1.950212E+02 -9.899300E-03 -2.159122E+01
       182   3  1.100800E+03 -1.735852E+01 -3.506624E+00 -2.042353E+02 -3.768742E-01 -1.846944E+01
       182   4  1.273151E+03 -5.591073E+01  1.207037E+00 -1.454252E+02  2.916667E+00 -2.346704E+01
       182   5  1.232683E+03 -3.131493E+01  3.071735E+00 -1.584323E+02  2.893752E+00 -2.121387E+01
       182   6  1.188682E+03 -1.520026E+01  9.612051E-01 -1.712109E+02  2.926507E+00 -1.856099E+01
       182   7  1.346797E+03 -4.450397E+01  2.643951E-01 -1.076570E+02  4.817239E+00 -2.263957E+01
       182   8  1.308679E+03 -2.757726E+01  1.755219E+00 -1.244830E+02  5.261867E+00 -2.091919E+01
       182   9  1.267671E+03 -1.820725E+01  3.901079E-01 -1.407059E+02  5.755764E+00 -1.873739E+01
       182  10  1.189605E+03 -7.221754E+01 -1.634234E+00 -1.859399E+02  9.708436E-14  1.920809E-13
       182  11  1.147312E+03 -4.009127E+01 -1.886592E-02 -1.950212E+02  1.252701E-13  7.098641E-14
       182  12  1.100800E+03 -1.735852E+01 -3.506624E+00 -2.042353E+02  3.340537E-14 -5.010806E-14
       182  13  1.273151E+03 -5.591073E+01  1.207037E+00 -1.454252E+02 -3.340537E-14 -1.670269E-14
       182  14  1.232683E+03 -3.131493E+01  3.071735E+00 -1.584323E+02 -2.839457E-13 -3.340537E-14
       182  15  1.188682E+03 -1.520026E+01  9.612051E-01 -1.712109E+02  0.000000E+00 -4.384455E-14
       182  16  1.346797E+03 -4.450397E+01  2.643951E-01 -1.076570E+02  4.175671E-14 -1.586755E-13
       182  17  1.308679E+03 -2.757726E+01  1.755219E+00 -1.244830E+02 -2.087836E-13 -9.604044E-14
       182  18  1.267671E+03 -1.820725E+01  3.901079E-01 -1.407059E+02 -7.516208E-14 -1.043918E-15
       182  19  1.189605E+03 -7.221754E+01 -1.634234E+00 -1.859399E+02 -4.150426E-01  2.437146E+01
       182  20  1.147312E+03 -4.009127E+01 -1.886592E-02 -1.950212E+02  9.899300E-03  2.159122E+01
       182  21  1.100800E+03 -1.735852E+01 -3.506624E+00 -2.042353E+02  3.768742E-01  1.846944E+01
       182  22  1.273151E+03 -5.591073E+01  1.207037E+00 -1.454252E+02 -2.916667E+00  2.346704E+01
       182  23  1.232683E+03 -3.131493E+01  3.071735E+00 -1.584323E+02 -2.893752E+00  2.121387E+01
       182  24  1.188682E+03 -1.520026E+01  9.612051E-01 -1.712109E+02 -2.926507E+00  1.856099E+01
       182  25  1.346797E+03 -4.450397E+01  2.643951E-01 -1.076570E+02 -4.817239E+00  2.263957E+01
       182  26  1.308679E+03 -2.757726E+01  1.755219E+00 -1.244830E+02 -5.261867E+00  2.091919E+01
       182  27  1.267671E+03 -1.820725E+01  3.901079E-01 -1.407059E+02 -5.755764E+00  1.873739E+01
       183   1  1.394092E+03 -2.500092E+01  4.428166E+00 -8.492306E+01  5.561566E+00 -2.369375E+01
       183   2  1.355164E+03 -1.598893E+01  3.722970E+00 -1.007140E+02  6.294051E+00 -2.206853E+01
       183   3  1.315196E+03 -9.286429E+00  2.630683E+00 -1.175922E+02  7.058986E+00 -2.006965E+01
       183   4  1.479426E+03 -1.738511E+01  8.670653E+00 -4.846532E+01  7.123542E+00 -1.676648E+01
       183   5  1.440211E+03 -1.259911E+01  6.955979E+00 -5.821362E+01  8.302132E+00 -1.573738E+01
       183   6  1.400549E+03 -9.279003E+00  5.803907E+00 -6.933246E+01  9.502893E+00 -1.427070E+01
       183   7  1.591559E+03  3.798914E+00  3.258190E+01 -1.229674E+01  7.664759E+00 -9.969916E+00
       183   8  1.550352E+03  3.437138E+00  2.851441E+01 -1.571924E+01  9.370538E+00 -9.551309E+00
       183   9  1.509397E+03  2.524438E+00  2.601295E+01 -2.083073E+01  1.108231E+01 -8.626509E+00
       183  10  1.394092E+03 -2.500092E+01  4.428166E+00 -8.492306E+01  6.681074E-14 -1.002161E-13
       183  11  1.355164E+03 -1.598893E+01  3.722970E+00 -1.007140E+02  1.127431E-13 -8.351343E-15
       183  12  1.315196E+03 -9.286429E+00  2.630683E+00 -1.175922E+02  3.089997E-13  3.027362E-13
       183  13  1.479426E+03 -1.738511E+01  8.670653E+00 -4.846532E+01 -5.010806E-14  0.000000E+00
       183  14  1.440211E+03 -1.259911E+01  6.955979E+00 -5.821362E+01  2.338376E-13 -8.351343E-15
       183  15  1.400549E+03 -9.279003E+00  5.803907E+00 -6.933246E+01 -1.670269E-13  4.175671E-15
       183  16  1.591559E+03  3.798914E+00  3.258190E+01 -1.229674E+01  1.085675E-13  1.670269E-13
       183  17  1.550352E+03  3.437138E+00  2.851441E+01 -1.571924E+01  1.920809E-13 -9.186477E-14
       183  18  1.509397E+03  2.524438E+00  2.601295E+01 -2.083073E+01  3.089997E-13 -2.421889E-13
       183  19  1.394092E+03 -2.500092E+01  4.428166E+00 -8.492306E+01 -5.561566E+00  2.369375E+01
       183  20  1.355164E+03 -1.598893E+01  3.722970E+00 -1.007140E+02 -6.294051E+00  2.206853E+01
       183  21  1.315196E+03 -9.286429E+00  2.630683E+00 -1.175922E+02 -7.058986E+00  2.006965E+01
       183  22  1.479426E+03 -1.738511E+01  8.670653E+00 -4.846532E+01 -7.123542E+00  1.676648E+01
       183  23  1.440211E+03 -1.259911E+01  6.955979E+00 -5.821362E+01 -8.302132E+00  1.573738E+01
       183  24  1.400549E+03 -9.279003E+00  5.803907E+00 -6.933246E+01 -9.502893E+00  1.427070E+01
       183  25  1.591559E+03  3.798914E+00  3.258190E+01 -1.229674E+01 -7.664759E+00  9.969916E+00
       183  26  1.550352E+03  3.437138E+00  2.851441E+01 -1.571924E+01 -9.370538E+00  9.551309E+00
       183  27  1.509397E+03  2.524438E+00  2.601295E+01 -2.083073E+01 -1.108231E+01  8.626509E+00
       184   1  1.476066E+03 -4.114122E+01  7.721617E+00 -1.868783E+00  2.606659E+00 -2.225407E+01
       184   2  1.447202E+03 -3.569691E+01  6.067431E+00 -3.641332E+01  3.687046E+00 -2.367660E+01
       184   3  1.420820E+03 -2.677167E+01  7.459881E+00 -6.857895E+01  4.850672E+00 -2.414064E+01
       184   4  1.534388E+03 -2.669527E+01  9.991968E+00  3.243425E+00  1.158988E+00 -1.585918E+01
       184   5  1.514394E+03 -2.585785E+01  7.281748E+00 -1.848249E+01  3.193131E+00 -1.703227E+01
       184   6  1.497540E+03 -1.993880E+01  9.150667E+00 -3.831747E+01  5.277891E+00 -1.720655E+01
       184   7  1.636667E+03  8.353026E+00  3.823618E+01  6.070799E+00 -4.157953E-01 -9.470710E+00
       184   8  1.623896E+03  3.874350E+00  3.424946E+01 -2.102662E+00  2.621809E+00 -1.039432E+01
       184   9  1.615072E+03  6.219985E+00  3.646144E+01 -8.956824E+00  5.671770E+00 -1.027619E+01
       184  10  1.476066E+03 -4.114122E+01  7.721617E+00 -1.868783E+00 -2.380133E-13  3.340537E-14
       184  11  1.447202E+03 -3.569691E+01  6.067431E+00 -3.641332E+01 -1.795539E-13 -3.340537E-14
       184  12  1.420820E+03 -2.677167E+01  7.459881E+00 -6.857895E+01  1.962566E-13 -1.962566E-13
       184  13  1.534388E+03 -2.669527E+01  9.991968E+00  3.243425E+00 -1.336215E-13  3.862496E-14
       184  14  1.514394E+03 -2.585785E+01  7.281748E+00 -1.848249E+01 -1.670269E-13  9.812828E-14
       184  15  1.497540E+03 -1.993880E+01  9.150667E+00 -3.831747E+01 -1.670269E-14  2.714186E-14
       184  16  1.636667E+03  8.353026E+00  3.823618E+01  6.070799E+00 -3.340537E-14  8.351343E-14
       184  17  1.623896E+03  3.874350E+00  3.424946E+01 -2.102662E+00 -6.681074E-14  1.002161E-13
       184  18  1.615072E+03  6.219985E+00  3.646144E+01 -8.956824E+00 -2.129592E-13  1.816417E-13
       184  19  1.476066E+03 -4.114122E+01  7.721617E+00 -1.868783E+00 -2.606659E+00  2.225407E+01
       184  20  1.447202E+03 -3.569691E+01  6.067431E+00 -3.641332E+01 -3.687046E+00  2.367660E+01
       184  21  1.420820E+03 -2.677167E+01  7.459881E+00 -6.857895E+01 -4.850672E+00  2.414064E+01
       184  22  1.534388E+03 -2.669527E+01  9.991968E+00  3.243425E+00 -1.158988E+00  1.585918E+01
       184  23  1.514394E+03 -2.585785E+01  7.281748E+00 -1.848249E+01 -3.193131E+00  1.703227E+01
       184  24  1.497540E+03 -1.993880E+01  9.150667E+00 -3.831747E+01 -5.277891E+00  1.720655E+01
       184  25  1.636667E+03  8.353026E+00  3.823618E+01  6.070799E+00  4.157953E-01  9.470710E+00
       184  26  1.623896E+03  3.874350E+00  3.424946E+01 -2.102662E+00 -2.621809E+00  1.039432E+01
       184  27  1.615072E+03  6.219985E+00  3.646144E+01 -8.956824E+00 -5.671770E+00  1.027619E+01
       185   1  1.089190E+03  3.005019E+01  5.587737E-01 -1.358966E+02  3.505382E+00 -5.644384E+00
       185   2  1.119558E+03  1.892567E+01 -2.379591E-01 -1.199844E+02  5.437411E+00 -5.846185E+00
       185   3  1.155316E+03  1.061315E+01  6.917334E-01 -1.027489E+02  7.549745E+00 -5.992585E+00
       185   4  1.093618E+03  2.940068E+01  3.944976E-01 -1.503614E+02  2.887840E+00 -7.839405E+00
       185   5  1.132790E+03  1.902108E+01  9.350690E-02 -1.323190E+02  5.047025E+00 -8.159961E+00
       185   6  1.177547E+03  1.137538E+01  1.386863E+00 -1.130144E+02  7.378990E+00 -8.432744E+00
       185   7  1.098360E+03  2.468044E+01  3.733323E-01 -1.663729E+02  2.286407E+00 -1.009086E+01
       185   8  1.145869E+03  1.479537E+01  1.277709E-02 -1.464094E+02  4.667923E+00 -1.052292E+01
       185   9  1.199115E+03  7.561320E+00  1.099525E+00 -1.252491E+02  7.215243E+00 -1.091366E+01
       185  10  1.089190E+03  3.005019E+01  5.587737E-01 -1.358966E+02 -3.340537E-13 -3.758104E-14
       185  11  1.119558E+03  1.892567E+01 -2.379591E-01 -1.199844E+02 -3.340537E-13 -1.419728E-13
       185  12  1.155316E+03  1.061315E+01  6.917334E-01 -1.027489E+02 -1.503242E-13 -1.487583E-13
       185  13  1.093618E+03  2.940068E+01  3.944976E-01 -1.503614E+02 -1.628512E-13  2.672430E-13
       185  14  1.132790E+03  1.902108E+01  9.350690E-02 -1.323190E+02  1.941687E-13 -1.837295E-13
       185  15  1.177547E+03  1.137538E+01  1.386863E+00 -1.130144E+02  1.962566E-13 -4.739387E-13
       185  16  1.098360E+03  2.468044E+01  3.733323E-01 -1.663729E+02 -1.670269E-13  5.303103E-13
       185  17  1.145869E+03  1.479537E+01  1.277709E-02 -1.464094E+02  1.336215E-13 -5.172287E-14
       185  18  1.199115E+03  7.561320E+00  1.099525E+00 -1.252491E+02  7.516208E-14 -6.628878E-13
       185  19  1.089190E+03  3.005019E+01  5.587737E-01 -1.358966E+02 -3.505382E+00  5.644384E+00
       185  20  1.119558E+03  1.892567E+01 -2.379591E-01 -1.199844E+02 -5.437411E+00  5.846185E+00
       185  21  1.155316E+03  1.061315E+01  6.917334E-01 -1.027489E+02 -7.549745E+00  5.992585E+00
       185  22  1.093618E+03  2.940068E+01  3.944976E-01 -1.503614E+02 -2.887840E+00  7.839405E+00
       185  23  1.132790E+03  1.902108E+01  9.350690E-02 -1.323190E+02 -5.047025E+00  8.159961E+00
       185  24  1.177547E+03  1.137538E+01  1.386863E+00 -1.130144E+02 -7.378990E+00  8.432744E+00
       185  25  1.098360E+03  2.468044E+01  3.733323E-01 -1.663729E+02 -2.286407E+00  1.009086E+01
       185  26  1.145869E+03  1.479537E+01  1.277709E-02 -1.464094E+02 -4.667923E+00  1.052292E+01
       185  27  1.199115E+03  7.561320E+00  1.099525E+00 -1.252491E+02 -7.215243E+00  1.091366E+01
       186   1  1.176038E+03  6.153806E+00  8.695547E-01 -8.820225E+01  8.921139E+00 -6.106547E+00
       186   2  1.209676E+03  1.477229E+00  2.123054E+00 -5.288275E+01  1.068146E+01 -3.983103E+00
       186   3  1.246715E+03  8.520331E-02  6.842212E+00 -1.586804E+01  1.190032E+01 -2.026076E+00
       186   4  1.203767E+03  7.555730E+00  1.807815E+00 -9.649980E+01  8.875291E+00 -8.630690E+00
       186   5  1.247584E+03  2.531411E+00  3.694760E+00 -5.717072E+01  1.077228E+01 -5.783365E+00
       186   6  1.296562E+03  1.577414E+00  1.063308E+01 -1.618371E+01  1.222001E+01 -3.060282E+00
       186   7  1.231300E+03  5.543079E+00  2.054191E+00 -1.075089E+02  8.834312E+00 -1.119014E+01
       186   8  1.284770E+03  1.306138E-01  4.063352E+00 -6.466048E+01  1.087260E+01 -7.703969E+00
       186   9  1.344995E+03 -4.526027E-01  1.265214E+01 -2.021424E+01  1.254358E+01 -4.309367E+00
       186  10  1.176038E+03  6.153806E+00  8.695547E-01 -8.820225E+01 -3.674591E-13  4.676752E-13
       186  11  1.209676E+03  1.477229E+00  2.123054E+00 -5.288275E+01 -2.505403E-13 -1.670269E-14
       186  12  1.246715E+03  8.520331E-02  6.842212E+00 -1.586804E+01 -3.883374E-13 -5.950332E-13
       186  13  1.203767E+03  7.555730E+00  1.807815E+00 -9.649980E+01 -3.444929E-13  5.511886E-13
       186  14  1.247584E+03  2.531411E+00  3.694760E+00 -5.717072E+01  1.242262E-13  1.169188E-13
       186  15  1.296562E+03  1.577414E+00  1.063308E+01 -1.618371E+01  1.056967E-13 -3.570199E-13
       186  16  1.231300E+03  5.543079E+00  2.054191E+00 -1.075089E+02  0.000000E+00  5.136076E-13
       186  17  1.284770E+03  1.306138E-01  4.063352E+00 -6.466048E+01  1.670269E-13  8.038167E-14
       186  18  1.344995E+03 -4.526027E-01  1.265214E+01 -2.021424E+01  3.257024E-13 -3.987766E-13
       186  19  1.176038E+03  6.153806E+00  8.695547E-01 -8.820225E+01 -8.921139E+00  6.106547E+00
       186  20  1.209676E+03  1.477229E+00  2.123054E+00 -5.288275E+01 -1.068146E+01  3.983103E+00
       186  21  1.246715E+03  8.520331E-02  6.842212E+00 -1.586804E+01 -1.190032E+01  2.026076E+00
       186  22  1.203767E+03  7.555730E+00  1.807815E+00 -9.649980E+01 -8.875291E+00  8.630690E+00
       186  23  1.247584E+03  2.531411E+00  3.694760E+00 -5.717072E+01 -1.077228E+01  5.783365E+00
       186  24  1.296562E+03  1.577414E+00  1.063308E+01 -1.618371E+01 -1.222001E+01  3.060282E+00
       186  25  1.231300E+03  5.543079E+00  2.054191E+00 -1.075089E+02 -8.834312E+00  1.119014E+01
       186  26  1.284770E+03  1.306138E-01  4.063352E+00 -6.466048E+01 -1.087260E+01  7.703969E+00
       186  27  1.344995E+03 -4.526027E-01  1.265214E+01 -2.021424E+01 -1.254358E+01  4.309367E+00
       187   1  1.246210E+03  3.485437E+00  1.778252E+00 -1.125048E+02  8.743798E+00 -1.280493E+01
       187   2  1.305686E+03 -1.168623E+00  4.056923E+00 -6.746512E+01  1.102822E+01 -8.856701E+00
       187   3  1.378526E+03  1.738938E+00  1.628868E+01 -2.076583E+01  1.268069E+01 -5.056860E+00
       187   4  1.272693E+03  1.310399E+00  2.645019E+00 -1.154324E+02  8.188221E+00 -1.575527E+01
       187   5  1.343106E+03 -2.084745E+00  5.269404E+00 -6.856541E+01  1.045193E+01 -1.104045E+01
       187   6  1.427947E+03  2.815863E+00  1.952655E+01 -2.014390E+01  1.217747E+01 -6.439721E+00
       187   7  1.298983E+03 -4.070000E+00  3.446854E+00 -1.203868E+02  7.616385E+00 -1.858827E+01
       187   8  1.379838E+03 -6.388109E+00  5.991991E+00 -7.189499E+01  9.872191E+00 -1.318063E+01
       187   9  1.476129E+03  3.134900E-01  2.182913E+01 -2.195310E+01  1.167491E+01 -7.859738E+00
       187  10  1.246210E+03  3.485437E+00  1.778252E+00 -1.125048E+02  2.338376E-13  5.845940E-13
       187  11  1.305686E+03 -1.168623E+00  4.056923E+00 -6.746512E+01  8.351343E-14  7.516208E-14
       187  12  1.378526E+03  1.738938E+00  1.628868E+01 -2.076583E+01 -3.340537E-13 -3.016923E-13
       187  13  1.272693E+03  1.310399E+00  2.645019E+00 -1.154324E+02 -1.023039E-13  6.179994E-13
       187  14  1.343106E+03 -2.084745E+00  5.269404E+00 -6.856541E+01 -1.367532E-13  2.672430E-13
       187  15  1.427947E+03  2.815863E+00  1.952655E+01 -2.014390E+01 -1.304897E-15 -1.837295E-13
       187  16  1.298983E+03 -4.070000E+00  3.446854E+00 -1.203868E+02 -2.672430E-13  4.426212E-13
       187  17  1.379838E+03 -6.388109E+00  5.991991E+00 -7.189499E+01  2.839457E-13  1.174408E-13
       187  18  1.476129E+03  3.134900E-01  2.182913E+01 -2.195310E+01  5.553643E-13 -2.829017E-13
       187  19  1.246210E+03  3.485437E+00  1.778252E+00 -1.125048E+02 -8.743798E+00  1.280493E+01
       187  20  1.305686E+03 -1.168623E+00  4.056923E+00 -6.746512E+01 -1.102822E+01  8.856701E+00
       187  21  1.378526E+03  1.738938E+00  1.628868E+01 -2.076583E+01 -1.268069E+01  5.056860E+00
       187  22  1.272693E+03  1.310399E+00  2.645019E+00 -1.154324E+02 -8.188221E+00  1.575527E+01
       187  23  1.343106E+03 -2.084745E+00  5.269404E+00 -6.856541E+01 -1.045193E+01  1.104045E+01
       187  24  1.427947E+03  2.815863E+00  1.952655E+01 -2.014390E+01 -1.217747E+01  6.439721E+00
       187  25  1.298983E+03 -4.070000E+00  3.446854E+00 -1.203868E+02 -7.616385E+00  1.858827E+01
       187  26  1.379838E+03 -6.388109E+00  5.991991E+00 -7.189499E+01 -9.872191E+00  1.318063E+01
       187  27  1.476129E+03  3.134900E-01  2.182913E+01 -2.195310E+01 -1.167491E+01  7.859738E+00
       188   1  1.098546E+03  2.159535E+01  8.672286E-02 -1.741338E+02  1.832937E+00 -1.150327E+01
       188   2  1.152871E+03  1.240365E+01  2.169434E-01 -1.532505E+02  4.421286E+00 -1.192481E+01
       188   3  1.211856E+03  5.444687E+00  1.306015E+00 -1.311364E+02  6.989844E+00 -1.235100E+01
       188   4  1.099777E+03  1.440316E+01  7.123418E-01 -1.860378E+02  7.546315E-01 -1.411865E+01
       188   5  1.163275E+03  6.412372E+00  5.902387E-01 -1.615935E+02  3.526214E+00 -1.447843E+01
       188   6  1.231854E+03  7.939761E-01  1.626756E+00 -1.359129E+02  6.289289E+00 -1.483999E+01
       188   7  1.100061E+03  4.205739E-01  8.801437E-01 -1.988970E+02 -3.169244E-01 -1.675775E+01
       188   8  1.172240E+03 -6.793854E+00 -1.380520E-01 -1.711354E+02  2.638784E+00 -1.706539E+01
       188   9  1.249869E+03 -1.151719E+01  1.807300E-01 -1.421438E+02  5.596251E+00 -1.737268E+01
       188  10  1.098546E+03  2.159535E+01  8.672286E-02 -1.741338E+02 -6.681074E-14  4.676752E-13
       188  11  1.152871E+03  1.240365E+01  2.169434E-01 -1.532505E+02  1.670269E-13 -8.351343E-15
       188  12  1.211856E+03  5.444687E+00  1.306015E+00 -1.311364E+02  5.010806E-13 -5.397055E-13
       188  13  1.099777E+03  1.440316E+01  7.123418E-01 -1.860378E+02  4.175671E-14  2.004322E-13
       188  14  1.163275E+03  6.412372E+00  5.902387E-01 -1.615935E+02  2.609795E-13 -1.252701E-13
       188  15  1.231854E+03  7.939761E-01  1.626756E+00 -1.359129E+02  3.570199E-13 -4.572360E-13
       188  16  1.100061E+03  4.205739E-01  8.801437E-01 -1.988970E+02  2.672430E-13 -2.922970E-14
       188  17  1.172240E+03 -6.793854E+00 -1.380520E-01 -1.711354E+02  4.008645E-13 -6.263507E-14
       188  18  1.249869E+03 -1.151719E+01  1.807300E-01 -1.421438E+02 -2.922970E-13 -2.082616E-13
       188  19  1.098546E+03  2.159535E+01  8.672286E-02 -1.741338E+02 -1.832937E+00  1.150327E+01
       188  20  1.152871E+03  1.240365E+01  2.169434E-01 -1.532505E+02 -4.421286E+00  1.192481E+01
       188  21  1.211856E+03  5.444687E+00  1.306015E+00 -1.311364E+02 -6.989844E+00  1.235100E+01
       188  22  1.099777E+03  1.440316E+01  7.123418E-01 -1.860378E+02 -7.546315E-01  1.411865E+01
       188  23  1.163275E+03  6.412372E+00  5.902387E-01 -1.615935E+02 -3.526214E+00  1.447843E+01
       188  24  1.231854E+03  7.939761E-01  1.626756E+00 -1.359129E+02 -6.289289E+00  1.483999E+01
       188  25  1.100061E+03  4.205739E-01  8.801437E-01 -1.988970E+02  3.169244E-01  1.675775E+01
       188  26  1.172240E+03 -6.793854E+00 -1.380520E-01 -1.711354E+02 -2.638784E+00  1.706539E+01
       188  27  1.249869E+03 -1.151719E+01  1.807300E-01 -1.421438E+02 -5.596251E+00  1.737268E+01
       189   1  9.673207E+02  1.055165E+02  3.362319E-01 -1.069146E+02 -4.374939E+00 -8.000922E-01
       189   2  9.783664E+02  8.830524E+01 -7.231112E-01 -1.206561E+02 -3.145434E+00 -1.891006E+00
       189   3  9.982180E+02  7.585129E+01  6.147424E-01 -1.319807E+02 -1.750849E+00 -2.885256E+00
       189   4  9.551573E+02  1.046950E+02  6.742287E-01 -1.161276E+02 -4.771108E+00 -1.924590E+00
       189   5  9.677919E+02  8.730445E+01 -6.625848E-01 -1.314395E+02 -3.641006E+00 -3.270365E+00
       189   6  9.895331E+02  7.482939E+01  3.722678E-01 -1.441609E+02 -2.324745E+00 -4.496669E+00
       189   7  9.424278E+02  1.015827E+02  6.506167E-01 -1.258423E+02 -5.179649E+00 -2.963285E+00
       189   8  9.569863E+02  8.434838E+01 -5.764636E-01 -1.428340E+02 -4.147086E+00 -4.591483E+00
       189   9  9.809548E+02  7.218117E+01  5.413072E-01 -1.570400E+02 -2.906128E+00 -6.073204E+00
       189  10  9.673207E+02  1.055165E+02  3.362319E-01 -1.069146E+02  2.338376E-13  9.812828E-14
       189  11  9.783664E+02  8.830524E+01 -7.231112E-01 -1.206561E+02  6.681074E-14  3.236145E-14
       189  12  9.982180E+02  7.585129E+01  6.147424E-01 -1.319807E+02 -2.338376E-13  8.090363E-14
       189  13  9.551573E+02  1.046950E+02  6.742287E-01 -1.161276E+02  1.774660E-13  2.505403E-13
       189  14  9.677919E+02  8.730445E+01 -6.625848E-01 -1.314395E+02 -3.841618E-13  2.087836E-14
       189  15  9.895331E+02  7.482939E+01  3.722678E-01 -1.441609E+02  2.421889E-13 -8.351343E-14
       189  16  9.424278E+02  1.015827E+02  6.506167E-01 -1.258423E+02 -3.674591E-13  2.651551E-13
       189  17  9.569863E+02  8.434838E+01 -5.764636E-01 -1.428340E+02 -4.843779E-13 -8.977693E-14
       189  18  9.809548E+02  7.218117E+01  5.413072E-01 -1.570400E+02 -1.795539E-13 -2.074787E-13
       189  19  9.673207E+02  1.055165E+02  3.362319E-01 -1.069146E+02  4.374939E+00  8.000922E-01
       189  20  9.783664E+02  8.830524E+01 -7.231112E-01 -1.206561E+02  3.145434E+00  1.891006E+00
       189  21  9.982180E+02  7.585129E+01  6.147424E-01 -1.319807E+02  1.750849E+00  2.885256E+00
       189  22  9.551573E+02  1.046950E+02  6.742287E-01 -1.161276E+02  4.771108E+00  1.924590E+00
       189  23  9.677919E+02  8.730445E+01 -6.625848E-01 -1.314395E+02  3.641006E+00  3.270365E+00
       189  24  9.895331E+02  7.482939E+01  3.722678E-01 -1.441609E+02  2.324745E+00  4.496669E+00
       189  25  9.424278E+02  1.015827E+02  6.506167E-01 -1.258423E+02  5.179649E+00  2.963285E+00
       189  26  9.569863E+02  8.434838E+01 -5.764636E-01 -1.428340E+02  4.147086E+00  4.591483E+00
       189  27  9.809548E+02  7.218117E+01  5.413072E-01 -1.570400E+02  2.906128E+00  6.073204E+00
       190   1  1.011230E+03  6.678605E+01  5.943161E-01 -1.375207E+02 -9.625927E-01 -3.223763E+00
       190   2  1.035299E+03  4.915357E+01 -8.836581E-01 -1.402805E+02  6.297902E-01 -4.356235E+00
       190   3  1.069338E+03  3.777793E+01  6.000424E-01 -1.398563E+02  2.433037E+00 -5.365248E+00
       190   4  1.004563E+03  6.733642E+01  8.910119E-01 -1.500507E+02 -1.600007E+00 -4.832515E+00
       190   5  1.032346E+03  4.937722E+01 -6.151042E-01 -1.539682E+02 -2.585975E-02 -6.263001E+00
       190   6  1.070284E+03  3.778629E+01  6.730890E-01 -1.545694E+02  1.775419E+00 -7.547749E+00
       190   7  9.968933E+02  6.295964E+01  3.810547E-01 -1.633728E+02 -2.241718E+00 -6.422891E+00
       190   8  1.028867E+03  4.519978E+01 -6.790994E-01 -1.685377E+02 -6.802054E-01 -8.174745E+00
       190   9  1.071167E+03  3.389665E+01  8.765023E-01 -1.702385E+02  1.125132E+00 -9.755261E+00
       190  10  1.011230E+03  6.678605E+01  5.943161E-01 -1.375207E+02  0.000000E+00  5.010806E-14
       190  11  1.035299E+03  4.915357E+01 -8.836581E-01 -1.402805E+02  6.681074E-14 -9.395261E-14
       190  12  1.069338E+03  3.777793E+01  6.000424E-01 -1.398563E+02 -2.380133E-13 -2.150471E-13
       190  13  1.004563E+03  6.733642E+01  8.910119E-01 -1.500507E+02  2.129592E-13  1.586755E-13
       190  14  1.032346E+03  4.937722E+01 -6.151042E-01 -1.539682E+02 -5.678913E-13  3.340537E-14
       190  15  1.070284E+03  3.778629E+01  6.730890E-01 -1.545694E+02 -7.933776E-14 -7.098641E-14
       190  16  9.968933E+02  6.295964E+01  3.810547E-01 -1.633728E+02  0.000000E+00  2.463646E-13
       190  17  1.028867E+03  4.519978E+01 -6.790994E-01 -1.685377E+02  4.008645E-13  7.098641E-14
       190  18  1.071167E+03  3.389665E+01  8.765023E-01 -1.702385E+02  2.505403E-13  3.340537E-14
       190  19  1.011230E+03  6.678605E+01  5.943161E-01 -1.375207E+02  9.625927E-01  3.223763E+00
       190  20  1.035299E+03  4.915357E+01 -8.836581E-01 -1.402805E+02 -6.297902E-01  4.356235E+00
       190  21  1.069338E+03  3.777793E+01  6.000424E-01 -1.398563E+02 -2.433037E+00  5.365248E+00
       190  22  1.004563E+03  6.733642E+01  8.910119E-01 -1.500507E+02  1.600007E+00  4.832515E+00
       190  23  1.032346E+03  4.937722E+01 -6.151042E-01 -1.539682E+02  2.585975E-02  6.263001E+00
       190  24  1.070284E+03  3.778629E+01  6.730890E-01 -1.545694E+02 -1.775419E+00  7.547749E+00
       190  25  9.968933E+02  6.295964E+01  3.810547E-01 -1.633728E+02  2.241718E+00  6.422891E+00
       190  26  1.028867E+03  4.519978E+01 -6.790994E-01 -1.685377E+02  6.802054E-01  8.174745E+00
       190  27  1.071167E+03  3.389665E+01  8.765023E-01 -1.702385E+02 -1.125132E+00  9.755261E+00
       191   1  9.914899E+02  6.165984E+01  6.095052E-01 -1.707965E+02 -2.635123E+00 -7.389564E+00
       191   2  1.024548E+03  4.155566E+01 -1.263884E+00 -1.769391E+02 -1.067996E+00 -9.278049E+00
       191   3  1.068773E+03  3.115068E+01  5.996679E-01 -1.783342E+02  6.234439E-01 -1.107445E+01
       191   4  9.803358E+02  5.921085E+01  1.467318E+00 -1.832314E+02 -3.732933E+00 -9.424604E+00
       191   5  1.017005E+03  3.678994E+01 -6.244283E-01 -1.890711E+02 -2.209721E+00 -1.151021E+01
       191   6  1.065114E+03  2.443347E+01  1.110709E+00 -1.900414E+02 -5.506767E-01 -1.348562E+01
       191   7  9.669939E+02  4.771617E+01  4.645271E-01 -1.967529E+02 -4.827794E+00 -1.147237E+01
       191   8  1.007910E+03  2.377433E+01 -1.214898E+00 -2.023316E+02 -3.343319E+00 -1.377320E+01
       191   9  1.060509E+03  1.022334E+01  1.002040E+00 -2.029076E+02 -1.711288E+00 -1.594290E+01
       191  10  9.914899E+02  6.165984E+01  6.095052E-01 -1.707965E+02 -2.004322E-13  2.004322E-13
       191  11  1.024548E+03  4.155566E+01 -1.263884E+00 -1.769391E+02 -6.681074E-14 -3.340537E-14
       191  12  1.068773E+03  3.115068E+01  5.996679E-01 -1.783342E+02 -2.421889E-13 -3.491905E-13
       191  13  9.803358E+02  5.921085E+01  1.467318E+00 -1.832314E+02  1.920809E-13  2.922970E-13
       191  14  1.017005E+03  3.678994E+01 -6.244283E-01 -1.890711E+02  2.129592E-13  8.768910E-14
       191  15  1.065114E+03  2.443347E+01  1.110709E+00 -1.900414E+02  4.509725E-13 -7.829384E-14
       191  16  9.669939E+02  4.771617E+01  4.645271E-01 -1.967529E+02 -1.670269E-13  3.048240E-13
       191  17  1.007910E+03  2.377433E+01 -1.214898E+00 -2.023316E+02 -5.010806E-14  9.186477E-14
       191  18  1.060509E+03  1.022334E+01  1.002040E+00 -2.029076E+02  5.845940E-14  1.565877E-14
       191  19  9.914899E+02  6.165984E+01  6.095052E-01 -1.707965E+02  2.635123E+00  7.389564E+00
       191  20  1.024548E+03  4.155566E+01 -1.263884E+00 -1.769391E+02  1.067996E+00  9.278049E+00
       191  21  1.068773E+03  3.115068E+01  5.996679E-01 -1.783342E+02 -6.234439E-01  1.107445E+01
       191  22  9.803358E+02  5.921085E+01  1.467318E+00 -1.832314E+02  3.732933E+00  9.424604E+00
       191  23  1.017005E+03  3.678994E+01 -6.244283E-01 -1.890711E+02  2.209721E+00  1.151021E+01
       191  24  1.065114E+03  2.443347E+01  1.110709E+00 -1.900414E+02  5.506767E-01  1.348562E+01
       191  25  9.669939E+02  4.771617E+01  4.645271E-01 -1.967529E+02  4.827794E+00  1.147237E+01
       191  26  1.007910E+03  2.377433E+01 -1.214898E+00 -2.023316E+02  3.343319E+00  1.377320E+01
       191  27  1.060509E+03  1.022334E+01  1.002040E+00 -2.029076E+02  1.711288E+00  1.594290E+01
       192   1  9.332565E+02  1.000329E+02  4.575300E-01 -1.316151E+02 -5.613072E+00 -3.745976E+00
       192   2  9.487508E+02  8.197209E+01 -9.971261E-01 -1.496172E+02 -4.488488E+00 -5.393772E+00
       192   3  9.745284E+02  7.106129E+01  7.256878E-01 -1.639562E+02 -3.288400E+00 -6.985613E+00
       192   4  9.164699E+02  9.910233E+01  1.019631E+00 -1.408917E+02 -6.351830E+00 -5.118391E+00
       192   5  9.331375E+02  7.950456E+01 -8.700342E-01 -1.601677E+02 -5.406076E+00 -6.978233E+00
       192   6  9.605783E+02  6.747224E+01  6.661180E-01 -1.755437E+02 -4.362510E+00 -8.758714E+00
       192   7  8.985583E+02  9.411439E+01  8.583077E-01 -1.507998E+02 -7.112156E+00 -6.341250E+00
       192   8  9.168710E+02  7.347653E+01 -9.053147E-01 -1.714778E+02 -6.344572E+00 -8.446794E+00
       192   9  9.464474E+02  6.081235E+01  1.003245E+00 -1.879885E+02 -5.455391E+00 -1.044429E+01
       192  10  9.332565E+02  1.000329E+02  4.575300E-01 -1.316151E+02  6.681074E-14  3.695469E-13
       192  11  9.487508E+02  8.197209E+01 -9.971261E-01 -1.496172E+02 -5.010806E-14 -5.532765E-14
       192  12  9.745284E+02  7.106129E+01  7.256878E-01 -1.639562E+02 -1.879052E-14 -3.562370E-13
       192  13  9.164699E+02  9.910233E+01  1.019631E+00 -1.408917E+02 -3.778983E-13  5.261346E-13
       192  14  9.331375E+02  7.950456E+01 -8.700342E-01 -1.601677E+02 -9.604044E-14 -4.593238E-14
       192  15  9.605783E+02  6.747224E+01  6.661180E-01 -1.755437E+02 -7.724992E-14 -4.796802E-13
       192  16  8.985583E+02  9.411439E+01  8.583077E-01 -1.507998E+02 -4.342698E-13  4.175671E-13
       192  17  9.168710E+02  7.347653E+01 -9.053147E-01 -1.714778E+02 -3.340537E-14 -1.106553E-13
       192  18  9.464474E+02  6.081235E+01  1.003245E+00 -1.879885E+02  2.922970E-14 -6.500998E-13
       192  19  9.332565E+02  1.000329E+02  4.575300E-01 -1.316151E+02  5.613072E+00  3.745976E+00
       192  20  9.487508E+02  8.197209E+01 -9.971261E-01 -1.496172E+02  4.488488E+00  5.393772E+00
       192  21  9.745284E+02  7.106129E+01  7.256878E-01 -1.639562E+02  3.288400E+00  6.985613E+00
       192  22  9.164699E+02  9.910233E+01  1.019631E+00 -1.408917E+02  6.351830E+00  5.118391E+00
       192  23  9.331375E+02  7.950456E+01 -8.700342E-01 -1.601677E+02  5.406076E+00  6.978233E+00
       192  24  9.605783E+02  6.747224E+01  6.661180E-01 -1.755437E+02  4.362510E+00  8.758714E+00
       192  25  8.985583E+02  9.411439E+01  8.583077E-01 -1.507998E+02  7.112156E+00  6.341250E+00
       192  26  9.168710E+02  7.347653E+01 -9.053147E-01 -1.714778E+02  6.344572E+00  8.446794E+00
       192  27  9.464474E+02  6.081235E+01  1.003245E+00 -1.879885E+02  5.455391E+00  1.044429E+01
       193   1  1.629859E+03  9.006483E+00  3.752345E+01  1.078061E+01 -3.848987E+00 -8.918609E+00
       193   2  1.583998E+03  3.938165E+00  2.764465E+01  1.707672E+01 -7.423840E+00 -7.599149E+00
       193   3  1.544249E+03  1.023437E+01  2.646661E+01  3.034729E+01 -1.099151E+01 -4.883993E+00
       193   4  1.534783E+03 -2.796127E+01  9.695385E+00  1.841002E+01 -2.258364E+00 -1.477485E+01
       193   5  1.509965E+03 -3.310798E+01  3.682125E+00  4.057372E+01 -4.456017E+00 -1.172430E+01
       193   6  1.490767E+03 -2.794031E+01  4.656105E+00  7.008762E+01 -6.621183E+00 -7.239826E+00
       193   7  1.489407E+03 -4.200172E+01  9.601970E+00  2.353468E+01  9.180164E-01 -2.056977E+01
       193   8  1.485760E+03 -4.770641E+01  5.567701E+00  6.132657E+01  1.343338E-01 -1.579913E+01
       193   9  1.487276E+03 -4.412266E+01  6.825340E+00  1.068301E+02 -5.906854E-01 -9.557347E+00
       193  10  1.629859E+03  9.006483E+00  3.752345E+01  1.078061E+01  5.845940E-14 -6.681074E-14
       193  11  1.583998E+03  3.938165E+00  2.764465E+01  1.707672E+01 -4.175671E-14 -2.755943E-13
       193  12  1.544249E+03  1.023437E+01  2.646661E+01  3.034729E+01 -3.758104E-14 -2.484524E-13
       193  13  1.534783E+03 -2.796127E+01  9.695385E+00  1.841002E+01  6.681074E-14 -1.409289E-14
       193  14  1.509965E+03 -3.310798E+01  3.682125E+00  4.057372E+01 -1.169188E-13  3.444929E-14
       193  15  1.490767E+03 -2.794031E+01  4.656105E+00  7.008762E+01  1.670269E-14  7.724992E-14
       193  16  1.489407E+03 -4.200172E+01  9.601970E+00  2.353468E+01 -4.175671E-14  6.681074E-14
       193  17  1.485760E+03 -4.770641E+01  5.567701E+00  6.132657E+01 -5.845940E-14 -3.340537E-14
       193  18  1.487276E+03 -4.412266E+01  6.825340E+00  1.068301E+02  2.380133E-13  1.732904E-13
       193  19  1.629859E+03  9.006483E+00  3.752345E+01  1.078061E+01  3.848987E+00  8.918609E+00
       193  20  1.583998E+03  3.938165E+00  2.764465E+01  1.707672E+01  7.423840E+00  7.599149E+00
       193  21  1.544249E+03  1.023437E+01  2.646661E+01  3.034729E+01  1.099151E+01  4.883993E+00
       193  22  1.534783E+03 -2.796127E+01  9.695385E+00  1.841002E+01  2.258364E+00  1.477485E+01
       193  23  1.509965E+03 -3.310798E+01  3.682125E+00  4.057372E+01  4.456017E+00  1.172430E+01
       193  24  1.490767E+03 -2.794031E+01  4.656105E+00  7.008762E+01  6.621183E+00  7.239826E+00
       193  25  1.489407E+03 -4.200172E+01  9.601970E+00  2.353468E+01 -9.180164E-01  2.056977E+01
       193  26  1.485760E+03 -4.770641E+01  5.567701E+00  6.132657E+01 -1.343338E-01  1.579913E+01
       193  27  1.487276E+03 -4.412266E+01  6.825340E+00  1.068301E+02  5.906854E-01  9.557347E+00
       194   1  1.490103E+03  5.626263E+00  1.599837E+01  3.547272E+01 -1.431969E+01 -3.109978E+00
       194   2  1.389910E+03  1.602384E+00 -4.328388E-01  3.568408E+01 -1.642759E+01  1.454157E-01
       194   3  1.294663E+03  7.117650E+00 -1.046776E+01  4.816405E+01 -1.852974E+01  4.518262E+00
       194   4  1.468002E+03 -2.431510E+01  3.580325E+00  8.520724E+01 -9.947027E+00 -3.985309E+00
       194   5  1.402264E+03 -2.181150E+01 -5.213071E+00  9.631841E+01 -1.098920E+01  2.680648E+00
       194   6  1.341534E+03 -1.038356E+01 -8.664594E+00  1.198585E+02 -1.200361E+01  1.057097E+01
       194   7  1.478456E+03 -4.013208E+01  6.083873E+00  1.326245E+02 -2.356193E+00 -4.801638E+00
       194   8  1.445711E+03 -3.274469E+01  7.381040E-01  1.544451E+02 -2.232804E+00  5.248924E+00
       194   9  1.418046E+03 -1.703757E+01 -3.155440E-01  1.888455E+02 -2.056434E+00  1.662805E+01
       194  10  1.490103E+03  5.626263E+00  1.599837E+01  3.547272E+01  5.845940E-14 -1.670269E-13
       194  11  1.389910E+03  1.602384E+00 -4.328388E-01  3.568408E+01  7.516208E-14  1.169188E-13
       194  12  1.294663E+03  7.117650E+00 -1.046776E+01  4.816405E+01  1.753782E-13  1.586755E-13
       194  13  1.468002E+03 -2.431510E+01  3.580325E+00  8.520724E+01  8.351343E-14 -4.697630E-14
       194  14  1.402264E+03 -2.181150E+01 -5.213071E+00  9.631841E+01  2.004322E-13  1.983444E-13
       194  15  1.341534E+03 -1.038356E+01 -8.664594E+00  1.198585E+02  1.252701E-13  2.492354E-14
       194  16  1.478456E+03 -4.013208E+01  6.083873E+00  1.326245E+02  1.252701E-13  2.672430E-13
       194  17  1.445711E+03 -3.274469E+01  7.381040E-01  1.544451E+02  1.169188E-13 -8.351343E-14
       194  18  1.418046E+03 -1.703757E+01 -3.155440E-01  1.888455E+02  8.351343E-15 -6.681074E-14
       194  19  1.490103E+03  5.626263E+00  1.599837E+01  3.547272E+01  1.431969E+01  3.109978E+00
       194  20  1.389910E+03  1.602384E+00 -4.328388E-01  3.568408E+01  1.642759E+01 -1.454157E-01
       194  21  1.294663E+03  7.117650E+00 -1.046776E+01  4.816405E+01  1.852974E+01 -4.518262E+00
       194  22  1.468002E+03 -2.431510E+01  3.580325E+00  8.520724E+01  9.947027E+00  3.985309E+00
       194  23  1.402264E+03 -2.181150E+01 -5.213071E+00  9.631841E+01  1.098920E+01 -2.680648E+00
       194  24  1.341534E+03 -1.038356E+01 -8.664594E+00  1.198585E+02  1.200361E+01 -1.057097E+01
       194  25  1.478456E+03 -4.013208E+01  6.083873E+00  1.326245E+02  2.356193E+00  4.801638E+00
       194  26  1.445711E+03 -3.274469E+01  7.381040E-01  1.544451E+02  2.232804E+00 -5.248924E+00
       194  27  1.418046E+03 -1.703757E+01 -3.155440E-01  1.888455E+02  2.056434E+00 -1.662805E+01
       195   1  1.487770E+03 -6.891809E+01  2.981170E+00  1.374272E+02  2.889282E+00 -5.431059E+00
       195   2  1.470437E+03 -5.811354E+01 -2.296657E+00  1.665022E+02  3.783587E+00  4.312388E+00
       195   3  1.464950E+03 -2.190910E+01  3.195624E+00  2.036287E+02  4.772061E+00  1.594810E+01
       195   4  1.509707E+03 -1.184196E+02  1.907420E+00  1.141628E+02  1.164153E+01 -9.282717E+00
       195   5  1.513462E+03 -9.667724E+01 -3.558127E+00  1.514074E+02  1.419907E+01  1.377585E+00
       195   6  1.528592E+03 -5.036317E+01 -7.853361E-02  1.967507E+02  1.688280E+01  1.393454E+01
       195   7  1.536393E+03 -1.645506E+02  7.123875E+00  9.215177E+01  2.110434E+01 -1.312138E+01
       195   8  1.560425E+03 -1.325754E+02  2.798900E-02  1.375090E+02  2.532866E+01 -1.550140E+00
       195   9  1.595344E+03 -7.686132E+01  4.664711E-02  1.910094E+02  2.971082E+01  1.192186E+01
       195  10  1.487770E+03 -6.891809E+01  2.981170E+00  1.374272E+02  2.087836E-14  0.000000E+00
       195  11  1.470437E+03 -5.811354E+01 -2.296657E+00  1.665022E+02  0.000000E+00  0.000000E+00
       195  12  1.464950E+03 -2.190910E+01  3.195624E+00  2.036287E+02 -1.252701E-13 -6.681074E-14
       195  13  1.509707E+03 -1.184196E+02  1.907420E+00  1.141628E+02  5.010806E-14  1.263141E-13
       195  14  1.513462E+03 -9.667724E+01 -3.558127E+00  1.514074E+02  3.340537E-14  5.154344E-14
       195  15  1.528592E+03 -5.036317E+01 -7.853361E-02  1.967507E+02  7.516208E-14 -6.134648E-14
       195  16  1.536393E+03 -1.645506E+02  7.123875E+00  9.215177E+01  1.002161E-13  1.002161E-13
       195  17  1.560425E+03 -1.325754E+02  2.798900E-02  1.375090E+02  1.085675E-13  8.351343E-14
       195  18  1.595344E+03 -7.686132E+01  4.664711E-02  1.910094E+02 -4.593238E-14 -8.768910E-14
       195  19  1.487770E+03 -6.891809E+01  2.981170E+00  1.374272E+02 -2.889282E+00  5.431059E+00
       195  20  1.470437E+03 -5.811354E+01 -2.296657E+00  1.665022E+02 -3.783587E+00 -4.312388E+00
       195  21  1.464950E+03 -2.190910E+01  3.195624E+00  2.036287E+02 -4.772061E+00 -1.594810E+01
       195  22  1.509707E+03 -1.184196E+02  1.907420E+00  1.141628E+02 -1.164153E+01  9.282717E+00
       195  23  1.513462E+03 -9.667724E+01 -3.558127E+00  1.514074E+02 -1.419907E+01 -1.377585E+00
       195  24  1.528592E+03 -5.036317E+01 -7.853361E-02  1.967507E+02 -1.688280E+01 -1.393454E+01
       195  25  1.536393E+03 -1.645506E+02  7.123875E+00  9.215177E+01 -2.110434E+01  1.312138E+01
       195  26  1.560425E+03 -1.325754E+02  2.798900E-02  1.375090E+02 -2.532866E+01  1.550140E+00
       195  27  1.595344E+03 -7.686132E+01  4.664711E-02  1.910094E+02 -2.971082E+01 -1.192186E+01
       196   1  1.465112E+03 -7.493375E+01  4.711866E+00  1.380006E+01  3.074471E+00 -2.081589E+01
       196   2  1.473780E+03 -8.251069E+01  9.549042E-01  5.571489E+01  3.334906E+00 -1.676321E+01
       196   3  1.491110E+03 -7.283153E+01  4.915379E+00  1.069058E+02  3.716934E+00 -1.026737E+01
       196   4  1.423907E+03 -1.196331E+02  1.391159E+00 -2.151581E+01  5.498264E+00 -2.353864E+01
       196   5  1.455003E+03 -1.309041E+02 -8.354243E-01  2.462344E+01  8.033942E+00 -2.006237E+01
       196   6  1.493623E+03 -1.267916E+02  1.517883E+00  7.993641E+01  1.072834E+01 -1.420092E+01
       196   7  1.380001E+03 -1.650437E+02 -1.233786E-01 -6.127764E+01  7.216444E+00 -2.628869E+01
       196   8  1.433320E+03 -1.798308E+02 -2.550243E-01 -1.112902E+01  1.197072E+01 -2.338519E+01
       196   9  1.493005E+03 -1.811031E+02  1.050715E+00  4.808530E+01  1.691834E+01 -1.815347E+01
       196  10  1.465112E+03 -7.493375E+01  4.711866E+00  1.380006E+01 -1.544998E-13 -1.837295E-13
       196  11  1.473780E+03 -8.251069E+01  9.549042E-01  5.571489E+01  1.169188E-13 -2.087836E-13
       196  12  1.491110E+03 -7.283153E+01  4.915379E+00  1.069058E+02  5.845940E-14 -5.637156E-14
       196  13  1.423907E+03 -1.196331E+02  1.391159E+00 -2.151581E+01 -3.173510E-13 -1.983444E-14
       196  14  1.455003E+03 -1.309041E+02 -8.354243E-01  2.462344E+01 -1.002161E-13 -4.697630E-15
       196  15  1.493623E+03 -1.267916E+02  1.517883E+00  7.993641E+01  2.672430E-13  7.568404E-15
       196  16  1.380001E+03 -1.650437E+02 -1.233786E-01 -6.127764E+01 -3.089997E-13 -3.340537E-14
       196  17  1.433320E+03 -1.798308E+02 -2.550243E-01 -1.112902E+01  1.670269E-14  9.186477E-14
       196  18  1.493005E+03 -1.811031E+02  1.050715E+00  4.808530E+01  3.006483E-13  7.933776E-14
       196  19  1.465112E+03 -7.493375E+01  4.711866E+00  1.380006E+01 -3.074471E+00  2.081589E+01
       196  20  1.473780E+03 -8.251069E+01  9.549042E-01  5.571489E+01 -3.334906E+00  1.676321E+01
       196  21  1.491110E+03 -7.283153E+01  4.915379E+00  1.069058E+02 -3.716934E+00  1.026737E+01
       196  22  1.423907E+03 -1.196331E+02  1.391159E+00 -2.151581E+01 -5.498264E+00  2.353864E+01
       196  23  1.455003E+03 -1.309041E+02 -8.354243E-01  2.462344E+01 -8.033942E+00  2.006237E+01
       196  24  1.493623E+03 -1.267916E+02  1.517883E+00  7.993641E+01 -1.072834E+01  1.420092E+01
       196  25  1.380001E+03 -1.650437E+02 -1.233786E-01 -6.127764E+01 -7.216444E+00  2.628869E+01
       196  26  1.433320E+03 -1.798308E+02 -2.550243E-01 -1.112902E+01 -1.197072E+01  2.338519E+01
       196  27  1.493005E+03 -1.811031E+02  1.050715E+00  4.808530E+01 -1.691834E+01  1.815347E+01
       197   1  7.241244E+02  1.265658E+02 -4.447740E+00 -2.435384E+01 -1.499515E+01 -1.160513E+00
       197   2  7.580454E+02  1.257436E+02  9.937432E-03 -6.047399E+01 -1.340691E+01 -2.864320E+00
       197   3  7.811285E+02  1.184891E+02 -1.883440E+00 -9.407084E+01 -1.212252E+01 -4.484452E+00
       197   4  7.185474E+02  1.197079E+02  3.751857E-01 -6.623231E+01 -1.587292E+01 -3.983351E+00
       197   5  7.601460E+02  1.157889E+02  3.610577E+00 -9.860553E+01 -1.387978E+01 -5.427611E+00
       197   6  7.906598E+02  1.052982E+02  7.742130E-01 -1.282762E+02 -1.219852E+01 -6.781421E+00
       197   7  7.047639E+02  1.031933E+02 -2.043294E+00 -1.115039E+02 -1.689621E+01 -6.921566E+00
       197   8  7.544476E+02  9.602506E+01  6.475701E-02 -1.401025E+02 -1.448390E+01 -8.097763E+00
       197   9  7.927927E+02  8.212644E+01 -3.627556E+00 -1.658112E+02 -1.239138E+01 -9.176212E+00
       197  10  7.241244E+02  1.265658E+02 -4.447740E+00 -2.435384E+01 -6.681074E-13 -2.207886E-13
       197  11  7.580454E+02  1.257436E+02  9.937432E-03 -6.047399E+01 -3.507564E-13  8.390490E-14
       197  12  7.811285E+02  1.184891E+02 -1.883440E+00 -9.407084E+01  1.670269E-14  4.115646E-13
       197  13  7.185474E+02  1.197079E+02  3.751857E-01 -6.623231E+01 -1.002161E-13 -3.173510E-13
       197  14  7.601460E+02  1.157889E+02  3.610577E+00 -9.860553E+01 -4.927292E-13  0.000000E+00
       197  15  7.906598E+02  1.052982E+02  7.742130E-01 -1.282762E+02  2.338376E-13  3.155242E-13
       197  16  7.047639E+02  1.031933E+02 -2.043294E+00 -1.115039E+02 -2.338376E-13 -4.272234E-13
       197  17  7.544476E+02  9.602506E+01  6.475701E-02 -1.401025E+02  2.087836E-13 -8.181706E-14
       197  18  7.927927E+02  8.212644E+01 -3.627556E+00 -1.658112E+02  9.998123E-13  2.792480E-13
       197  19  7.241244E+02  1.265658E+02 -4.447740E+00 -2.435384E+01  1.499515E+01  1.160513E+00
       197  20  7.580454E+02  1.257436E+02  9.937432E-03 -6.047399E+01  1.340691E+01  2.864320E+00
       197  21  7.811285E+02  1.184891E+02 -1.883440E+00 -9.407084E+01  1.212252E+01  4.484452E+00
       197  22  7.185474E+02  1.197079E+02  3.751857E-01 -6.623231E+01  1.587292E+01  3.983351E+00
       197  23  7.601460E+02  1.157889E+02  3.610577E+00 -9.860553E+01  1.387978E+01  5.427611E+00
       197  24  7.906598E+02  1.052982E+02  7.742130E-01 -1.282762E+02  1.219852E+01  6.781421E+00
       197  25  7.047639E+02  1.031933E+02 -2.043294E+00 -1.115039E+02  1.689621E+01  6.921566E+00
       197  26  7.544476E+02  9.602506E+01  6.475701E-02 -1.401025E+02  1.448390E+01  8.097763E+00
       197  27  7.927927E+02  8.212644E+01 -3.627556E+00 -1.658112E+02  1.239138E+01  9.176212E+00
       198   1  7.986372E+02  1.128295E+02 -2.774708E+00 -1.107272E+02 -1.147517E+01 -5.401129E+00
       198   2  8.453167E+02  1.064055E+02  1.297384E+00 -1.318352E+02 -9.585081E+00 -6.128107E+00
       198   3  8.764632E+02  9.284323E+01 -1.622650E+00 -1.512149E+02 -8.021538E+00 -6.765141E+00
       198   4  8.106319E+02  9.674860E+01 -1.403958E+00 -1.429025E+02 -1.149382E+01 -7.727803E+00
       198   5  8.624171E+02  9.035745E+01  2.399694E+00 -1.585348E+02 -9.109266E+00 -8.240512E+00
       198   6  8.980795E+02  7.663536E+01 -6.727763E-01 -1.722719E+02 -7.055735E+00 -8.657201E+00
       198   7  8.236712E+02  7.724329E+01 -2.617397E+00 -1.754851E+02 -1.175132E+01 -1.025774E+01
       198   8  8.811836E+02  7.098966E+01  1.032870E+00 -1.854383E+02 -8.859722E+00 -1.055125E+01
       198   9  9.219722E+02  5.720131E+01 -2.083704E+00 -1.933162E+02 -6.303422E+00 -1.074226E+01
       198  10  7.986372E+02  1.128295E+02 -2.774708E+00 -1.107272E+02 -5.678913E-13 -1.586755E-13
       198  11  8.453167E+02  1.064055E+02  1.297384E+00 -1.318352E+02 -5.511886E-13  2.119153E-13
       198  12  8.764632E+02  9.284323E+01 -1.622650E+00 -1.512149E+02 -3.507564E-13  4.768095E-13
       198  13  8.106319E+02  9.674860E+01 -1.403958E+00 -1.429025E+02 -1.670269E-13 -3.340537E-14
       198  14  8.624171E+02  9.035745E+01  2.399694E+00 -1.585348E+02  5.010806E-14  1.252701E-13
       198  15  8.980795E+02  7.663536E+01 -6.727763E-01 -1.722719E+02  5.010806E-14  2.789870E-13
       198  16  8.236712E+02  7.724329E+01 -2.617397E+00 -1.754851E+02  1.670269E-13 -2.087836E-14
       198  17  8.811836E+02  7.098966E+01  1.032870E+00 -1.854383E+02  2.338376E-13 -4.958610E-14
       198  18  9.219722E+02  5.720131E+01 -2.083704E+00 -1.933162E+02  5.393467E-13 -1.573706E-13
       198  19  7.986372E+02  1.128295E+02 -2.774708E+00 -1.107272E+02  1.147517E+01  5.401129E+00
       198  20  8.453167E+02  1.064055E+02  1.297384E+00 -1.318352E+02  9.585081E+00  6.128107E+00
       198  21  8.764632E+02  9.284323E+01 -1.622650E+00 -1.512149E+02  8.021538E+00  6.765141E+00
       198  22  8.106319E+02  9.674860E+01 -1.403958E+00 -1.429025E+02  1.149382E+01  7.727803E+00
       198  23  8.624171E+02  9.035745E+01  2.399694E+00 -1.585348E+02  9.109266E+00  8.240512E+00
       198  24  8.980795E+02  7.663536E+01 -6.727763E-01 -1.722719E+02  7.055735E+00  8.657201E+00
       198  25  8.236712E+02  7.724329E+01 -2.617397E+00 -1.754851E+02  1.175132E+01  1.025774E+01
       198  26  8.811836E+02  7.098966E+01  1.032870E+00 -1.854383E+02  8.859722E+00  1.055125E+01
       198  27  9.219722E+02  5.720131E+01 -2.083704E+00 -1.933162E+02  6.303422E+00  1.074226E+01
       199   1  8.460378E+02  6.485697E+01 -3.255708E-01 -1.919828E+02 -1.069286E+01 -1.206544E+01
       199   2  9.042637E+02  5.774682E+01  2.259771E+00 -1.969373E+02 -8.074272E+00 -1.208231E+01
       199   3  9.466704E+02  4.495601E+01 -9.190244E-01 -2.013592E+02 -5.700086E+00 -1.202211E+01
       199   4  8.863417E+02  3.457044E+01 -1.330765E+00 -2.120186E+02 -9.218407E+00 -1.478804E+01
       199   5  9.452362E+02  3.092787E+01  1.093191E+00 -2.106537E+02 -6.482225E+00 -1.455413E+01
       199   6  9.874617E+02  2.142960E+01 -2.303501E+00 -2.086345E+02 -4.001588E+00 -1.423519E+01
       199   7  9.380019E+02  8.335064E+00 -9.328043E-01 -2.287724E+02 -7.714433E+00 -1.748552E+01
       199   8  9.987353E+02  8.910185E+00  2.108299E+00 -2.206828E+02 -4.847322E+00 -1.698837E+01
       199   9  1.041941E+03  3.461248E+00 -7.284363E-01 -2.117990E+02 -2.246951E+00 -1.639749E+01
       199  10  8.460378E+02  6.485697E+01 -3.255708E-01 -1.919828E+02 -1.670269E-13  1.169188E-13
       199  11  9.042637E+02  5.774682E+01  2.259771E+00 -1.969373E+02 -1.336215E-13  8.351343E-14
       199  12  9.466704E+02  4.495601E+01 -9.190244E-01 -2.013592E+02 -1.837295E-13  3.653712E-14
       199  13  8.863417E+02  3.457044E+01 -1.330765E+00 -2.120186E+02  2.505403E-14  0.000000E+00
       199  14  9.452362E+02  3.092787E+01  1.093191E+00 -2.106537E+02  1.586755E-13  1.670269E-14
       199  15  9.874617E+02  2.142960E+01 -2.303501E+00 -2.086345E+02 -8.351343E-15 -2.401011E-14
       199  16  9.380019E+02  8.335064E+00 -9.328043E-01 -2.287724E+02  6.681074E-14 -9.604044E-14
       199  17  9.987353E+02  8.910185E+00  2.108299E+00 -2.206828E+02  6.347020E-13 -6.994250E-14
       199  18  1.041941E+03  3.461248E+00 -7.284363E-01 -2.117990E+02  3.142193E-13 -3.053460E-14
       199  19  8.460378E+02  6.485697E+01 -3.255708E-01 -1.919828E+02  1.069286E+01  1.206544E+01
       199  20  9.042637E+02  5.774682E+01  2.259771E+00 -1.969373E+02  8.074272E+00  1.208231E+01
       199  21  9.466704E+02  4.495601E+01 -9.190244E-01 -2.013592E+02  5.700086E+00  1.202211E+01
       199  22  8.863417E+02  3.457044E+01 -1.330765E+00 -2.120186E+02  9.218407E+00  1.478804E+01
       199  23  9.452362E+02  3.092787E+01  1.093191E+00 -2.106537E+02  6.482225E+00  1.455413E+01
       199  24  9.874617E+02  2.142960E+01 -2.303501E+00 -2.086345E+02  4.001588E+00  1.423519E+01
       199  25  9.380019E+02  8.335064E+00 -9.328043E-01 -2.287724E+02  7.714433E+00  1.748552E+01
       199  26  9.987353E+02  8.910185E+00  2.108299E+00 -2.206828E+02  4.847322E+00  1.698837E+01
       199  27  1.041941E+03  3.461248E+00 -7.284363E-01 -2.117990E+02  2.246951E+00  1.639749E+01
       200   1  7.038430E+02  8.893591E+01 -3.541000E+00 -1.404072E+02 -1.752830E+01 -8.927406E+00
       200   2  7.683000E+02  8.369718E+01  1.909661E+00 -1.639681E+02 -1.426689E+01 -1.008897E+01
       200   3  8.114304E+02  6.948172E+01 -1.843808E+00 -1.858275E+02 -1.144660E+01 -1.111146E+01
       200   4  7.339353E+02  5.727114E+01 -1.839146E+00 -1.828458E+02 -1.661121E+01 -1.322702E+01
       200   5  8.029895E+02  5.340081E+01  2.564459E+00 -1.973010E+02 -1.323651E+01 -1.385176E+01
       200   6  8.497920E+02  4.032862E+01 -2.060350E+00 -2.098197E+02 -1.032776E+01 -1.432149E+01
       200   7  7.736616E+02  2.453973E+01 -2.015890E+00 -2.237233E+02 -1.541758E+01 -1.730738E+01
       200   8  8.489444E+02  2.285363E+01  2.585865E+00 -2.286489E+02 -1.190166E+01 -1.736667E+01
       200   9  9.010408E+02  1.173477E+01 -1.669702E+00 -2.313799E+02 -8.876669E+00 -1.725347E+01
       200  10  7.038430E+02  8.893591E+01 -3.541000E+00 -1.404072E+02 -4.676752E-13 -2.766382E-13
       200  11  7.683000E+02  8.369718E+01  1.909661E+00 -1.639681E+02 -4.843779E-13  1.017820E-13
       200  12  8.114304E+02  6.948172E+01 -1.843808E+00 -1.858275E+02  1.837295E-13  4.166537E-13
       200  13  7.339353E+02  5.727114E+01 -1.839146E+00 -1.828458E+02 -1.085675E-13  3.549321E-14
       200  14  8.029895E+02  5.340081E+01  2.564459E+00 -1.973010E+02 -1.085675E-13  1.461485E-13
       200  15  8.497920E+02  4.032862E+01 -2.060350E+00 -2.098197E+02  2.004322E-13  1.811197E-13
       200  16  7.736616E+02  2.453973E+01 -2.015890E+00 -2.237233E+02 -1.670269E-14  1.367532E-13
       200  17  8.489444E+02  2.285363E+01  2.585865E+00 -2.286489E+02 -1.753782E-13  9.290869E-14
       200  18  9.010408E+02  1.173477E+01 -1.669702E+00 -2.313799E+02 -5.219589E-16 -7.542306E-14
       200  19  7.038430E+02  8.893591E+01 -3.541000E+00 -1.404072E+02  1.752830E+01  8.927406E+00
       200  20  7.683000E+02  8.369718E+01  1.909661E+00 -1.639681E+02  1.426689E+01  1.008897E+01
       200  21  8.114304E+02  6.948172E+01 -1.843808E+00 -1.858275E+02  1.144660E+01  1.111146E+01
       200  22  7.339353E+02  5.727114E+01 -1.839146E+00 -1.828458E+02  1.661121E+01  1.322702E+01
       200  23  8.029895E+02  5.340081E+01  2.564459E+00 -1.973010E+02  1.323651E+01  1.385176E+01
       200  24  8.497920E+02  4.032862E+01 -2.060350E+00 -2.098197E+02  1.032776E+01  1.432149E+01
       200  25  7.736616E+02  2.453973E+01 -2.015890E+00 -2.237233E+02  1.541758E+01  1.730738E+01
       200  26  8.489444E+02  2.285363E+01  2.585865E+00 -2.286489E+02  1.190166E+01  1.736667E+01
       200  27  9.010408E+02  1.173477E+01 -1.669702E+00 -2.313799E+02  8.876669E+00  1.725347E+01
       201   1  3.450388E+02 -4.502446E-01  1.043778E+00 -2.459929E+01 -4.245341E+01 -1.780553E-01
       201   2  3.284888E+02 -5.606189E+01 -1.218242E+01 -1.251626E+02 -4.401046E+01 -1.282835E+01
       201   3  3.950630E+02 -6.809060E+01  1.384447E+00 -2.058097E+02 -4.169268E+01 -2.408244E+01
       201   4  2.450414E+02 -6.367093E+01  6.887827E+00 -2.208330E+01 -5.619713E+01 -2.505236E+00
       201   5  2.389526E+02 -1.317175E+02 -8.342766E+00 -1.278241E+02 -5.509208E+01 -1.881559E+01
       201   6  3.118534E+02 -1.596700E+02 -3.547226E+00 -2.136559E+02 -5.006977E+01 -3.385153E+01
       201   7  1.179798E+02 -2.016401E+02 -2.547922E+00 -2.561111E+01 -6.995039E+01 -7.484792E+00
       201   8  1.184319E+02 -2.882168E+02 -2.615327E+01 -1.364559E+02 -6.621811E+01 -2.751627E+01
       201   9  1.936664E+02 -3.384133E+02 -3.658864E+01 -2.273940E+02 -5.852956E+01 -4.639506E+01
       201  10  3.450388E+02 -4.502446E-01  1.043778E+00 -2.459929E+01  4.969049E-13 -2.493659E-13
       201  11  3.284888E+02 -5.606189E+01 -1.218242E+01 -1.251626E+02 -1.336215E-13  8.386004E-14
       201  12  3.950630E+02 -6.809060E+01  1.384447E+00 -2.058097E+02 -1.576316E-13  5.504475E-13
       201  13  2.450414E+02 -6.367093E+01  6.887827E+00 -2.208330E+01 -1.079884E-13  1.294132E-13
       201  14  2.389526E+02 -1.317175E+02 -8.342766E+00 -1.278241E+02  5.394119E-13  1.706316E-13
       201  15  3.118534E+02 -1.596700E+02 -3.547226E+00 -2.136559E+02 -2.378175E-13  3.428658E-13
       201  16  1.179798E+02 -2.016401E+02 -2.547922E+00 -2.561111E+01 -5.052562E-13  2.082616E-13
       201  17  1.184319E+02 -2.882168E+02 -2.615327E+01 -1.364559E+02 -2.860335E-13 -3.377645E-14
       201  18  1.936664E+02 -3.384133E+02 -3.658864E+01 -2.273940E+02 -1.513681E-14 -1.846022E-13
       201  19  3.450388E+02 -4.502446E-01  1.043778E+00 -2.459929E+01  4.245341E+01  1.780553E-01
       201  20  3.284888E+02 -5.606189E+01 -1.218242E+01 -1.251626E+02  4.401046E+01  1.282835E+01
       201  21  3.950630E+02 -6.809060E+01  1.384447E+00 -2.058097E+02  4.169268E+01  2.408244E+01
       201  22  2.450414E+02 -6.367093E+01  6.887827E+00 -2.208330E+01  5.619713E+01  2.505236E+00
       201  23  2.389526E+02 -1.317175E+02 -8.342766E+00 -1.278241E+02  5.509208E+01  1.881559E+01
       201  24  3.118534E+02 -1.596700E+02 -3.547226E+00 -2.136559E+02  5.006977E+01  3.385153E+01
       201  25  1.179798E+02 -2.016401E+02 -2.547922E+00 -2.561111E+01  6.995039E+01  7.484792E+00
       201  26  1.184319E+02 -2.882168E+02 -2.615327E+01 -1.364559E+02  6.621811E+01  2.751627E+01
       201  27  1.936664E+02 -3.384133E+02 -3.658864E+01 -2.273940E+02  5.852956E+01  4.639506E+01
       202   1  4.372133E+02 -1.125516E+02 -5.584091E+00 -2.562395E+02 -3.949074E+01 -2.947382E+01
       202   2  5.389788E+02 -1.730912E+02 -1.163670E+01 -3.026234E+02 -3.430577E+01 -3.908710E+01
       202   3  6.936102E+02 -2.047475E+02 -3.844552E+00 -3.342244E+02 -2.534451E+01 -4.724230E+01
       202   4  3.827391E+02 -1.740478E+02  3.292326E+00 -2.586193E+02 -4.495862E+01 -3.985029E+01
       202   5  5.214966E+02 -2.383514E+02 -8.030137E-02 -3.050255E+02 -3.295466E+01 -5.132681E+01
       202   6  7.082552E+02 -2.770772E+02  3.471717E+00 -3.370045E+02 -1.763348E+01 -6.134328E+01
       202   7  3.066437E+02 -2.862819E+02 -4.066361E+00 -2.815997E+02 -5.069134E+01 -5.929837E+01
       202   8  4.812909E+02 -3.535708E+02 -1.200596E+01 -3.267284E+02 -3.172058E+01 -7.197294E+01
       202   9  6.987272E+02 -3.990459E+02 -2.018274E+01 -3.579127E+02 -9.920832E+00 -8.324412E+01
       202  10  4.372133E+02 -1.125516E+02 -5.584091E+00 -2.562395E+02  1.127431E-13 -1.837295E-13
       202  11  5.389788E+02 -1.730912E+02 -1.163670E+01 -3.026234E+02  6.681074E-14  4.175671E-14
       202  12  6.936102E+02 -2.047475E+02 -3.844552E+00 -3.342244E+02  2.515842E-13  1.474534E-13
       202  13  3.827391E+02 -1.740478E+02  3.292326E+00 -2.586193E+02  3.296823E-13 -4.864657E-13
       202  14  5.214966E+02 -2.383514E+02 -8.030137E-02 -3.050255E+02  1.918851E-13 -5.219589E-14
       202  15  7.082552E+02 -2.770772E+02  3.471717E+00 -3.370045E+02  1.762896E-13  3.116095E-13
       202  16  3.066437E+02 -2.862819E+02 -4.066361E+00 -2.815997E+02  2.380133E-13 -6.764588E-13
       202  17  4.812909E+02 -3.535708E+02 -1.200596E+01 -3.267284E+02 -7.516208E-14  3.236145E-14
       202  18  6.987272E+02 -3.990459E+02 -2.018274E+01 -3.579127E+02  2.661990E-14  6.156505E-13
       202  19  4.372133E+02 -1.125516E+02 -5.584091E+00 -2.562395E+02  3.949074E+01  2.947382E+01
       202  20  5.389788E+02 -1.730912E+02 -1.163670E+01 -3.026234E+02  3.430577E+01  3.908710E+01
       202  21  6.936102E+02 -2.047475E+02 -3.844552E+00 -3.342244E+02  2.534451E+01  4.724230E+01
       202  22  3.827391E+02 -1.740478E+02  3.292326E+00 -2.586193E+02  4.495862E+01  3.985029E+01
       202  23  5.214966E+02 -2.383514E+02 -8.030137E-02 -3.050255E+02  3.295466E+01  5.132681E+01
       202  24  7.082552E+02 -2.770772E+02  3.471717E+00 -3.370045E+02  1.763348E+01  6.134328E+01
       202  25  3.066437E+02 -2.862819E+02 -4.066361E+00 -2.815997E+02  5.069134E+01  5.929837E+01
       202  26  4.812909E+02 -3.535708E+02 -1.200596E+01 -3.267284E+02  3.172058E+01  7.197294E+01
       202  27  6.987272E+02 -3.990459E+02 -2.018274E+01 -3.579127E+02  9.920832E+00  8.324412E+01
       203   1  2.537526E+02 -4.602272E+02 -3.978755E+01 -2.950180E+02 -5.424775E+01 -7.525647E+01
       203   2  4.438242E+02 -4.040393E+02 -1.888887E+01 -2.912327E+02 -2.919415E+01 -8.771527E+01
       203   3  6.790523E+02 -3.832543E+02 -1.616569E+01 -3.132606E+02 -1.240492E+00 -9.801477E+01
       203   4  1.182858E+02 -5.790729E+02 -7.989982E+01 -9.980199E+01 -2.181900E+01 -9.053888E+01
       203   5  2.843314E+02 -4.245612E+02 -6.699520E+01 -1.658049E+02  1.032767E+01 -1.029120E+02
       203   6  5.313929E+02 -2.793836E+02 -5.431666E+01 -2.695770E+02  4.355948E+01 -1.107827E+02
       203   7 -5.049926E+00 -6.497302E+02 -1.363805E+02  1.208339E+02  1.025277E+01 -1.146797E+02
       203   8  1.778218E+02 -2.923106E+02 -9.595622E+01 -2.500705E+01  4.959341E+01 -1.244158E+02
       203   9  4.826413E+02  9.504191E+01 -3.232750E+01 -2.370526E+02  8.834637E+01 -1.249408E+02
       203  10  2.537526E+02 -4.602272E+02 -3.978755E+01 -2.950180E+02  1.920809E-13 -6.597561E-13
       203  11  4.438242E+02 -4.040393E+02 -1.888887E+01 -2.912327E+02  1.210945E-13  3.340537E-14
       203  12  6.790523E+02 -3.832543E+02 -1.616569E+01 -3.132606E+02  3.914692E-13  9.029889E-13
       203  13  1.182858E+02 -5.790729E+02 -7.989982E+01 -9.980199E+01 -1.033479E-13 -5.971210E-13
       203  14  2.843314E+02 -4.245612E+02 -6.699520E+01 -1.658049E+02 -4.734167E-13 -2.588916E-13
       203  15  5.313929E+02 -2.793836E+02 -5.431666E+01 -2.695770E+02 -3.718957E-15  3.236145E-13
       203  16 -5.049926E+00 -6.497302E+02 -1.363805E+02  1.208339E+02 -3.925131E-13 -3.528442E-13
       203  17  1.778218E+02 -2.923106E+02 -9.595622E+01 -2.500705E+01 -4.259185E-13 -4.175671E-13
       203  18  4.826413E+02  9.504191E+01 -3.232750E+01 -2.370526E+02 -5.313542E-13 -3.204828E-13
       203  19  2.537526E+02 -4.602272E+02 -3.978755E+01 -2.950180E+02  5.424775E+01  7.525647E+01
       203  20  4.438242E+02 -4.040393E+02 -1.888887E+01 -2.912327E+02  2.919415E+01  8.771527E+01
       203  21  6.790523E+02 -3.832543E+02 -1.616569E+01 -3.132606E+02  1.240492E+00  9.801477E+01
       203  22  1.182858E+02 -5.790729E+02 -7.989982E+01 -9.980199E+01  2.181900E+01  9.053888E+01
       203  23  2.843314E+02 -4.245612E+02 -6.699520E+01 -1.658049E+02 -1.032767E+01  1.029120E+02
       203  24  5.313929E+02 -2.793836E+02 -5.431666E+01 -2.695770E+02 -4.355948E+01  1.107827E+02
       203  25 -5.049926E+00 -6.497302E+02 -1.363805E+02  1.208339E+02 -1.025277E+01  1.146797E+02
       203  26  1.778218E+02 -2.923106E+02 -9.595622E+01 -2.500705E+01 -4.959341E+01  1.244158E+02
       203  27  4.826413E+02  9.504191E+01 -3.232750E+01 -2.370526E+02 -8.834637E+01  1.249408E+02
       204   1 -6.357992E+01 -3.527638E+02 -5.376051E+01 -4.572184E+01 -7.822681E+01 -8.251147E+00
       204   2  3.425637E+01 -3.892218E+02 -3.619525E+01 -1.475531E+02 -7.867317E+01 -3.477036E+01
       204   3  1.833622E+02 -4.145289E+02 -2.397122E+01 -2.544261E+02 -6.629105E+01 -5.776290E+01
       204   4  2.317300E+01 -6.466431E+02 -3.649853E+01 -1.924420E+01 -6.732681E+01 -4.391243E+00
       204   5  3.407391E+01 -6.226931E+02 -3.622709E+01 -3.998328E+01 -5.883417E+01 -4.137244E+01
       204   6  1.142605E+02 -5.107554E+02 -2.172394E+01 -7.173273E+01 -3.834106E+01 -7.430792E+01
       204   7 -5.694777E+01 -1.322256E+03 -1.956875E+02  3.745033E+01 -5.650455E+01 -1.126649E+01
       204   8 -1.498456E+02 -1.276510E+03 -2.381841E+02  1.070844E+02 -3.925845E+01 -5.787982E+01
       204   9 -1.164610E+02 -9.714201E+02 -2.068263E+02  1.516319E+02 -1.064356E+01 -9.824706E+01
       204  10 -6.357992E+01 -3.527638E+02 -5.376051E+01 -4.572184E+01 -1.002161E-13  2.847531E-13
       204  11  3.425637E+01 -3.892218E+02 -3.619525E+01 -1.475531E+02  3.340537E-14 -2.385515E-14
       204  12  1.833622E+02 -4.145289E+02 -2.397122E+01 -2.544261E+02  1.461485E-13 -3.491589E-13
       204  13  2.317300E+01 -6.466431E+02 -3.649853E+01 -1.924420E+01 -2.413081E-13  1.265098E-13
       204  14  3.407391E+01 -6.226931E+02 -3.622709E+01 -3.998328E+01  6.015577E-14 -1.043755E-13
       204  15  1.142605E+02 -5.107554E+02 -2.172394E+01 -7.173273E+01  1.618073E-14 -4.020552E-13
       204  16 -5.694777E+01 -1.322256E+03 -1.956875E+02  3.745033E+01  1.503242E-13  1.417282E-13
       204  17 -1.498456E+02 -1.276510E+03 -2.381841E+02  1.070844E+02 -2.505403E-13 -4.316763E-14
       204  18 -1.164610E+02 -9.714201E+02 -2.068263E+02  1.516319E+02 -2.401011E-13 -2.781735E-13
       204  19 -6.357992E+01 -3.527638E+02 -5.376051E+01 -4.572184E+01  7.822681E+01  8.251147E+00
       204  20  3.425637E+01 -3.892218E+02 -3.619525E+01 -1.475531E+02  7.867317E+01  3.477036E+01
       204  21  1.833622E+02 -4.145289E+02 -2.397122E+01 -2.544261E+02  6.629105E+01  5.776290E+01
       204  22  2.317300E+01 -6.466431E+02 -3.649853E+01 -1.924420E+01  6.732681E+01  4.391243E+00
       204  23  3.407391E+01 -6.226931E+02 -3.622709E+01 -3.998328E+01  5.883417E+01  4.137244E+01
       204  24  1.142605E+02 -5.107554E+02 -2.172394E+01 -7.173273E+01  3.834106E+01  7.430792E+01
       204  25 -5.694777E+01 -1.322256E+03 -1.956875E+02  3.745033E+01  5.650455E+01  1.126649E+01
       204  26 -1.498456E+02 -1.276510E+03 -2.381841E+02  1.070844E+02  3.925845E+01  5.787982E+01
       204  27 -1.164610E+02 -9.714201E+02 -2.068263E+02  1.516319E+02  1.064356E+01  9.824706E+01
       205   1  1.027033E+03  3.870819E+01 -4.654672E-01 -6.375432E+01  2.494751E+00  2.179042E+00
       205   2  1.021518E+03  4.765168E+01 -3.540580E-01 -6.665043E+01  1.892526E+00  2.371050E+00
       205   3  1.015629E+03  5.648973E+01 -5.955844E-01 -6.942771E+01  1.216346E+00  2.541127E+00
       205   4  1.019798E+03  4.012798E+01 -1.885234E-01 -5.130725E+01  2.455422E+00  2.913556E+00
       205   5  1.015774E+03  4.982966E+01 -1.384251E-02 -5.422072E+01  1.868882E+00  3.172049E+00
       205   6  1.011468E+03  5.944188E+01 -1.827887E-01 -5.697799E+01  1.216253E+00  3.415816E+00
       205   7  1.011556E+03  3.903577E+01 -9.734044E-01 -3.940180E+01  2.418431E+00  3.594011E+00
       205   8  1.008887E+03  4.934375E+01 -8.324055E-01 -4.240255E+01  1.845358E+00  3.910082E+00
       205   9  1.006002E+03  5.955885E+01 -1.039318E+00 -4.522158E+01  1.212959E+00  4.216858E+00
       205  10  1.027033E+03  3.870819E+01 -4.654672E-01 -6.375432E+01  5.010806E-13  1.169188E-13
       205  11  1.021518E+03  4.765168E+01 -3.540580E-01 -6.665043E+01  6.012967E-13  2.213106E-13
       205  12  1.015629E+03  5.648973E+01 -5.955844E-01 -6.942771E+01  2.755943E-13  1.430167E-13
       205  13  1.019798E+03  4.012798E+01 -1.885234E-01 -5.130725E+01 -1.920809E-13 -1.002161E-13
       205  14  1.015774E+03  4.982966E+01 -1.384251E-02 -5.422072E+01  2.155690E-13  1.503242E-13
       205  15  1.011468E+03  5.944188E+01 -1.827887E-01 -5.697799E+01  6.785466E-14  3.820739E-13
       205  16  1.011556E+03  3.903577E+01 -9.734044E-01 -3.940180E+01 -5.010806E-13 -6.420095E-13
       205  17  1.008887E+03  4.934375E+01 -8.324055E-01 -4.240255E+01 -6.681074E-14  8.351343E-15
       205  18  1.006002E+03  5.955885E+01 -1.039318E+00 -4.522158E+01 -1.670269E-14  5.470129E-13
       205  19  1.027033E+03  3.870819E+01 -4.654672E-01 -6.375432E+01 -2.494751E+00 -2.179042E+00
       205  20  1.021518E+03  4.765168E+01 -3.540580E-01 -6.665043E+01 -1.892526E+00 -2.371050E+00
       205  21  1.015629E+03  5.648973E+01 -5.955844E-01 -6.942771E+01 -1.216346E+00 -2.541127E+00
       205  22  1.019798E+03  4.012798E+01 -1.885234E-01 -5.130725E+01 -2.455422E+00 -2.913556E+00
       205  23  1.015774E+03  4.982966E+01 -1.384251E-02 -5.422072E+01 -1.868882E+00 -3.172049E+00
       205  24  1.011468E+03  5.944188E+01 -1.827887E-01 -5.697799E+01 -1.216253E+00 -3.415816E+00
       205  25  1.011556E+03  3.903577E+01 -9.734044E-01 -3.940180E+01 -2.418431E+00 -3.594011E+00
       205  26  1.008887E+03  4.934375E+01 -8.324055E-01 -4.240255E+01 -1.845358E+00 -3.910082E+00
       205  27  1.006002E+03  5.955885E+01 -1.039318E+00 -4.522158E+01 -1.212959E+00 -4.216858E+00
       206   1  1.012842E+03  6.214355E+01 -5.005475E-01 -6.981844E+01  7.995445E-01  2.729227E+00
       206   2  1.008936E+03  7.267791E+01 -5.375649E-02 -6.941371E+01  7.244579E-02  2.992222E+00
       206   3  1.004365E+03  8.281080E+01 -1.971339E-01 -6.908310E+01 -6.776562E-01  3.248397E+00
       206   4  1.009294E+03  6.546605E+01 -1.709596E-01 -5.784022E+01  8.022535E-01  3.620108E+00
       206   5  1.006376E+03  7.705216E+01  2.502865E-01 -5.761748E+01  5.394941E-02  3.873570E+00
       206   6  1.002925E+03  8.831326E+01  1.630310E-01 -5.744025E+01 -7.205013E-01  4.121204E+00
       206   7  1.005087E+03  6.743286E+01 -4.881870E-01 -4.620033E+01  8.031381E-01  4.485679E+00
       206   8  1.003042E+03  7.996898E+01 -1.999246E-01 -4.621282E+01  3.269111E-02  4.732758E+00
       206   9  1.000567E+03  9.223822E+01 -3.521306E-01 -4.625273E+01 -7.667708E-01  4.975287E+00
       206  10  1.012842E+03  6.214355E+01 -5.005475E-01 -6.981844E+01  2.004322E-13  2.380133E-13
       206  11  1.008936E+03  7.267791E+01 -5.375649E-02 -6.941371E+01  6.347020E-13  8.768910E-14
       206  12  1.004365E+03  8.281080E+01 -1.971339E-01 -6.908310E+01  4.593238E-13  1.571096E-13
       206  13  1.009294E+03  6.546605E+01 -1.709596E-01 -5.784022E+01  2.922970E-13 -1.670269E-14
       206  14  1.006376E+03  7.705216E+01  2.502865E-01 -5.761748E+01 -3.904253E-13 -5.010806E-14
       206  15  1.002925E+03  8.831326E+01  1.630310E-01 -5.744025E+01  4.467968E-13 -3.758104E-14
       206  16  1.005087E+03  6.743286E+01 -4.881870E-01 -4.620033E+01 -6.012967E-13 -2.061738E-13
       206  17  1.003042E+03  7.996898E+01 -1.999246E-01 -4.621282E+01  1.336215E-13 -5.845940E-14
       206  18  1.000567E+03  9.223822E+01 -3.521306E-01 -4.625273E+01 -3.591077E-13  6.263507E-15
       206  19  1.012842E+03  6.214355E+01 -5.005475E-01 -6.981844E+01 -7.995445E-01 -2.729227E+00
       206  20  1.008936E+03  7.267791E+01 -5.375649E-02 -6.941371E+01 -7.244579E-02 -2.992222E+00
       206  21  1.004365E+03  8.281080E+01 -1.971339E-01 -6.908310E+01  6.776562E-01 -3.248397E+00
       206  22  1.009294E+03  6.546605E+01 -1.709596E-01 -5.784022E+01 -8.022535E-01 -3.620108E+00
       206  23  1.006376E+03  7.705216E+01  2.502865E-01 -5.761748E+01 -5.394941E-02 -3.873570E+00
       206  24  1.002925E+03  8.831326E+01  1.630310E-01 -5.744025E+01  7.205013E-01 -4.121204E+00
       206  25  1.005087E+03  6.743286E+01 -4.881870E-01 -4.620033E+01 -8.031381E-01 -4.485679E+00
       206  26  1.003042E+03  7.996898E+01 -1.999246E-01 -4.621282E+01 -3.269111E-02 -4.732758E+00
       206  27  1.000567E+03  9.223822E+01 -3.521306E-01 -4.625273E+01  7.667708E-01 -4.975287E+00
       207   1  1.002604E+03  6.746656E+01 -1.048426E+00 -3.879668E+01  7.159294E-01  4.972694E+00
       207   2  1.001919E+03  8.188084E+01 -2.042853E-01 -3.819474E+01 -3.785985E-02  5.215211E+00
       207   3  1.000357E+03  9.556363E+01 -5.889951E-02 -3.843431E+01 -7.978913E-01  5.456971E+00
       207   4  1.001485E+03  6.753551E+01 -1.194354E+00 -2.262773E+01  5.337363E-01  5.647373E+00
       207   5  1.001295E+03  8.495601E+01  6.355110E-02 -2.220637E+01  1.686053E-03  5.883439E+00
       207   6  1.000255E+03  1.018171E+02  7.145694E-01 -2.252013E+01 -5.125437E-01  6.120666E+00
       207   7  9.997125E+02  6.614450E+01 -2.134434E+00 -6.370106E+00  3.351981E-01  6.094266E+00
       207   8  1.000006E+03  8.638715E+01 -3.902982E-01 -6.140555E+00  1.022626E-02  6.302898E+00
       207   9  9.994655E+02  1.061969E+02  8.219349E-01 -6.552586E+00 -2.771135E-01  6.512057E+00
       207  10  1.002604E+03  6.746656E+01 -1.048426E+00 -3.879668E+01  0.000000E+00 -2.839457E-13
       207  11  1.001919E+03  8.188084E+01 -2.042853E-01 -3.819474E+01 -3.340537E-14 -3.549321E-14
       207  12  1.000357E+03  9.556363E+01 -5.889951E-02 -3.843431E+01  6.263507E-13  2.108714E-13
       207  13  1.001485E+03  6.753551E+01 -1.194354E+00 -2.262773E+01  3.006483E-13 -5.762426E-13
       207  14  1.001295E+03  8.495601E+01  6.355110E-02 -2.220637E+01 -1.461485E-13 -1.920809E-13
       207  15  1.000255E+03  1.018171E+02  7.145694E-01 -2.252013E+01  2.755943E-13  1.492803E-13
       207  16  9.997125E+02  6.614450E+01 -2.134434E+00 -6.370106E+00  3.340537E-13 -5.303103E-13
       207  17  1.000006E+03  8.638715E+01 -3.902982E-01 -6.140555E+00  4.342698E-13 -6.472291E-14
       207  18  9.994655E+02  1.061969E+02  8.219349E-01 -6.552586E+00 -3.758104E-13  3.758104E-13
       207  19  1.002604E+03  6.746656E+01 -1.048426E+00 -3.879668E+01 -7.159294E-01 -4.972694E+00
       207  20  1.001919E+03  8.188084E+01 -2.042853E-01 -3.819474E+01  3.785985E-02 -5.215211E+00
       207  21  1.000357E+03  9.556363E+01 -5.889951E-02 -3.843431E+01  7.978913E-01 -5.456971E+00
       207  22  1.001485E+03  6.753551E+01 -1.194354E+00 -2.262773E+01 -5.337363E-01 -5.647373E+00
       207  23  1.001295E+03  8.495601E+01  6.355110E-02 -2.220637E+01 -1.686053E-03 -5.883439E+00
       207  24  1.000255E+03  1.018171E+02  7.145694E-01 -2.252013E+01  5.125437E-01 -6.120666E+00
       207  25  9.997125E+02  6.614450E+01 -2.134434E+00 -6.370106E+00 -3.351981E-01 -6.094266E+00
       207  26  1.000006E+03  8.638715E+01 -3.902982E-01 -6.140555E+00 -1.022626E-02 -6.302898E+00
       207  27  9.994655E+02  1.061969E+02  8.219349E-01 -6.552586E+00  2.771135E-01 -6.512057E+00
       208   1  1.006458E+03  3.722963E+01 -1.872945E+00 -3.211407E+01  2.313984E+00  3.945395E+00
       208   2  1.005216E+03  4.882019E+01 -1.283708E+00 -3.482512E+01  1.780264E+00  4.314260E+00
       208   3  1.003320E+03  5.990431E+01 -1.323449E+00 -3.793634E+01  1.137038E+00  4.669836E+00
       208   4  1.004262E+03  3.275911E+01 -2.180026E+00 -1.843873E+01  1.657934E+00  4.343799E+00
       208   5  1.003758E+03  4.663673E+01 -1.223029E+00 -2.016673E+01  1.287133E+00  4.828062E+00
       208   6  1.002557E+03  6.006303E+01 -9.565220E-01 -2.210974E+01  8.333374E-01  5.306917E+00
       208   7  9.992718E+02  2.213469E+01 -5.670818E+00 -4.758947E+00  1.008702E+00  4.584729E+00
       208   8  9.993035E+02  3.774444E+01 -4.441722E+00 -5.556550E+00  7.943675E-01  5.158117E+00
       208   9  9.985677E+02  5.288761E+01 -3.993718E+00 -6.406761E+00  5.203956E-01  5.730663E+00
       208  10  1.006458E+03  3.722963E+01 -1.872945E+00 -3.211407E+01 -2.004322E-13 -6.597561E-13
       208  11  1.005216E+03  4.882019E+01 -1.283708E+00 -3.482512E+01 -2.004322E-13 -1.252701E-14
       208  12  1.003320E+03  5.990431E+01 -1.323449E+00 -3.793634E+01 -2.254863E-13  6.634098E-13
       208  13  1.004262E+03  3.275911E+01 -2.180026E+00 -1.843873E+01  2.860335E-13 -5.344859E-13
       208  14  1.003758E+03  4.663673E+01 -1.223029E+00 -2.016673E+01 -2.462994E-14  8.351343E-15
       208  15  1.002557E+03  6.006303E+01 -9.565220E-01 -2.210974E+01  1.263141E-13  6.096480E-13
       208  16  9.992718E+02  2.213469E+01 -5.670818E+00 -4.758947E+00  2.672430E-13 -5.929453E-13
       208  17  9.993035E+02  3.774444E+01 -4.441722E+00 -5.556550E+00  3.340537E-14  3.340537E-14
       208  18  9.985677E+02  5.288761E+01 -3.993718E+00 -6.406761E+00  4.008645E-13  6.477510E-13
       208  19  1.006458E+03  3.722963E+01 -1.872945E+00 -3.211407E+01 -2.313984E+00 -3.945395E+00
       208  20  1.005216E+03  4.882019E+01 -1.283708E+00 -3.482512E+01 -1.780264E+00 -4.314260E+00
       208  21  1.003320E+03  5.990431E+01 -1.323449E+00 -3.793634E+01 -1.137038E+00 -4.669836E+00
       208  22  1.004262E+03  3.275911E+01 -2.180026E+00 -1.843873E+01 -1.657934E+00 -4.343799E+00
       208  23  1.003758E+03  4.663673E+01 -1.223029E+00 -2.016673E+01 -1.287133E+00 -4.828062E+00
       208  24  1.002557E+03  6.006303E+01 -9.565220E-01 -2.210974E+01 -8.333374E-01 -5.306917E+00
       208  25  9.992718E+02  2.213469E+01 -5.670818E+00 -4.758947E+00 -1.008702E+00 -4.584729E+00
       208  26  9.993035E+02  3.774444E+01 -4.441722E+00 -5.556550E+00 -7.943675E-01 -5.158117E+00
       208  27  9.985677E+02  5.288761E+01 -3.993718E+00 -6.406761E+00 -5.203956E-01 -5.730663E+00
       209   1  9.724794E+02  1.118332E+02 -1.218474E-02 -9.406110E+01 -4.415773E+00  7.595830E-02
       209   2  9.788668E+02  1.222984E+02 -1.855823E-01 -7.685277E+01 -4.847735E+00  1.397157E+00
       209   3  9.862815E+02  1.375413E+02  4.992627E-01 -6.004174E+01 -5.292869E+00  2.673362E+00
       209   4  9.830402E+02  1.086714E+02  5.381073E-01 -9.153381E+01 -3.728093E+00  7.574544E-01
       209   5  9.869040E+02  1.179410E+02  2.382316E-01 -7.547304E+01 -4.113521E+00  2.019272E+00
       209   6  9.920816E+02  1.325659E+02  1.211213E+00 -5.984030E+01 -4.506107E+00  3.255631E+00
       209   7  9.910429E+02  1.033428E+02  3.515385E-01 -8.792091E+01 -3.020324E+00  1.421354E+00
       209   8  9.921893E+02  1.114397E+02 -1.813819E-01 -7.299852E+01 -3.345174E+00  2.619274E+00
       209   9  9.949872E+02  1.255782E+02  1.021140E+00 -5.854227E+01 -3.670375E+00  3.815891E+00
       209  10  9.724794E+02  1.118332E+02 -1.218474E-02 -9.406110E+01 -3.841618E-13 -2.693308E-13
       209  11  9.788668E+02  1.222984E+02 -1.855823E-01 -7.685277E+01  4.342698E-13 -2.380133E-13
       209  12  9.862815E+02  1.375413E+02  4.992627E-01 -6.004174E+01  1.148310E-13 -2.996044E-13
       209  13  9.830402E+02  1.086714E+02  5.381073E-01 -9.153381E+01  4.342698E-13  1.085675E-13
       209  14  9.869040E+02  1.179410E+02  2.382316E-01 -7.547304E+01  5.845940E-14  6.681074E-14
       209  15  9.920816E+02  1.325659E+02  1.211213E+00 -5.984030E+01  5.511886E-13 -3.340537E-14
       209  16  9.910429E+02  1.033428E+02  3.515385E-01 -8.792091E+01 -1.670269E-14  4.614117E-13
       209  17  9.921893E+02  1.114397E+02 -1.813819E-01 -7.299852E+01  6.347020E-13  5.344859E-13
       209  18  9.949872E+02  1.255782E+02  1.021140E+00 -5.854227E+01  2.421889E-13  2.701137E-13
       209  19  9.724794E+02  1.118332E+02 -1.218474E-02 -9.406110E+01  4.415773E+00 -7.595830E-02
       209  20  9.788668E+02  1.222984E+02 -1.855823E-01 -7.685277E+01  4.847735E+00 -1.397157E+00
       209  21  9.862815E+02  1.375413E+02  4.992627E-01 -6.004174E+01  5.292869E+00 -2.673362E+00
       209  22  9.830402E+02  1.086714E+02  5.381073E-01 -9.153381E+01  3.728093E+00 -7.574544E-01
       209  23  9.869040E+02  1.179410E+02  2.382316E-01 -7.547304E+01  4.113521E+00 -2.019272E+00
       209  24  9.920816E+02  1.325659E+02  1.211213E+00 -5.984030E+01  4.506107E+00 -3.255631E+00
       209  25  9.910429E+02  1.033428E+02  3.515385E-01 -8.792091E+01  3.020324E+00 -1.421354E+00
       209  26  9.921893E+02  1.114397E+02 -1.813819E-01 -7.299852E+01  3.345174E+00 -2.619274E+00
       209  27  9.949872E+02  1.255782E+02  1.021140E+00 -5.854227E+01  3.670375E+00 -3.815891E+00
       210   1  9.920365E+02  1.490658E+02  1.552568E+00 -4.962977E+01 -5.736238E+00  3.566186E+00
       210   2  9.942990E+02  1.724704E+02  2.617744E+00 -2.903738E+01 -4.261332E+00  4.301869E+00
       210   3  1.001194E+03  2.062037E+02  9.529995E+00 -7.925143E+00 -2.815895E+00  4.936880E+00
       210   4  9.949979E+02  1.412919E+02  1.375644E+00 -4.932631E+01 -4.796503E+00  4.080334E+00
       210   5  9.957214E+02  1.602281E+02  1.959882E+00 -2.909430E+01 -3.504468E+00  4.830690E+00
       210   6  1.001516E+03  1.905279E+02  8.537712E+00 -8.179180E+00 -2.254826E+00  5.430225E+00
       210   7  9.974771E+02  1.337268E+02  1.646723E+00 -4.917661E+01 -3.798382E+00  4.574318E+00
       210   8  9.967277E+02  1.479552E+02  1.616172E+00 -2.911597E+01 -2.725453E+00  5.355452E+00
       210   9  1.001614E+03  1.748498E+02  7.844077E+00 -8.181020E+00 -1.709221E+00  5.924173E+00
       210  10  9.920365E+02  1.490658E+02  1.552568E+00 -4.962977E+01  4.175671E-13 -2.025201E-13
       210  11  9.942990E+02  1.724704E+02  2.617744E+00 -2.903738E+01  9.186477E-14  1.346654E-13
       210  12  1.001194E+03  2.062037E+02  9.529995E+00 -7.925143E+00  7.516208E-14  7.513599E-13
       210  13  9.949979E+02  1.412919E+02  1.375644E+00 -4.932631E+01  4.676752E-13 -1.879052E-13
       210  14  9.957214E+02  1.602281E+02  1.959882E+00 -2.909430E+01  1.169188E-13 -9.186477E-14
       210  15  1.001516E+03  1.905279E+02  8.537712E+00 -8.179180E+00 -1.670269E-13 -1.722464E-14
       210  16  9.974771E+02  1.337268E+02  1.646723E+00 -4.917661E+01  6.179994E-13 -1.336215E-13
       210  17  9.967277E+02  1.479552E+02  1.616172E+00 -2.911597E+01  0.000000E+00 -3.632834E-13
       210  18  1.001614E+03  1.748498E+02  7.844077E+00 -8.181020E+00 -5.595400E-13 -6.848101E-13
       210  19  9.920365E+02  1.490658E+02  1.552568E+00 -4.962977E+01  5.736238E+00 -3.566186E+00
       210  20  9.942990E+02  1.724704E+02  2.617744E+00 -2.903738E+01  4.261332E+00 -4.301869E+00
       210  21  1.001194E+03  2.062037E+02  9.529995E+00 -7.925143E+00  2.815895E+00 -4.936880E+00
       210  22  9.949979E+02  1.412919E+02  1.375644E+00 -4.932631E+01  4.796503E+00 -4.080334E+00
       210  23  9.957214E+02  1.602281E+02  1.959882E+00 -2.909430E+01  3.504468E+00 -4.830690E+00
       210  24  1.001516E+03  1.905279E+02  8.537712E+00 -8.179180E+00  2.254826E+00 -5.430225E+00
       210  25  9.974771E+02  1.337268E+02  1.646723E+00 -4.917661E+01  3.798382E+00 -4.574318E+00
       210  26  9.967277E+02  1.479552E+02  1.616172E+00 -2.911597E+01  2.725453E+00 -5.355452E+00
       210  27  1.001614E+03  1.748498E+02  7.844077E+00 -8.181020E+00  1.709221E+00 -5.924173E+00
       211   1  9.988283E+02  1.281193E+02  1.658174E+00 -4.761516E+01 -3.207929E+00  4.829260E+00
       211   2  9.982543E+02  1.420289E+02  2.263643E+00 -2.806434E+01 -2.266299E+00  5.592074E+00
       211   3  1.000129E+03  1.611037E+02  5.774138E+00 -8.119875E+00 -1.357048E+00  6.228984E+00
       211   4  1.000231E+03  1.164642E+02  1.152653E+00 -4.350636E+01 -2.238613E+00  5.185666E+00
       211   5  9.991239E+02  1.263006E+02  1.419865E+00 -2.553054E+01 -1.519770E+00  5.866941E+00
       211   6  1.000443E+03  1.411395E+02  4.326662E+00 -7.020877E+00 -8.426851E-01  6.371985E+00
       211   7  1.000737E+03  1.050090E+02  8.751720E-01 -3.970725E+01 -1.274872E+00  5.544013E+00
       211   8  9.995216E+02  1.107192E+02  7.549388E-01 -2.344961E+01 -8.330105E-01  6.152764E+00
       211   9  1.000710E+03  1.212546E+02  3.004963E+00 -6.468314E+00 -4.421720E-01  6.519426E+00
       211  10  9.988283E+02  1.281193E+02  1.658174E+00 -4.761516E+01  4.342698E-13 -1.336215E-13
       211  11  9.982543E+02  1.420289E+02  2.263643E+00 -2.806434E+01  4.833340E-13  2.025201E-13
       211  12  1.000129E+03  1.611037E+02  5.774138E+00 -8.119875E+00  3.758104E-14  3.752885E-13
       211  13  1.000231E+03  1.164642E+02  1.152653E+00 -4.350636E+01  7.349182E-13 -1.712025E-13
       211  14  9.991239E+02  1.263006E+02  1.419865E+00 -2.553054E+01  6.347020E-13 -4.175671E-15
       211  15  1.000443E+03  1.411395E+02  4.326662E+00 -7.020877E+00  4.008645E-13  1.826856E-14
       211  16  1.000737E+03  1.050090E+02  8.751720E-01 -3.970725E+01  2.839457E-13 -6.472291E-14
       211  17  9.995216E+02  1.107192E+02  7.549388E-01 -2.344961E+01 -2.338376E-13 -1.983444E-13
       211  18  1.000710E+03  1.212546E+02  3.004963E+00 -6.468314E+00 -6.179994E-13 -3.927741E-13
       211  19  9.988283E+02  1.281193E+02  1.658174E+00 -4.761516E+01  3.207929E+00 -4.829260E+00
       211  20  9.982543E+02  1.420289E+02  2.263643E+00 -2.806434E+01  2.266299E+00 -5.592074E+00
       211  21  1.000129E+03  1.611037E+02  5.774138E+00 -8.119875E+00  1.357048E+00 -6.228984E+00
       211  22  1.000231E+03  1.164642E+02  1.152653E+00 -4.350636E+01  2.238613E+00 -5.185666E+00
       211  23  9.991239E+02  1.263006E+02  1.419865E+00 -2.553054E+01  1.519770E+00 -5.866941E+00
       211  24  1.000443E+03  1.411395E+02  4.326662E+00 -7.020877E+00  8.426851E-01 -6.371985E+00
       211  25  1.000737E+03  1.050090E+02  8.751720E-01 -3.970725E+01  1.274872E+00 -5.544013E+00
       211  26  9.995216E+02  1.107192E+02  7.549388E-01 -2.344961E+01  8.330105E-01 -6.152764E+00
       211  27  1.000710E+03  1.212546E+02  3.004963E+00 -6.468314E+00  4.421720E-01 -6.519426E+00
       212   1  9.941664E+02  1.002897E+02  1.046825E-01 -8.559551E+01 -2.595249E+00  1.771366E+00
       212   2  9.946319E+02  1.083930E+02 -1.070198E-01 -7.114631E+01 -2.873048E+00  2.949079E+00
       212   3  9.960381E+02  1.196832E+02  4.360499E-01 -5.679387E+01 -3.149066E+00  4.133719E+00
       212   4  1.000018E+03  9.528269E+01  4.570030E-01 -7.857340E+01 -1.831806E+00  2.477166E+00
       212   5  9.992401E+02  1.015212E+02  1.446824E-01 -6.554479E+01 -2.040823E+00  3.501323E+00
       212   6  9.995773E+02  1.110890E+02  8.326742E-01 -5.256834E+01 -2.239320E+00  4.569863E+00
       212   7  1.003351E+03  8.846106E+01  2.379328E-01 -7.055406E+01 -1.090926E+00  3.202730E+00
       212   8  1.001500E+03  9.309972E+01 -1.512926E-01 -5.911059E+01 -1.197582E+00  4.046447E+00
       212   9  1.000954E+03  1.012090E+02  7.094223E-01 -4.765081E+01 -1.284114E+00  4.985595E+00
       212  10  9.941664E+02  1.002897E+02  1.046825E-01 -8.559551E+01  8.351343E-15  1.336215E-13
       212  11  9.946319E+02  1.083930E+02 -1.070198E-01 -7.114631E+01  8.351343E-15  2.401011E-13
       212  12  9.960381E+02  1.196832E+02  4.360499E-01 -5.679387E+01 -1.920809E-13  5.167393E-14
       212  13  1.000018E+03  9.528269E+01  4.570030E-01 -7.857340E+01  3.841618E-13  0.000000E+00
       212  14  9.992401E+02  1.015212E+02  1.446824E-01 -6.554479E+01  1.503242E-13  1.837295E-13
       212  15  9.995773E+02  1.110890E+02  8.326742E-01 -5.256834E+01 -6.179994E-13  1.357093E-13
       212  16  1.003351E+03  8.846106E+01  2.379328E-01 -7.055406E+01  1.336215E-13 -2.797700E-13
       212  17  1.001500E+03  9.309972E+01 -1.512926E-01 -5.911059E+01  4.509725E-13  1.210945E-13
       212  18  1.000954E+03  1.012090E+02  7.094223E-01 -4.765081E+01 -5.261346E-13  2.427109E-13
       212  19  9.941664E+02  1.002897E+02  1.046825E-01 -8.559551E+01  2.595249E+00 -1.771366E+00
       212  20  9.946319E+02  1.083930E+02 -1.070198E-01 -7.114631E+01  2.873048E+00 -2.949079E+00
       212  21  9.960381E+02  1.196832E+02  4.360499E-01 -5.679387E+01  3.149066E+00 -4.133719E+00
       212  22  1.000018E+03  9.528269E+01  4.570030E-01 -7.857340E+01  1.831806E+00 -2.477166E+00
       212  23  9.992401E+02  1.015212E+02  1.446824E-01 -6.554479E+01  2.040823E+00 -3.501323E+00
       212  24  9.995773E+02  1.110890E+02  8.326742E-01 -5.256834E+01  2.239320E+00 -4.569863E+00
       212  25  1.003351E+03  8.846106E+01  2.379328E-01 -7.055406E+01  1.090926E+00 -3.202730E+00
       212  26  1.001500E+03  9.309972E+01 -1.512926E-01 -5.911059E+01  1.197582E+00 -4.046447E+00
       212  27  1.000954E+03  1.012090E+02  7.094223E-01 -4.765081E+01  1.284114E+00 -4.985595E+00
       213   1  7.226062E+02  1.339181E+02  3.434473E+00 -8.218509E+00 -1.537531E+01  1.079316E-01
       213   2  6.929541E+02  1.117200E+02 -2.609407E+00 -5.969435E+01 -1.684155E+01 -3.431795E+00
       213   3  6.865545E+02  1.032677E+02  2.782926E-01 -1.042822E+02 -1.755329E+01 -6.396074E+00
       213   4  6.643750E+02  1.235614E+02  1.626610E+00 -1.081462E+01 -1.877647E+01 -1.430833E-01
       213   5  6.406161E+02  1.001648E+02 -2.704462E+00 -6.692844E+01 -2.027806E+01 -4.638308E+00
       213   6  6.403454E+02  9.019727E+01  9.091311E-01 -1.163135E+02 -2.104306E+01 -8.632508E+00
       213   7  6.056563E+02  1.092016E+02  2.209503E+00 -1.433339E+01 -2.217718E+01 -9.828235E-02
       213   8  5.873174E+02  8.371295E+01 -1.028703E+00 -7.536184E+01 -2.371225E+01 -5.530043E+00
       213   9  5.926360E+02  7.121399E+01  2.634134E+00 -1.298611E+02 -2.452810E+01 -1.053114E+01
       213  10  7.226062E+02  1.339181E+02  3.434473E+00 -8.218509E+00  1.670269E-13  2.501814E-13
       213  11  6.929541E+02  1.117200E+02 -2.609407E+00 -5.969435E+01  1.503242E-13  3.379684E-14
       213  12  6.865545E+02  1.032677E+02  2.782926E-01 -1.042822E+02 -2.296619E-13 -2.175040E-13
       213  13  6.643750E+02  1.235614E+02  1.626610E+00 -1.081462E+01  3.267137E-14  1.668964E-13
       213  14  6.406161E+02  1.001648E+02 -2.704462E+00 -6.692844E+01  1.910370E-13  9.943317E-14
       213  15  6.403454E+02  9.019727E+01  9.091311E-01 -1.163135E+02  3.392733E-15  5.047506E-14
       213  16  6.056563E+02  1.092016E+02  2.209503E+00 -1.433339E+01  2.004322E-13  1.644171E-14
       213  17  5.873174E+02  8.371295E+01 -1.028703E+00 -7.536184E+01  1.169188E-13  1.212902E-13
       213  18  5.926360E+02  7.121399E+01  2.634134E+00 -1.298611E+02  2.296619E-13  1.355646E-13
       213  19  7.226062E+02  1.339181E+02  3.434473E+00 -8.218509E+00  1.537531E+01 -1.079316E-01
       213  20  6.929541E+02  1.117200E+02 -2.609407E+00 -5.969435E+01  1.684155E+01  3.431795E+00
       213  21  6.865545E+02  1.032677E+02  2.782926E-01 -1.042822E+02  1.755329E+01  6.396074E+00
       213  22  6.643750E+02  1.235614E+02  1.626610E+00 -1.081462E+01  1.877647E+01  1.430833E-01
       213  23  6.406161E+02  1.001648E+02 -2.704462E+00 -6.692844E+01  2.027806E+01  4.638308E+00
       213  24  6.403454E+02  9.019727E+01  9.091311E-01 -1.163135E+02  2.104306E+01  8.632508E+00
       213  25  6.056563E+02  1.092016E+02  2.209503E+00 -1.433339E+01  2.217718E+01  9.828235E-02
       213  26  5.873174E+02  8.371295E+01 -1.028703E+00 -7.536184E+01  2.371225E+01  5.530043E+00
       213  27  5.926360E+02  7.121399E+01  2.634134E+00 -1.298611E+02  2.452810E+01  1.053114E+01
       214   1  6.939763E+02  9.949901E+01  4.818712E+00 -1.305257E+02 -1.778033E+01 -7.774667E+00
       214   2  7.053789E+02  4.880257E+01 -4.239530E+00 -1.833908E+02 -1.781065E+01 -1.327132E+01
       214   3  7.537720E+02  2.578086E+01  1.201412E+00 -2.229501E+02 -1.655795E+01 -1.778944E+01
       214   4  6.514025E+02  8.073686E+01  4.126241E+00 -1.470287E+02 -2.109288E+01 -1.004120E+01
       214   5  6.773737E+02  2.791973E+01 -3.017261E+00 -2.003739E+02 -2.040932E+01 -1.616870E+01
       214   6  7.428098E+02  3.020138E+00  4.112964E+00 -2.400357E+02 -1.832532E+01 -2.134359E+01
       214   7  6.052526E+02  5.183267E+01  2.323620E+00 -1.677682E+02 -2.441318E+01 -1.272675E+01
       214   8  6.443961E+02 -5.309177E+00 -4.850377E+00 -2.224891E+02 -2.302210E+01 -1.959060E+01
       214   9  7.252470E+02 -3.463527E+01  1.850930E+00 -2.633289E+02 -2.011666E+01 -2.554759E+01
       214  10  6.939763E+02  9.949901E+01  4.818712E+00 -1.305257E+02 -4.008645E-13 -2.181788E-13
       214  11  7.053789E+02  4.880257E+01 -4.239530E+00 -1.833908E+02 -5.010806E-14 -2.040859E-13
       214  12  7.537720E+02  2.578086E+01  1.201412E+00 -2.229501E+02  5.010806E-14 -6.367899E-14
       214  13  6.514025E+02  8.073686E+01  4.126241E+00 -1.470287E+02 -3.156547E-13 -1.670269E-14
       214  14  6.773737E+02  2.791973E+01 -3.017261E+00 -2.003739E+02 -5.287444E-13 -1.231823E-13
       214  15  7.428098E+02  3.020138E+00  4.112964E+00 -2.400357E+02 -9.369163E-14 -9.630142E-14
       214  16  6.052526E+02  5.183267E+01  2.323620E+00 -1.677682E+02  1.336215E-13  2.755943E-13
       214  17  6.443961E+02 -5.309177E+00 -4.850377E+00 -2.224891E+02 -2.004322E-13  2.087836E-14
       214  18  7.252470E+02 -3.463527E+01  1.850930E+00 -2.633289E+02  9.604044E-14 -2.003017E-13
       214  19  6.939763E+02  9.949901E+01  4.818712E+00 -1.305257E+02  1.778033E+01  7.774667E+00
       214  20  7.053789E+02  4.880257E+01 -4.239530E+00 -1.833908E+02  1.781065E+01  1.327132E+01
       214  21  7.537720E+02  2.578086E+01  1.201412E+00 -2.229501E+02  1.655795E+01  1.778944E+01
       214  22  6.514025E+02  8.073686E+01  4.126241E+00 -1.470287E+02  2.109288E+01  1.004120E+01
       214  23  6.773737E+02  2.791973E+01 -3.017261E+00 -2.003739E+02  2.040932E+01  1.616870E+01
       214  24  7.428098E+02  3.020138E+00  4.112964E+00 -2.400357E+02  1.832532E+01  2.134359E+01
       214  25  6.052526E+02  5.183267E+01  2.323620E+00 -1.677682E+02  2.441318E+01  1.272675E+01
       214  26  6.443961E+02 -5.309177E+00 -4.850377E+00 -2.224891E+02  2.302210E+01  1.959060E+01
       214  27  7.252470E+02 -3.463527E+01  1.850930E+00 -2.633289E+02  2.011666E+01  2.554759E+01
       215   1  5.804465E+02  3.169527E+01  2.210197E+00 -1.811839E+02 -2.633507E+01 -1.458684E+01
       215   2  6.320870E+02 -2.387982E+01 -2.777702E+00 -2.342643E+02 -2.407720E+01 -2.160041E+01
       215   3  7.154313E+02 -5.747374E+01  8.193171E-01 -2.756660E+02 -2.045161E+01 -2.785904E+01
       215   4  5.285845E+02 -8.085395E+00  9.353773E-01 -2.044109E+02 -3.136526E+01 -1.975606E+01
       215   5  6.024910E+02 -6.233592E+01 -1.866410E+00 -2.541637E+02 -2.746892E+01 -2.700832E+01
       215   6  7.124493E+02 -9.340364E+01  4.770166E+00 -2.913790E+02 -2.191377E+01 -3.347729E+01
       215   7  4.703653E+02 -6.542086E+01 -2.978762E+00 -2.339596E+02 -3.641595E+01 -2.603370E+01
       215   8  5.640586E+02 -1.221914E+02 -7.269756E+00 -2.817005E+02 -3.089724E+01 -3.377604E+01
       215   9  6.977882E+02 -1.551384E+02 -1.546187E+00 -3.163085E+02 -2.343710E+01 -4.075449E+01
       215  10  5.804465E+02  3.169527E+01  2.210197E+00 -1.811839E+02  4.342698E-13  3.977327E-13
       215  11  6.320870E+02 -2.387982E+01 -2.777702E+00 -2.342643E+02  2.755943E-13  1.769441E-13
       215  12  7.154313E+02 -5.747374E+01  8.193171E-01 -2.756660E+02 -2.922970E-14 -1.631122E-13
       215  13  5.285845E+02 -8.085395E+00  9.353773E-01 -2.044109E+02  4.188720E-14  2.735065E-13
       215  14  6.024910E+02 -6.233592E+01 -1.866410E+00 -2.541637E+02 -3.966888E-14  1.628512E-13
       215  15  7.124493E+02 -9.340364E+01  4.770166E+00 -2.913790E+02  3.392733E-15  7.698894E-14
       215  16  4.703653E+02 -6.542086E+01 -2.978762E+00 -2.339596E+02 -1.837295E-13 -5.428373E-14
       215  17  5.640586E+02 -1.221914E+02 -7.269756E+00 -2.817005E+02  8.351343E-14  6.420095E-14
       215  18  6.977882E+02 -1.551384E+02 -1.546187E+00 -3.163085E+02  7.724992E-14  1.042613E-13
       215  19  5.804465E+02  3.169527E+01  2.210197E+00 -1.811839E+02  2.633507E+01  1.458684E+01
       215  20  6.320870E+02 -2.387982E+01 -2.777702E+00 -2.342643E+02  2.407720E+01  2.160041E+01
       215  21  7.154313E+02 -5.747374E+01  8.193171E-01 -2.756660E+02  2.045161E+01  2.785904E+01
       215  22  5.285845E+02 -8.085395E+00  9.353773E-01 -2.044109E+02  3.136526E+01  1.975606E+01
       215  23  6.024910E+02 -6.233592E+01 -1.866410E+00 -2.541637E+02  2.746892E+01  2.700832E+01
       215  24  7.124493E+02 -9.340364E+01  4.770166E+00 -2.913790E+02  2.191377E+01  3.347729E+01
       215  25  4.703653E+02 -6.542086E+01 -2.978762E+00 -2.339596E+02  3.641595E+01  2.603370E+01
       215  26  5.640586E+02 -1.221914E+02 -7.269756E+00 -2.817005E+02  3.089724E+01  3.377604E+01
       215  27  6.977882E+02 -1.551384E+02 -1.546187E+00 -3.163085E+02  2.343710E+01  4.075449E+01
       216   1  5.717569E+02  9.981318E+01  4.112586E+00 -1.464500E+01 -2.485707E+01  5.749118E-02
       216   2  5.418506E+02  6.520355E+01 -5.197449E+00 -8.328759E+01 -2.693802E+01 -6.580229E+00
       216   3  5.577114E+02  5.389183E+01  1.214112E+00 -1.413191E+02 -2.715181E+01 -1.218744E+01
       216   4  4.889337E+02  6.944510E+01  1.163146E+00 -1.568086E+01 -3.156616E+01 -2.100674E-01
       216   5  4.719762E+02  3.606700E+01 -4.043316E+00 -9.267412E+01 -3.313317E+01 -8.746079E+00
       216   6  5.012016E+02  2.547530E+01  4.296678E+00 -1.592950E+02 -3.278335E+01 -1.637704E+01
       216   7  4.032574E+02  2.677606E+01  1.041221E+00 -1.956413E+01 -3.827533E+01 -5.572807E-01
       216   8  3.976613E+02 -8.157531E+00 -2.387514E+00 -1.054492E+02 -3.932931E+01 -1.104543E+01
       216   9  4.384875E+02 -2.116042E+01  5.398825E+00 -1.812792E+02 -3.841769E+01 -2.076028E+01
       216  10  5.717569E+02  9.981318E+01  4.112586E+00 -1.464500E+01 -3.340537E-13 -2.002365E-13
       216  11  5.418506E+02  6.520355E+01 -5.197449E+00 -8.328759E+01  2.672430E-13  5.914447E-14
       216  12  5.577114E+02  5.389183E+01  1.214112E+00 -1.413191E+02  2.797700E-13  1.846470E-13
       216  13  4.889337E+02  6.944510E+01  1.163146E+00 -1.568086E+01  6.697385E-14 -4.755046E-13
       216  14  4.719762E+02  3.606700E+01 -4.043316E+00 -9.267412E+01  2.283570E-14 -8.351343E-14
       216  15  5.012016E+02  2.547530E+01  4.296678E+00 -1.592950E+02  4.371406E-14  2.179178E-13
       216  16  4.032574E+02  2.677606E+01  1.041221E+00 -1.956413E+01  1.837295E-13 -5.517758E-13
       216  17  3.976613E+02 -8.157531E+00 -2.387514E+00 -1.054492E+02 -1.002161E-13 -2.410798E-14
       216  18  4.384875E+02 -2.116042E+01  5.398825E+00 -1.812792E+02 -1.983444E-13  4.163948E-13
       216  19  5.717569E+02  9.981318E+01  4.112586E+00 -1.464500E+01  2.485707E+01 -5.749118E-02
       216  20  5.418506E+02  6.520355E+01 -5.197449E+00 -8.328759E+01  2.693802E+01  6.580229E+00
       216  21  5.577114E+02  5.389183E+01  1.214112E+00 -1.413191E+02  2.715181E+01  1.218744E+01
       216  22  4.889337E+02  6.944510E+01  1.163146E+00 -1.568086E+01  3.156616E+01  2.100674E-01
       216  23  4.719762E+02  3.606700E+01 -4.043316E+00 -9.267412E+01  3.313317E+01  8.746079E+00
       216  24  5.012016E+02  2.547530E+01  4.296678E+00 -1.592950E+02  3.278335E+01  1.637704E+01
       216  25  4.032574E+02  2.677606E+01  1.041221E+00 -1.956413E+01  3.827533E+01  5.572807E-01
       216  26  3.976613E+02 -8.157531E+00 -2.387514E+00 -1.054492E+02  3.932931E+01  1.104543E+01
       216  27  4.384875E+02 -2.116042E+01  5.398825E+00 -1.812792E+02  3.841769E+01  2.076028E+01
       217   1  9.658190E+02  1.020091E+02  3.350706E-01  1.130068E+02 -4.252716E+00  1.291740E+00
       217   2  9.498280E+02  9.929846E+01  6.293554E-01  1.273230E+02 -4.828132E+00  3.090464E+00
       217   3  9.328994E+02  9.272681E+01  3.483373E-01  1.440678E+02 -5.404581E+00  4.872024E+00
       217   4  9.791980E+02  8.455367E+01 -8.552323E-01  1.260042E+02 -2.948664E+00  2.355717E+00
       217   5  9.694798E+02  8.185345E+01 -4.223608E-01  1.405735E+02 -3.502582E+00  4.310517E+00
       217   6  9.586777E+02  7.484058E+01 -7.894895E-01  1.578136E+02 -4.057429E+00  6.250349E+00
       217   7  1.000794E+03  7.153061E+01  7.907415E-02  1.367699E+02 -1.453888E+00  3.321302E+00
       217   8  9.980615E+02  6.910858E+01  8.537550E-01  1.515109E+02 -1.983837E+00  5.441561E+00
       217   9  9.940931E+02  6.188627E+01  5.911511E-01  1.691858E+02 -2.514585E+00  7.549300E+00
       217  10  9.658190E+02  1.020091E+02  3.350706E-01  1.130068E+02  1.753782E-13 -4.718509E-13
       217  11  9.498280E+02  9.929846E+01  6.293554E-01  1.273230E+02 -2.442768E-13 -4.593238E-14
       217  12  9.328994E+02  9.272681E+01  3.483373E-01  1.440678E+02 -2.254863E-13  1.946907E-13
       217  13  9.791980E+02  8.455367E+01 -8.552323E-01  1.260042E+02  3.424051E-13 -1.837295E-13
       217  14  9.694798E+02  8.185345E+01 -4.223608E-01  1.405735E+02  3.507564E-13 -9.604044E-14
       217  15  9.586777E+02  7.484058E+01 -7.894895E-01  1.578136E+02 -3.173510E-13 -1.357093E-14
       217  16  1.000794E+03  7.153061E+01  7.907415E-02  1.367699E+02  2.839457E-13  1.670269E-13
       217  17  9.980615E+02  6.910858E+01  8.537550E-01  1.515109E+02  2.380133E-13  9.395261E-14
       217  18  9.940931E+02  6.188627E+01  5.911511E-01  1.691858E+02  0.000000E+00 -2.004322E-13
       217  19  9.658190E+02  1.020091E+02  3.350706E-01  1.130068E+02  4.252716E+00 -1.291740E+00
       217  20  9.498280E+02  9.929846E+01  6.293554E-01  1.273230E+02  4.828132E+00 -3.090464E+00
       217  21  9.328994E+02  9.272681E+01  3.483373E-01  1.440678E+02  5.404581E+00 -4.872024E+00
       217  22  9.791980E+02  8.455367E+01 -8.552323E-01  1.260042E+02  2.948664E+00 -2.355717E+00
       217  23  9.694798E+02  8.185345E+01 -4.223608E-01  1.405735E+02  3.502582E+00 -4.310517E+00
       217  24  9.586777E+02  7.484058E+01 -7.894895E-01  1.578136E+02  4.057429E+00 -6.250349E+00
       217  25  1.000794E+03  7.153061E+01  7.907415E-02  1.367699E+02  1.453888E+00 -3.321302E+00
       217  26  9.980615E+02  6.910858E+01  8.537550E-01  1.515109E+02  1.983837E+00 -5.441561E+00
       217  27  9.940931E+02  6.188627E+01  5.911511E-01  1.691858E+02  2.514585E+00 -7.549300E+00
       218   1  9.221920E+02  8.894232E+01  3.522445E-01  1.538314E+02 -5.902562E+00  6.004600E+00
       218   2  9.011026E+02  8.154192E+01  7.184819E-01  1.699355E+02 -7.337997E+00  8.349210E+00
       218   3  8.778325E+02  6.588023E+01 -5.518675E-02  1.899520E+02 -8.763739E+00  1.085471E+01
       218   4  9.522018E+02  7.036997E+01 -8.301900E-01  1.675764E+02 -4.394425E+00  7.426982E+00
       218   5  9.406032E+02  6.234378E+01  7.311368E-03  1.822313E+02 -5.627961E+00  9.905952E+00
       218   6  9.264183E+02  4.512120E+01 -1.008412E+00  2.011710E+02 -6.850073E+00  1.256741E+01
       218   7  9.895757E+02  5.621254E+01 -3.902689E-01  1.787535E+02 -2.658183E+00  8.764158E+00
       218   8  9.885261E+02  4.787924E+01  1.219480E+00  1.917715E+02 -3.671031E+00  1.138408E+01
       218   9  9.844713E+02  2.934879E+01  2.389815E-01  2.094789E+02 -4.670448E+00  1.421008E+01
       218  10  9.221920E+02  8.894232E+01  3.522445E-01  1.538314E+02 -3.904253E-13  4.718509E-13
       218  11  9.011026E+02  8.154192E+01  7.184819E-01  1.699355E+02 -4.175671E-14  4.321820E-13
       218  12  8.778325E+02  6.588023E+01 -5.518675E-02  1.899520E+02  2.547160E-13  2.766382E-13
       218  13  9.522018E+02  7.036997E+01 -8.301900E-01  1.675764E+02 -1.336215E-13  7.516208E-14
       218  14  9.406032E+02  6.234378E+01  7.311368E-03  1.822313E+02 -1.336215E-13  9.186477E-14
       218  15  9.264183E+02  4.512120E+01 -1.008412E+00  2.011710E+02  4.175671E-14  4.175671E-15
       218  16  9.895757E+02  5.621254E+01 -3.902689E-01  1.787535E+02  1.670269E-14 -3.006483E-13
       218  17  9.885261E+02  4.787924E+01  1.219480E+00  1.917715E+02 -8.351343E-14 -2.547160E-13
       218  18  9.844713E+02  2.934879E+01  2.389815E-01  2.094789E+02 -3.758104E-14 -2.954287E-13
       218  19  9.221920E+02  8.894232E+01  3.522445E-01  1.538314E+02  5.902562E+00 -6.004600E+00
       218  20  9.011026E+02  8.154192E+01  7.184819E-01  1.699355E+02  7.337997E+00 -8.349210E+00
       218  21  8.778325E+02  6.588023E+01 -5.518675E-02  1.899520E+02  8.763739E+00 -1.085471E+01
       218  22  9.522018E+02  7.036997E+01 -8.301900E-01  1.675764E+02  4.394425E+00 -7.426982E+00
       218  23  9.406032E+02  6.234378E+01  7.311368E-03  1.822313E+02  5.627961E+00 -9.905952E+00
       218  24  9.264183E+02  4.512120E+01 -1.008412E+00  2.011710E+02  6.850073E+00 -1.256741E+01
       218  25  9.895757E+02  5.621254E+01 -3.902689E-01  1.787535E+02  2.658183E+00 -8.764158E+00
       218  26  9.885261E+02  4.787924E+01  1.219480E+00  1.917715E+02  3.671031E+00 -1.138408E+01
       218  27  9.844713E+02  2.934879E+01  2.389815E-01  2.094789E+02  4.670448E+00 -1.421008E+01
       219   1  1.013978E+03  4.576116E+01 -8.195379E-01  1.808134E+02 -1.519266E+00  9.252022E+00
       219   2  1.017693E+03  3.692105E+01  6.621705E-01  1.933357E+02 -2.421081E+00  1.197555E+01
       219   3  1.018347E+03  1.882680E+01 -3.292143E-01  2.082971E+02 -3.315819E+00  1.480502E+01
       219   4  1.060395E+03  3.159867E+01 -3.976016E-01  1.759396E+02  5.616173E-01  1.033348E+01
       219   5  1.070232E+03  2.392271E+01  9.312187E-01  1.853947E+02 -2.063888E-01  1.293879E+01
       219   6  1.076628E+03  6.097144E+00 -7.970079E-01  1.975041E+02 -9.659934E-01  1.566449E+01
       219   7  1.109329E+03  1.919600E+01 -4.818902E-01  1.695670E+02  2.677644E+00  1.140182E+01
       219   8  1.126209E+03  1.315706E+01  1.294760E+00  1.757012E+02  2.057217E+00  1.388647E+01
       219   9  1.139248E+03 -4.003736E+00 -5.989583E-01  1.847249E+02  1.446749E+00  1.650739E+01
       219  10  1.013978E+03  4.576116E+01 -8.195379E-01  1.808134E+02 -1.461485E-14 -1.336215E-13
       219  11  1.017693E+03  3.692105E+01  6.621705E-01  1.933357E+02 -7.516208E-14  1.712025E-13
       219  12  1.018347E+03  1.882680E+01 -3.292143E-01  2.082971E+02 -2.922970E-14  2.818578E-13
       219  13  1.060395E+03  3.159867E+01 -3.976016E-01  1.759396E+02  5.094319E-13 -8.351343E-14
       219  14  1.070232E+03  2.392271E+01  9.312187E-01  1.853947E+02  1.503242E-13  1.879052E-13
       219  15  1.076628E+03  6.097144E+00 -7.970079E-01  1.975041E+02 -5.010806E-14  1.357093E-13
       219  16  1.109329E+03  1.919600E+01 -4.818902E-01  1.695670E+02  6.347020E-13  1.252701E-13
       219  17  1.126209E+03  1.315706E+01  1.294760E+00  1.757012E+02  8.351343E-14  2.150471E-13
       219  18  1.139248E+03 -4.003736E+00 -5.989583E-01  1.847249E+02 -5.052562E-13  5.010806E-14
       219  19  1.013978E+03  4.576116E+01 -8.195379E-01  1.808134E+02  1.519266E+00 -9.252022E+00
       219  20  1.017693E+03  3.692105E+01  6.621705E-01  1.933357E+02  2.421081E+00 -1.197555E+01
       219  21  1.018347E+03  1.882680E+01 -3.292143E-01  2.082971E+02  3.315819E+00 -1.480502E+01
       219  22  1.060395E+03  3.159867E+01 -3.976016E-01  1.759396E+02 -5.616173E-01 -1.033348E+01
       219  23  1.070232E+03  2.392271E+01  9.312187E-01  1.853947E+02  2.063888E-01 -1.293879E+01
       219  24  1.076628E+03  6.097144E+00 -7.970079E-01  1.975041E+02  9.659934E-01 -1.566449E+01
       219  25  1.109329E+03  1.919600E+01 -4.818902E-01  1.695670E+02 -2.677644E+00 -1.140182E+01
       219  26  1.126209E+03  1.315706E+01  1.294760E+00  1.757012E+02 -2.057217E+00 -1.388647E+01
       219  27  1.139248E+03 -4.003736E+00 -5.989583E-01  1.847249E+02 -1.446749E+00 -1.650739E+01
       220   1  1.015514E+03  6.162027E+01 -1.498964E-01  1.413542E+02 -5.309570E-01  3.695486E+00
       220   2  1.016631E+03  5.974812E+01  8.604757E-01  1.554887E+02 -1.029912E+00  5.799592E+00
       220   3  1.015771E+03  5.164886E+01  1.302505E-01  1.718697E+02 -1.523300E+00  7.986852E+00
       220   4  1.043579E+03  4.526453E+01 -8.214530E-01  1.413123E+02  1.163633E+00  4.680451E+00
       220   5  1.050487E+03  4.373988E+01  1.862501E-01  1.539257E+02  7.712941E-01  6.852891E+00
       220   6  1.055133E+03  3.527413E+01 -9.830468E-01  1.689976E+02  3.855370E-01  9.119759E+00
       220   7  1.077992E+03  3.297944E+01 -1.551056E-01  1.390172E+02  3.049102E+00  5.566933E+00
       220   8  1.091490E+03  3.217463E+01  1.177427E+00  1.499189E+02  2.774773E+00  7.812998E+00
       220   9  1.102425E+03  2.365337E+01 -1.263561E-01  1.635112E+02  2.508224E+00  1.016594E+01
       220  10  1.015514E+03  6.162027E+01 -1.498964E-01  1.413542E+02 -1.106553E-13  1.173364E-12
       220  11  1.016631E+03  5.974812E+01  8.604757E-01  1.554887E+02 -1.461485E-13  4.927292E-13
       220  12  1.015771E+03  5.164886E+01  1.302505E-01  1.718697E+02 -3.089997E-13 -2.348815E-14
       220  13  1.043579E+03  4.526453E+01 -8.214530E-01  1.413123E+02 -4.593238E-13  2.087836E-13
       220  14  1.050487E+03  4.373988E+01  1.862501E-01  1.539257E+02 -7.349182E-13  1.002161E-13
       220  15  1.055133E+03  3.527413E+01 -9.830468E-01  1.689976E+02 -3.925131E-13  1.565877E-13
       220  16  1.077992E+03  3.297944E+01 -1.551056E-01  1.390172E+02 -5.678913E-13 -1.014688E-12
       220  17  1.091490E+03  3.217463E+01  1.177427E+00  1.499189E+02 -2.505403E-13 -5.511886E-13
       220  18  1.102425E+03  2.365337E+01 -1.263561E-01  1.635112E+02 -2.714186E-13  1.200506E-13
       220  19  1.015514E+03  6.162027E+01 -1.498964E-01  1.413542E+02  5.309570E-01 -3.695486E+00
       220  20  1.016631E+03  5.974812E+01  8.604757E-01  1.554887E+02  1.029912E+00 -5.799592E+00
       220  21  1.015771E+03  5.164886E+01  1.302505E-01  1.718697E+02  1.523300E+00 -7.986852E+00
       220  22  1.043579E+03  4.526453E+01 -8.214530E-01  1.413123E+02 -1.163633E+00 -4.680451E+00
       220  23  1.050487E+03  4.373988E+01  1.862501E-01  1.539257E+02 -7.712941E-01 -6.852891E+00
       220  24  1.055133E+03  3.527413E+01 -9.830468E-01  1.689976E+02 -3.855370E-01 -9.119759E+00
       220  25  1.077992E+03  3.297944E+01 -1.551056E-01  1.390172E+02 -3.049102E+00 -5.566933E+00
       220  26  1.091490E+03  3.217463E+01  1.177427E+00  1.499189E+02 -2.774773E+00 -7.812998E+00
       220  27  1.102425E+03  2.365337E+01 -1.263561E-01  1.635112E+02 -2.508224E+00 -1.016594E+01
       221   1  1.621230E+03 -3.554151E+01  7.513442E+00 -2.055286E+02  3.106768E+01 -1.949820E+01
       221   2  1.621082E+03  3.518098E+01  1.785009E+00 -2.023064E+02  3.006016E+01 -3.668322E+01
       221   3  1.630326E+03  1.206828E+02  6.234741E+00 -2.058748E+02  2.901967E+01 -5.357911E+01
       221   4  1.523356E+03 -2.467756E+01 -6.980017E-01 -2.055592E+02  1.627648E+01 -2.103080E+01
       221   5  1.504604E+03  2.433711E+01 -4.740586E+00 -1.951942E+02  1.571423E+01 -3.582516E+01
       221   6  1.493582E+03  8.616290E+01 -7.459811E-01 -1.913187E+02  1.511347E+01 -5.019750E+01
       221   7  1.438131E+03 -7.489701E+00 -1.521490E+00 -2.109460E+02  3.562292E+00 -2.261068E+01
       221   8  1.400055E+03  1.872868E+01 -6.639440E+00 -1.937059E+02  3.562079E+00 -3.500793E+01
       221   9  1.368068E+03  5.578959E+01 -5.854834E+00 -1.826663E+02  3.523995E+00 -4.684884E+01
       221  10  1.621230E+03 -3.554151E+01  7.513442E+00 -2.055286E+02 -1.503242E-13 -1.002161E-13
       221  11  1.621082E+03  3.518098E+01  1.785009E+00 -2.023064E+02  5.010806E-14  8.351343E-14
       221  12  1.630326E+03  1.206828E+02  6.234741E+00 -2.058748E+02  2.588916E-13  1.837295E-13
       221  13  1.523356E+03 -2.467756E+01 -6.980017E-01 -2.055592E+02 -8.351343E-14  6.785466E-14
       221  14  1.504604E+03  2.433711E+01 -4.740586E+00 -1.951942E+02  1.169188E-13 -2.609795E-16
       221  15  1.493582E+03  8.616290E+01 -7.459811E-01 -1.913187E+02  2.171349E-13 -8.716714E-14
       221  16  1.438131E+03 -7.489701E+00 -1.521490E+00 -2.109460E+02 -1.503242E-13  0.000000E+00
       221  17  1.400055E+03  1.872868E+01 -6.639440E+00 -1.937059E+02 -3.340537E-14 -6.681074E-14
       221  18  1.368068E+03  5.578959E+01 -5.854834E+00 -1.826663E+02  1.461485E-13 -3.758104E-14
       221  19  1.621230E+03 -3.554151E+01  7.513442E+00 -2.055286E+02 -3.106768E+01  1.949820E+01
       221  20  1.621082E+03  3.518098E+01  1.785009E+00 -2.023064E+02 -3.006016E+01  3.668322E+01
       221  21  1.630326E+03  1.206828E+02  6.234741E+00 -2.058748E+02 -2.901967E+01  5.357911E+01
       221  22  1.523356E+03 -2.467756E+01 -6.980017E-01 -2.055592E+02 -1.627648E+01  2.103080E+01
       221  23  1.504604E+03  2.433711E+01 -4.740586E+00 -1.951942E+02 -1.571423E+01  3.582516E+01
       221  24  1.493582E+03  8.616290E+01 -7.459811E-01 -1.913187E+02 -1.511347E+01  5.019750E+01
       221  25  1.438131E+03 -7.489701E+00 -1.521490E+00 -2.109460E+02 -3.562292E+00  2.261068E+01
       221  26  1.400055E+03  1.872868E+01 -6.639440E+00 -1.937059E+02 -3.562079E+00  3.500793E+01
       221  27  1.368068E+03  5.578959E+01 -5.854834E+00 -1.826663E+02 -3.523995E+00  4.684884E+01
       222   1  1.616280E+03  1.586462E+02  2.055412E+00 -1.703017E+02  2.277391E+01 -6.218964E+01
       222   2  1.602849E+03  2.044348E+02  1.649725E+00 -9.760092E+01  1.318528E+01 -7.228605E+01
       222   3  1.583421E+03  2.262835E+02  2.831983E+00 -2.628357E+01  3.041637E+00 -7.753496E+01
       222   4  1.471924E+03  1.145721E+02 -3.833345E+00 -1.597452E+02  1.205673E+01 -5.773098E+01
       222   5  1.454287E+03  1.507084E+02 -1.855149E+00 -9.127088E+01  6.599321E+00 -6.658886E+01
       222   6  1.427414E+03  1.592408E+02 -4.791160E+00 -2.415569E+01  6.883976E-01 -7.048416E+01
       222   7  1.334614E+03  7.240261E+01 -1.071056E+01 -1.521298E+02  2.469563E+00 -5.328542E+01
       222   8  1.312755E+03  9.851867E+01 -7.449883E+00 -8.810394E+01  1.237747E+00 -6.089988E+01
       222   9  1.278445E+03  9.336851E+01 -1.559732E+01 -2.542523E+01 -3.398700E-01 -6.343541E+01
       222  10  1.616280E+03  1.586462E+02  2.055412E+00 -1.703017E+02 -1.085675E-13  3.674591E-13
       222  11  1.602849E+03  2.044348E+02  1.649725E+00 -9.760092E+01 -5.845940E-14  2.338376E-13
       222  12  1.583421E+03  2.262835E+02  2.831983E+00 -2.628357E+01  1.106553E-13  2.213106E-13
       222  13  1.471924E+03  1.145721E+02 -3.833345E+00 -1.597452E+02  5.010806E-14  5.402275E-14
       222  14  1.454287E+03  1.507084E+02 -1.855149E+00 -9.127088E+01 -5.010806E-14  2.107409E-13
       222  15  1.427414E+03  1.592408E+02 -4.791160E+00 -2.415569E+01  4.175671E-15  4.547567E-14
       222  16  1.334614E+03  7.240261E+01 -1.071056E+01 -1.521298E+02  2.338376E-13 -1.002161E-13
       222  17  1.312755E+03  9.851867E+01 -7.449883E+00 -8.810394E+01  1.670269E-14  3.340537E-14
       222  18  1.278445E+03  9.336851E+01 -1.559732E+01 -2.542523E+01 -1.284019E-13 -1.085675E-13
       222  19  1.616280E+03  1.586462E+02  2.055412E+00 -1.703017E+02 -2.277391E+01  6.218964E+01
       222  20  1.602849E+03  2.044348E+02  1.649725E+00 -9.760092E+01 -1.318528E+01  7.228605E+01
       222  21  1.583421E+03  2.262835E+02  2.831983E+00 -2.628357E+01 -3.041637E+00  7.753496E+01
       222  22  1.471924E+03  1.145721E+02 -3.833345E+00 -1.597452E+02 -1.205673E+01  5.773098E+01
       222  23  1.454287E+03  1.507084E+02 -1.855149E+00 -9.127088E+01 -6.599321E+00  6.658886E+01
       222  24  1.427414E+03  1.592408E+02 -4.791160E+00 -2.415569E+01 -6.883976E-01  7.048416E+01
       222  25  1.334614E+03  7.240261E+01 -1.071056E+01 -1.521298E+02 -2.469563E+00  5.328542E+01
       222  26  1.312755E+03  9.851867E+01 -7.449883E+00 -8.810394E+01 -1.237747E+00  6.089988E+01
       222  27  1.278445E+03  9.336851E+01 -1.559732E+01 -2.542523E+01  3.398700E-01  6.343541E+01
       223   1  1.253206E+03  3.825355E+01 -1.889764E+01 -1.369850E+02 -1.963612E+00 -5.218484E+01
       223   2  1.223334E+03  5.099628E+01 -1.949306E+01 -7.685475E+01 -1.369004E+00 -5.820366E+01
       223   3  1.189307E+03  5.204790E+01 -2.510176E+01 -2.257899E+01 -9.139126E-01 -6.165905E+01
       223   4  1.104278E+03  2.830832E+01 -2.975210E+01 -8.526805E+01 -8.348144E+00 -3.456877E+01
       223   5  1.065789E+03  3.900428E+01 -3.026711E+01 -4.627626E+01 -5.540447E+00 -3.901576E+01
       223   6  1.021376E+03  3.641088E+01 -3.913218E+01 -1.426596E+01 -2.815242E+00 -4.078521E+01
       223   7  8.967956E+02 -1.165037E+01 -8.204251E+01 -3.284604E+01 -1.298213E+01 -1.697276E+01
       223   8  8.461145E+02 -4.831198E+00 -8.502620E+01 -1.507779E+01 -7.866494E+00 -1.984021E+01
       223   9  7.875629E+02 -1.297678E+01 -9.977367E+01 -5.432667E+00 -2.770349E+00 -1.991456E+01
       223  10  1.253206E+03  3.825355E+01 -1.889764E+01 -1.369850E+02  2.839457E-13 -1.002161E-13
       223  11  1.223334E+03  5.099628E+01 -1.949306E+01 -7.685475E+01  0.000000E+00 -6.681074E-14
       223  12  1.189307E+03  5.204790E+01 -2.510176E+01 -2.257899E+01 -2.463646E-13 -1.837295E-13
       223  13  1.104278E+03  2.830832E+01 -2.975210E+01 -8.526805E+01  1.169188E-13 -2.701137E-14
       223  14  1.065789E+03  3.900428E+01 -3.026711E+01 -4.627626E+01  1.670269E-14 -3.653712E-15
       223  15  1.021376E+03  3.641088E+01 -3.913218E+01 -1.426596E+01 -1.043918E-13 -1.130367E-13
       223  16  8.967956E+02 -1.165037E+01 -8.204251E+01 -3.284604E+01  1.043918E-13  0.000000E+00
       223  17  8.461145E+02 -4.831198E+00 -8.502620E+01 -1.507779E+01  1.252701E-14 -3.340537E-14
       223  18  7.875629E+02 -1.297678E+01 -9.977367E+01 -5.432667E+00 -1.054357E-13  2.463646E-13
       223  19  1.253206E+03  3.825355E+01 -1.889764E+01 -1.369850E+02  1.963612E+00  5.218484E+01
       223  20  1.223334E+03  5.099628E+01 -1.949306E+01 -7.685475E+01  1.369004E+00  5.820366E+01
       223  21  1.189307E+03  5.204790E+01 -2.510176E+01 -2.257899E+01  9.139126E-01  6.165905E+01
       223  22  1.104278E+03  2.830832E+01 -2.975210E+01 -8.526805E+01  8.348144E+00  3.456877E+01
       223  23  1.065789E+03  3.900428E+01 -3.026711E+01 -4.627626E+01  5.540447E+00  3.901576E+01
       223  24  1.021376E+03  3.641088E+01 -3.913218E+01 -1.426596E+01  2.815242E+00  4.078521E+01
       223  25  8.967956E+02 -1.165037E+01 -8.204251E+01 -3.284604E+01  1.298213E+01  1.697276E+01
       223  26  8.461145E+02 -4.831198E+00 -8.502620E+01 -1.507779E+01  7.866494E+00  1.984021E+01
       223  27  7.875629E+02 -1.297678E+01 -9.977367E+01 -5.432667E+00  2.770349E+00  1.991456E+01
       224   1  1.389105E+03 -8.641980E+00 -4.176969E+00 -1.947433E+02 -3.208397E+00 -2.298921E+01
       224   2  1.337764E+03  1.109898E+01 -9.191218E+00 -1.735208E+02 -2.815869E+00 -3.503141E+01
       224   3  1.289110E+03  3.242814E+01 -1.266683E+01 -1.646656E+02 -2.445209E+00 -4.667191E+01
       224   4  1.302833E+03 -1.414213E+00 -1.041991E+01 -1.222630E+02 -1.316395E+01 -1.515773E+01
       224   5  1.222435E+03  9.938245E+00 -1.825435E+01 -1.062000E+02 -1.225061E+01 -2.325144E+01
       224   6  1.143249E+03  2.200450E+01 -2.615397E+01 -1.028459E+02 -1.135635E+01 -3.072637E+01
       224   7  1.201383E+03 -3.016474E+00 -3.076299E+01 -4.892031E+01 -1.934616E+01 -7.412380E+00
       224   8  1.088906E+03 -2.447174E+00 -4.640277E+01 -3.800718E+01 -1.771829E+01 -1.154528E+01
       224   9  9.760995E+02 -2.065991E+00 -6.373971E+01 -4.014639E+01 -1.609625E+01 -1.483990E+01
       224  10  1.389105E+03 -8.641980E+00 -4.176969E+00 -1.947433E+02 -2.505403E-14 -6.681074E-14
       224  11  1.337764E+03  1.109898E+01 -9.191218E+00 -1.735208E+02  6.681074E-14 -8.351343E-14
       224  12  1.289110E+03  3.242814E+01 -1.266683E+01 -1.646656E+02  7.933776E-14 -1.127431E-13
       224  13  1.302833E+03 -1.414213E+00 -1.041991E+01 -1.222630E+02  5.010806E-14  1.565877E-14
       224  14  1.222435E+03  9.938245E+00 -1.825435E+01 -1.062000E+02  6.681074E-14  7.281327E-14
       224  15  1.143249E+03  2.200450E+01 -2.615397E+01 -1.028459E+02  5.428373E-14  7.985971E-14
       224  16  1.201383E+03 -3.016474E+00 -3.076299E+01 -4.892031E+01  5.845940E-14  3.674591E-13
       224  17  1.088906E+03 -2.447174E+00 -4.640277E+01 -3.800718E+01  8.351343E-15  2.839457E-13
       224  18  9.760995E+02 -2.065991E+00 -6.373971E+01 -4.014639E+01  1.670269E-14  8.351343E-14
       224  19  1.389105E+03 -8.641980E+00 -4.176969E+00 -1.947433E+02  3.208397E+00  2.298921E+01
       224  20  1.337764E+03  1.109898E+01 -9.191218E+00 -1.735208E+02  2.815869E+00  3.503141E+01
       224  21  1.289110E+03  3.242814E+01 -1.266683E+01 -1.646656E+02  2.445209E+00  4.667191E+01
       224  22  1.302833E+03 -1.414213E+00 -1.041991E+01 -1.222630E+02  1.316395E+01  1.515773E+01
       224  23  1.222435E+03  9.938245E+00 -1.825435E+01 -1.062000E+02  1.225061E+01  2.325144E+01
       224  24  1.143249E+03  2.200450E+01 -2.615397E+01 -1.028459E+02  1.135635E+01  3.072637E+01
       224  25  1.201383E+03 -3.016474E+00 -3.076299E+01 -4.892031E+01  1.934616E+01  7.412380E+00
       224  26  1.088906E+03 -2.447174E+00 -4.640277E+01 -3.800718E+01  1.771829E+01  1.154528E+01
       224  27  9.760995E+02 -2.065991E+00 -6.373971E+01 -4.014639E+01  1.609625E+01  1.483990E+01
       225   1  1.631478E+03 -1.118273E+02 -1.630048E+00 -1.651228E+02  3.783589E+01 -8.596716E+00
       225   2  1.565242E+03 -1.788491E+02 -5.585010E+00 -9.840064E+01  3.004001E+01  8.622703E+00
       225   3  1.517854E+03 -2.003661E+02  2.050352E+00 -5.373588E+01  2.249233E+01  1.772675E+01
       225   4  1.706062E+03 -1.254698E+02  1.360900E+01 -6.302851E+01  5.731343E+01  7.654762E+00
       225   5  1.581884E+03 -2.038462E+02  7.579536E+00 -6.609950E+00  4.151603E+01  2.251861E+01
       225   6  1.468155E+03 -2.465779E+02 -1.812852E+00  2.888195E+01  2.582545E+01  2.984636E+01
       225   7  1.715620E+03 -1.612865E+02  1.872415E+01  4.077892E+01  7.427906E+01  2.377820E+01
       225   8  1.535003E+03 -2.513151E+02  9.177229E+00  8.677029E+01  5.099145E+01  3.639120E+01
       225   9  1.356736E+03 -3.152116E+02 -1.849163E+01  1.128786E+02  2.769663E+01  4.200832E+01
       225  10  1.631478E+03 -1.118273E+02 -1.630048E+00 -1.651228E+02  1.252701E-13 -6.681074E-14
       225  11  1.565242E+03 -1.788491E+02 -5.585010E+00 -9.840064E+01  1.670269E-14 -1.670269E-14
       225  12  1.517854E+03 -2.003661E+02  2.050352E+00 -5.373588E+01 -7.516208E-14 -1.169188E-13
       225  13  1.706062E+03 -1.254698E+02  1.360900E+01 -6.302851E+01  3.173510E-13  1.597194E-13
       225  14  1.581884E+03 -2.038462E+02  7.579536E+00 -6.609950E+00 -8.351343E-14  1.665049E-13
       225  15  1.468155E+03 -2.465779E+02 -1.812852E+00  2.888195E+01 -3.173510E-13  9.134281E-14
       225  16  1.715620E+03 -1.612865E+02  1.872415E+01  4.077892E+01  5.344859E-13  2.672430E-13
       225  17  1.535003E+03 -2.513151E+02  9.177229E+00  8.677029E+01  6.681074E-14  3.340537E-13
       225  18  1.356736E+03 -3.152116E+02 -1.849163E+01  1.128786E+02 -6.054723E-13  2.630673E-13
       225  19  1.631478E+03 -1.118273E+02 -1.630048E+00 -1.651228E+02 -3.783589E+01  8.596716E+00
       225  20  1.565242E+03 -1.788491E+02 -5.585010E+00 -9.840064E+01 -3.004001E+01 -8.622703E+00
       225  21  1.517854E+03 -2.003661E+02  2.050352E+00 -5.373588E+01 -2.249233E+01 -1.772675E+01
       225  22  1.706062E+03 -1.254698E+02  1.360900E+01 -6.302851E+01 -5.731343E+01 -7.654762E+00
       225  23  1.581884E+03 -2.038462E+02  7.579536E+00 -6.609950E+00 -4.151603E+01 -2.251861E+01
       225  24  1.468155E+03 -2.465779E+02 -1.812852E+00  2.888195E+01 -2.582545E+01 -2.984636E+01
       225  25  1.715620E+03 -1.612865E+02  1.872415E+01  4.077892E+01 -7.427906E+01 -2.377820E+01
       225  26  1.535003E+03 -2.513151E+02  9.177229E+00  8.677029E+01 -5.099145E+01 -3.639120E+01
       225  27  1.356736E+03 -3.152116E+02 -1.849163E+01  1.128786E+02 -2.769663E+01 -4.200832E+01
       226   1  1.469556E+03 -2.086125E+02 -2.403982E+00 -1.082458E+01  1.713159E+01  2.038648E+01
       226   2  1.404385E+03 -2.008206E+02 -3.571017E+00  4.563271E+01  1.172915E+01  2.460013E+01
       226   3  1.346222E+03 -1.734164E+02 -2.349191E+00  9.676121E+01  6.378374E+00  2.712470E+01
       226   4  1.427664E+03 -2.454736E+02  8.989634E-01  6.754591E+01  1.981168E+01  3.110397E+01
       226   5  1.354203E+03 -2.243551E+02  3.620373E+00  1.138864E+02  1.270050E+01  3.221877E+01
       226   6  1.285461E+03 -1.867045E+02  4.891609E+00  1.548476E+02  5.612660E+00  3.168702E+01
       226   7  1.341124E+03 -2.986071E+02 -3.132633E+00  1.515824E+02  1.972783E+01  4.196862E+01
       226   8  1.256692E+03 -2.668905E+02 -1.447168E+00  1.880457E+02  1.094085E+01  4.009974E+01
       226   9  1.174741E+03 -2.216129E+02 -5.003091E+00  2.190915E+02  2.152202E+00  3.662758E+01
       226  10  1.469556E+03 -2.086125E+02 -2.403982E+00 -1.082458E+01 -9.186477E-14 -1.503242E-13
       226  11  1.404385E+03 -2.008206E+02 -3.571017E+00  4.563271E+01 -6.681074E-14 -3.758104E-13
       226  12  1.346222E+03 -1.734164E+02 -2.349191E+00  9.676121E+01 -7.933776E-14 -4.238306E-13
       226  13  1.427664E+03 -2.454736E+02  8.989634E-01  6.754591E+01 -1.503242E-13 -1.565877E-14
       226  14  1.354203E+03 -2.243551E+02  3.620373E+00  1.138864E+02 -1.670269E-14 -1.033479E-13
       226  15  1.285461E+03 -1.867045E+02  4.891609E+00  1.548476E+02 -1.670269E-13  1.252701E-14
       226  16  1.341124E+03 -2.986071E+02 -3.132633E+00  1.515824E+02 -7.098641E-14  2.171349E-13
       226  17  1.256692E+03 -2.668905E+02 -1.447168E+00  1.880457E+02  3.340537E-14  2.421889E-13
       226  18  1.174741E+03 -2.216129E+02 -5.003091E+00  2.190915E+02  1.586755E-13  3.987766E-13
       226  19  1.469556E+03 -2.086125E+02 -2.403982E+00 -1.082458E+01 -1.713159E+01 -2.038648E+01
       226  20  1.404385E+03 -2.008206E+02 -3.571017E+00  4.563271E+01 -1.172915E+01 -2.460013E+01
       226  21  1.346222E+03 -1.734164E+02 -2.349191E+00  9.676121E+01 -6.378374E+00 -2.712470E+01
       226  22  1.427664E+03 -2.454736E+02  8.989634E-01  6.754591E+01 -1.981168E+01 -3.110397E+01
       226  23  1.354203E+03 -2.243551E+02  3.620373E+00  1.138864E+02 -1.270050E+01 -3.221877E+01
       226  24  1.285461E+03 -1.867045E+02  4.891609E+00  1.548476E+02 -5.612660E+00 -3.168702E+01
       226  25  1.341124E+03 -2.986071E+02 -3.132633E+00  1.515824E+02 -1.972783E+01 -4.196862E+01
       226  26  1.256692E+03 -2.668905E+02 -1.447168E+00  1.880457E+02 -1.094085E+01 -4.009974E+01
       226  27  1.174741E+03 -2.216129E+02 -5.003091E+00  2.190915E+02 -2.152202E+00 -3.662758E+01
       227   1  1.277265E+03 -2.795437E+02  9.916935E+00  2.238284E+02  1.804688E+01  4.679867E+01
       227   2  1.192238E+03 -2.539815E+02  7.395948E+00  2.349101E+02  9.007353E+00  4.225391E+01
       227   3  1.102178E+03 -2.327783E+02 -8.456443E+00  2.571905E+02 -2.015026E-02  3.898705E+01
       227   4  1.075937E+03 -3.396043E+02 -1.343052E+01  2.763186E+02  1.095165E+01  6.097689E+01
       227   5  1.030886E+03 -2.702278E+02  4.902984E-01  2.766771E+02  2.552885E+00  5.025859E+01
       227   6  9.817619E+02 -2.042966E+02  2.290573E+00  2.870326E+02 -5.822686E+00  4.054853E+01
       227   7  8.554981E+02 -4.044296E+02 -3.003685E+01  3.368288E+02 -5.465349E-01  7.538948E+01
       227   8  8.429253E+02 -2.975743E+02 -1.041208E+01  3.269442E+02 -8.505757E+00  5.870554E+01
       227   9  8.270847E+02 -1.933673E+02 -1.778937E+00  3.259538E+02 -1.643767E+01  4.278548E+01
       227  10  1.277265E+03 -2.795437E+02  9.916935E+00  2.238284E+02 -3.340537E-14 -3.340537E-14
       227  11  1.192238E+03 -2.539815E+02  7.395948E+00  2.349101E+02  9.604044E-14 -8.351343E-15
       227  12  1.102178E+03 -2.327783E+02 -8.456443E+00  2.571905E+02  1.377972E-13 -7.098641E-14
       227  13  1.075937E+03 -3.396043E+02 -1.343052E+01  2.763186E+02 -1.002161E-13  2.087836E-14
       227  14  1.030886E+03 -2.702278E+02  4.902984E-01  2.766771E+02 -6.681074E-14 -2.087836E-14
       227  15  9.817619E+02 -2.042966E+02  2.290573E+00  2.870326E+02  1.753782E-13 -3.862496E-14
       227  16  8.554981E+02 -4.044296E+02 -3.003685E+01  3.368288E+02 -3.758104E-14 -1.670269E-14
       227  17  8.429253E+02 -2.975743E+02 -1.041208E+01  3.269442E+02  1.628512E-13 -7.516208E-14
       227  18  8.270847E+02 -1.933673E+02 -1.778937E+00  3.259538E+02  2.171349E-13 -1.461485E-14
       227  19  1.277265E+03 -2.795437E+02  9.916935E+00  2.238284E+02 -1.804688E+01 -4.679867E+01
       227  20  1.192238E+03 -2.539815E+02  7.395948E+00  2.349101E+02 -9.007353E+00 -4.225391E+01
       227  21  1.102178E+03 -2.327783E+02 -8.456443E+00  2.571905E+02  2.015026E-02 -3.898705E+01
       227  22  1.075937E+03 -3.396043E+02 -1.343052E+01  2.763186E+02 -1.095165E+01 -6.097689E+01
       227  23  1.030886E+03 -2.702278E+02  4.902984E-01  2.766771E+02 -2.552885E+00 -5.025859E+01
       227  24  9.817619E+02 -2.042966E+02  2.290573E+00  2.870326E+02  5.822686E+00 -4.054853E+01
       227  25  8.554981E+02 -4.044296E+02 -3.003685E+01  3.368288E+02  5.465349E-01 -7.538948E+01
       227  26  8.429253E+02 -2.975743E+02 -1.041208E+01  3.269442E+02  8.505757E+00 -5.870554E+01
       227  27  8.270847E+02 -1.933673E+02 -1.778937E+00  3.259538E+02  1.643767E+01 -4.278548E+01
       228   1  1.612232E+03 -1.994869E+02 -9.052667E+00  1.569836E+02  8.357910E+01  3.572177E+01
       228   2  1.426753E+03 -3.780006E+02 -3.732289E+01  1.390895E+02  5.569889E+01  4.672282E+01
       228   3  1.326623E+03 -3.362888E+02 -6.622235E+00  1.868705E+02  2.773952E+01  4.929214E+01
       228   4  1.287080E+03 -2.038259E+01  4.503739E-01  2.915166E+02  9.435931E+01  7.481267E+01
       228   5  1.227513E+03 -2.630474E+02 -9.733051E-02  2.533766E+02  5.804239E+01  7.549994E+01
       228   6  1.239874E+03 -3.129568E+02  3.479260E+01  2.747270E+02  2.153972E+01  6.810592E+01
       228   7  7.770491E+02  8.828054E+01 -2.613719E+01  3.917477E+02  9.685255E+01  1.134809E+02
       228   8  8.194668E+02 -2.289925E+02 -2.005233E+01  3.305492E+02  5.239305E+01  1.041838E+02
       228   9  9.203213E+02 -3.797020E+02 -1.700571E+00  3.229861E+02  7.657138E+00  8.714221E+01
       228  10  1.612232E+03 -1.994869E+02 -9.052667E+00  1.569836E+02  6.138237E-13 -4.342698E-13
       228  11  1.426753E+03 -3.780006E+02 -3.732289E+01  1.390895E+02 -9.186477E-14 -3.674591E-13
       228  12  1.326623E+03 -3.362888E+02 -6.622235E+00  1.868705E+02 -4.969049E-13 -1.169188E-13
       228  13  1.287080E+03 -2.038259E+01  4.503739E-01  2.915166E+02  3.340537E-13  1.043918E-15
       228  14  1.227513E+03 -2.630474E+02 -9.733051E-02  2.533766E+02  2.839457E-13 -8.690616E-14
       228  15  1.239874E+03 -3.129568E+02  3.479260E+01  2.747270E+02  0.000000E+00 -5.898136E-14
       228  16  7.770491E+02  8.828054E+01 -2.613719E+01  3.917477E+02  1.336215E-13  1.670269E-13
       228  17  8.194668E+02 -2.289925E+02 -2.005233E+01  3.305492E+02  1.586755E-13 -3.340537E-14
       228  18  9.203213E+02 -3.797020E+02 -1.700571E+00  3.229861E+02 -1.628512E-13 -8.351343E-14
       228  19  1.612232E+03 -1.994869E+02 -9.052667E+00  1.569836E+02 -8.357910E+01 -3.572177E+01
       228  20  1.426753E+03 -3.780006E+02 -3.732289E+01  1.390895E+02 -5.569889E+01 -4.672282E+01
       228  21  1.326623E+03 -3.362888E+02 -6.622235E+00  1.868705E+02 -2.773952E+01 -4.929214E+01
       228  22  1.287080E+03 -2.038259E+01  4.503739E-01  2.915166E+02 -9.435931E+01 -7.481267E+01
       228  23  1.227513E+03 -2.630474E+02 -9.733051E-02  2.533766E+02 -5.804239E+01 -7.549994E+01
       228  24  1.239874E+03 -3.129568E+02  3.479260E+01  2.747270E+02 -2.153972E+01 -6.810592E+01
       228  25  7.770491E+02  8.828054E+01 -2.613719E+01  3.917477E+02 -9.685255E+01 -1.134809E+02
       228  26  8.194668E+02 -2.289925E+02 -2.005233E+01  3.305492E+02 -5.239305E+01 -1.041838E+02
       228  27  9.203213E+02 -3.797020E+02 -1.700571E+00  3.229861E+02 -7.657138E+00 -8.714221E+01
       229   1  9.330198E+02  1.503766E+02  9.157676E-01  6.941050E+00 -8.118596E+00 -1.570955E-01
       229   2  9.349950E+02  1.456964E+02  4.781488E-01  2.888444E+01 -7.889220E+00  2.849404E-02
       229   3  9.392228E+02  1.419162E+02  7.836627E-01  5.078932E+01 -7.411215E+00  2.049618E-01
       229   4  9.527710E+02  1.585351E+02  4.263472E-02  5.103566E+00 -8.359821E+00 -2.391726E-01
       229   5  9.529049E+02  1.537062E+02 -8.237662E-01  2.299541E+01 -8.158776E+00 -3.547558E-01
       229   6  9.564193E+02  1.503625E+02 -1.235434E-01  4.084528E+01 -7.673737E+00 -4.791812E-01
       229   7  9.757203E+02  1.744761E+02  2.191585E+00  4.195907E+00 -8.601995E+00 -2.659921E-01
       229   8  9.738693E+02  1.694211E+02  7.649862E-01  1.756638E+01 -8.429171E+00 -7.268966E-01
       229   9  9.766637E+02  1.664951E+02  1.787260E+00  3.089605E+01 -7.931927E+00 -1.195842E+00
       229  10  9.330198E+02  1.503766E+02  9.157676E-01  6.941050E+00 -1.336215E-13 -7.242180E-15
       229  11  9.349950E+02  1.456964E+02  4.781488E-01  2.888444E+01  5.678913E-13 -5.449577E-14
       229  12  9.392228E+02  1.419162E+02  7.836627E-01  5.078932E+01  2.213106E-13 -7.960689E-14
       229  13  9.527710E+02  1.585351E+02  4.263472E-02  5.103566E+00 -1.098724E-13  2.170044E-13
       229  14  9.529049E+02  1.537062E+02 -8.237662E-01  2.299541E+01 -5.000366E-13 -1.467357E-13
       229  15  9.564193E+02  1.503625E+02 -1.235434E-01  4.084528E+01 -2.401011E-13 -5.339640E-13
       229  16  9.757203E+02  1.744761E+02  2.191585E+00  4.195907E+00 -1.336215E-13  7.109080E-13
       229  17  9.738693E+02  1.694211E+02  7.649862E-01  1.756638E+01 -4.676752E-13 -5.764384E-14
       229  18  9.766637E+02  1.664951E+02  1.787260E+00  3.089605E+01 -1.336215E-13 -8.893650E-13
       229  19  9.330198E+02  1.503766E+02  9.157676E-01  6.941050E+00  8.118596E+00  1.570955E-01
       229  20  9.349950E+02  1.456964E+02  4.781488E-01  2.888444E+01  7.889220E+00 -2.849404E-02
       229  21  9.392228E+02  1.419162E+02  7.836627E-01  5.078932E+01  7.411215E+00 -2.049618E-01
       229  22  9.527710E+02  1.585351E+02  4.263472E-02  5.103566E+00  8.359821E+00  2.391726E-01
       229  23  9.529049E+02  1.537062E+02 -8.237662E-01  2.299541E+01  8.158776E+00  3.547558E-01
       229  24  9.564193E+02  1.503625E+02 -1.235434E-01  4.084528E+01  7.673737E+00  4.791812E-01
       229  25  9.757203E+02  1.744761E+02  2.191585E+00  4.195907E+00  8.601995E+00  2.659921E-01
       229  26  9.738693E+02  1.694211E+02  7.649862E-01  1.756638E+01  8.429171E+00  7.268966E-01
       229  27  9.766637E+02  1.664951E+02  1.787260E+00  3.089605E+01  7.931927E+00  1.195842E+00
       230   1  9.426966E+02  1.364460E+02  2.863006E-01  6.305807E+01 -6.952364E+00 -5.884058E-03
       230   2  9.528693E+02  1.255657E+02  2.231215E-01  7.915850E+01 -6.038647E+00  1.970412E-01
       230   3  9.633827E+02  1.147645E+02  3.891159E-02  9.511470E+01 -4.912160E+00  3.921593E-01
       230   4  9.596282E+02  1.466051E+02  2.290422E-01  5.004822E+01 -7.236220E+00 -8.629096E-01
       230   5  9.655294E+02  1.358253E+02 -1.509404E-01  6.354734E+01 -6.408344E+00 -9.276130E-01
       230   6  9.725168E+02  1.255400E+02 -1.862062E-02  7.685121E+01 -5.336014E+00 -9.999272E-01
       230   7  9.776672E+02  1.617960E+02  1.526591E+00  3.863330E+01 -7.539911E+00 -1.600667E+00
       230   8  9.790520E+02  1.511134E+02  5.292436E-01  4.921689E+01 -6.795614E+00 -1.973336E+00
       230   9  9.823519E+02  1.413748E+02  7.127199E-01  5.955035E+01 -5.770729E+00 -2.352959E+00
       230  10  9.426966E+02  1.364460E+02  2.863006E-01  6.305807E+01  3.674591E-13 -2.442768E-13
       230  11  9.528693E+02  1.255657E+02  2.231215E-01  7.915850E+01  5.010806E-14  1.565877E-15
       230  12  9.633827E+02  1.147645E+02  3.891159E-02  9.511470E+01  2.380133E-13  3.151327E-13
       230  13  9.596282E+02  1.466051E+02  2.290422E-01  5.004822E+01 -2.672430E-13 -1.649390E-13
       230  14  9.655294E+02  1.358253E+02 -1.509404E-01  6.354734E+01 -3.173510E-13  2.714186E-14
       230  15  9.725168E+02  1.255400E+02 -1.862062E-02  7.685121E+01  1.503242E-13  2.160910E-13
       230  16  9.776672E+02  1.617960E+02  1.526591E+00  3.863330E+01 -5.344859E-13 -9.082085E-14
       230  17  9.790520E+02  1.511134E+02  5.292436E-01  4.921689E+01 -6.848101E-13  1.565877E-14
       230  18  9.823519E+02  1.413748E+02  7.127199E-01  5.955035E+01 -4.634995E-13  1.182237E-13
       230  19  9.426966E+02  1.364460E+02  2.863006E-01  6.305807E+01  6.952364E+00  5.884058E-03
       230  20  9.528693E+02  1.255657E+02  2.231215E-01  7.915850E+01  6.038647E+00 -1.970412E-01
       230  21  9.633827E+02  1.147645E+02  3.891159E-02  9.511470E+01  4.912160E+00 -3.921593E-01
       230  22  9.596282E+02  1.466051E+02  2.290422E-01  5.004822E+01  7.236220E+00  8.629096E-01
       230  23  9.655294E+02  1.358253E+02 -1.509404E-01  6.354734E+01  6.408344E+00  9.276130E-01
       230  24  9.725168E+02  1.255400E+02 -1.862062E-02  7.685121E+01  5.336014E+00  9.999272E-01
       230  25  9.776672E+02  1.617960E+02  1.526591E+00  3.863330E+01  7.539911E+00  1.600667E+00
       230  26  9.790520E+02  1.511134E+02  5.292436E-01  4.921689E+01  6.795614E+00  1.973336E+00
       230  27  9.823519E+02  1.413748E+02  7.127199E-01  5.955035E+01  5.770729E+00  2.352959E+00
       231   1  9.861236E+02  1.730155E+02  2.020110E+00  3.148954E+01 -7.807745E+00 -2.005937E+00
       231   2  9.883591E+02  1.632329E+02  1.863037E+00  4.000718E+01 -7.111552E+00 -2.509710E+00
       231   3  9.904614E+02  1.535085E+02  2.111044E+00  4.896153E+01 -6.302726E+00 -3.015810E+00
       231   4  9.906996E+02  1.978603E+02  2.597685E+00  1.828913E+01 -5.865981E+00 -2.634357E+00
       231   5  9.913752E+02  1.868968E+02  1.949117E+00  2.332844E+01 -5.374701E+00 -3.261645E+00
       231   6  9.923514E+02  1.762097E+02  1.975248E+00  2.886109E+01 -4.754088E+00 -3.890561E+00
       231   7  1.003368E+03  2.404894E+02  1.303638E+01  4.761812E+00 -3.978312E+00 -2.937615E+00
       231   8  1.002217E+03  2.278702E+02  1.138052E+01  5.902841E+00 -3.704396E+00 -3.714754E+00
       231   9  1.001870E+03  2.157800E+02  1.069993E+01  7.609149E+00 -3.281400E+00 -4.492353E+00
       231  10  9.861236E+02  1.730155E+02  2.020110E+00  3.148954E+01 -2.004322E-13 -1.644171E-13
       231  11  9.883591E+02  1.632329E+02  1.863037E+00  4.000718E+01 -7.349182E-13 -4.280063E-14
       231  12  9.904614E+02  1.535085E+02  2.111044E+00  4.896153E+01 -1.002161E-13  2.648942E-14
       231  13  9.906996E+02  1.978603E+02  2.597685E+00  1.828913E+01  2.609795E-13 -1.127431E-13
       231  14  9.913752E+02  1.868968E+02  1.949117E+00  2.332844E+01 -3.340537E-14 -7.203033E-14
       231  15  9.923514E+02  1.762097E+02  1.975248E+00  2.886109E+01 -1.294458E-13 -1.670269E-14
       231  16  1.003368E+03  2.404894E+02  1.303638E+01  4.761812E+00 -1.336215E-13  0.000000E+00
       231  17  1.002217E+03  2.278702E+02  1.138052E+01  5.902841E+00  3.507564E-13 -2.322717E-14
       231  18  1.001870E+03  2.157800E+02  1.069993E+01  7.609149E+00 -1.252701E-13 -1.003466E-13
       231  19  9.861236E+02  1.730155E+02  2.020110E+00  3.148954E+01  7.807745E+00  2.005937E+00
       231  20  9.883591E+02  1.632329E+02  1.863037E+00  4.000718E+01  7.111552E+00  2.509710E+00
       231  21  9.904614E+02  1.535085E+02  2.111044E+00  4.896153E+01  6.302726E+00  3.015810E+00
       231  22  9.906996E+02  1.978603E+02  2.597685E+00  1.828913E+01  5.865981E+00  2.634357E+00
       231  23  9.913752E+02  1.868968E+02  1.949117E+00  2.332844E+01  5.374701E+00  3.261645E+00
       231  24  9.923514E+02  1.762097E+02  1.975248E+00  2.886109E+01  4.754088E+00  3.890561E+00
       231  25  1.003368E+03  2.404894E+02  1.303638E+01  4.761812E+00  3.978312E+00  2.937615E+00
       231  26  1.002217E+03  2.278702E+02  1.138052E+01  5.902841E+00  3.704396E+00  3.714754E+00
       231  27  1.001870E+03  2.157800E+02  1.069993E+01  7.609149E+00  3.281400E+00  4.492353E+00
       232   1  9.850779E+02  1.858966E+02  2.661007E+00  3.514603E+00 -8.690109E+00 -3.127862E-01
       232   2  9.852329E+02  1.818926E+02  2.201354E+00  1.413982E+01 -8.484016E+00 -9.242012E-01
       232   3  9.861150E+02  1.783646E+02  2.633132E+00  2.494031E+01 -8.137179E+00 -1.538526E+00
       232   4  9.899841E+02  2.107502E+02  3.072475E+00  1.843405E+00 -6.481557E+00 -4.346412E-01
       232   5  9.895158E+02  2.063714E+02  2.341425E+00  8.208583E+00 -6.385117E+00 -1.194323E+00
       232   6  9.904292E+02  2.027788E+02  2.873248E+00  1.479105E+01 -6.129307E+00 -1.956012E+00
       232   7  1.003870E+03  2.546901E+02  1.437872E+01  4.202120E-01 -4.276380E+00 -3.598124E-01
       232   8  1.002608E+03  2.496341E+02  1.310725E+01  1.970211E+00 -4.298917E+00 -1.296487E+00
       232   9  1.003490E+03  2.457235E+02  1.351719E+01  3.794414E+00 -4.140062E+00 -2.233723E+00
       232  10  9.850779E+02  1.858966E+02  2.661007E+00  3.514603E+00  0.000000E+00  9.143089E-13
       232  11  9.852329E+02  1.818926E+02  2.201354E+00  1.413982E+01 -6.681074E-14  3.394364E-14
       232  12  9.861150E+02  1.783646E+02  2.633132E+00  2.494031E+01 -4.133915E-13 -7.517636E-13
       232  13  9.899841E+02  2.107502E+02  3.072475E+00  1.843405E+00  9.943317E-14  5.010806E-13
       232  14  9.895158E+02  2.063714E+02  2.341425E+00  8.208583E+00  2.296619E-14  9.878073E-14
       232  15  9.904292E+02  2.027788E+02  2.873248E+00  1.479105E+01  5.908575E-13 -3.865432E-13
       232  16  1.003870E+03  2.546901E+02  1.437872E+01  4.202120E-01  3.674591E-13 -1.336867E-13
       232  17  1.002608E+03  2.496341E+02  1.310725E+01  1.970211E+00  7.516208E-13  4.973290E-14
       232  18  1.003490E+03  2.457235E+02  1.351719E+01  3.794414E+00  5.219589E-13  4.095746E-14
       232  19  9.850779E+02  1.858966E+02  2.661007E+00  3.514603E+00  8.690109E+00  3.127862E-01
       232  20  9.852329E+02  1.818926E+02  2.201354E+00  1.413982E+01  8.484016E+00  9.242012E-01
       232  21  9.861150E+02  1.783646E+02  2.633132E+00  2.494031E+01  8.137179E+00  1.538526E+00
       232  22  9.899841E+02  2.107502E+02  3.072475E+00  1.843405E+00  6.481557E+00  4.346412E-01
       232  23  9.895158E+02  2.063714E+02  2.341425E+00  8.208583E+00  6.385117E+00  1.194323E+00
       232  24  9.904292E+02  2.027788E+02  2.873248E+00  1.479105E+01  6.129307E+00  1.956012E+00
       232  25  1.003870E+03  2.546901E+02  1.437872E+01  4.202120E-01  4.276380E+00  3.598124E-01
       232  26  1.002608E+03  2.496341E+02  1.310725E+01  1.970211E+00  4.298917E+00  1.296487E+00
       232  27  1.003490E+03  2.457235E+02  1.351719E+01  3.794414E+00  4.140062E+00  2.233723E+00
       233   1  5.035941E+02  7.203551E+01 -3.241400E+01  2.414292E+02  8.585546E+01  1.257137E+02
       233   2  5.662479E+02 -2.865984E+02 -4.742682E+01  2.785947E+02  4.022151E+01  1.082775E+02
       233   3  7.250916E+02 -3.800536E+02 -9.551973E+00  3.295496E+02 -5.357281E+00  9.300286E+01
       233   4  1.915849E+02 -3.052613E+02 -9.619025E+01  3.639798E+01  4.758608E+01  1.247911E+02
       233   5  3.106574E+02 -4.225999E+02 -6.284091E+01  1.803883E+02  8.105454E+00  1.008035E+02
       233   6  4.784409E+02 -3.923303E+02 -1.584848E+01  3.084955E+02 -3.143510E+01  8.399732E+01
       233   7  8.062532E+00 -6.459227E+02 -1.322902E+02 -1.091713E+02  8.452111E+00  1.149921E+02
       233   8  1.384768E+02 -5.596326E+02 -7.348689E+01  1.155348E+02 -2.288929E+01  8.901601E+01
       233   9  2.781477E+02 -4.278327E+02 -3.323600E+01  3.110349E+02 -5.438477E+01  7.296070E+01
       233  10  5.035941E+02  7.203551E+01 -3.241400E+01  2.414292E+02  7.933776E-14 -1.336215E-13
       233  11  5.662479E+02 -2.865984E+02 -4.742682E+01  2.785947E+02  5.010806E-14  2.087836E-13
       233  12  7.250916E+02 -3.800536E+02 -9.551973E+00  3.295496E+02 -1.210945E-13  3.591077E-13
       233  13  1.915849E+02 -3.052613E+02 -9.619025E+01  3.639798E+01  3.465807E-13 -1.670269E-13
       233  14  3.106574E+02 -4.225999E+02 -6.284091E+01  1.803883E+02  5.177832E-13  2.922970E-14
       233  15  4.784409E+02 -3.923303E+02 -1.584848E+01  3.084955E+02  2.505403E-14  9.499652E-14
       233  16  8.062532E+00 -6.459227E+02 -1.322902E+02 -1.091713E+02  4.895975E-13 -7.516208E-14
       233  17  1.384768E+02 -5.596326E+02 -7.348689E+01  1.155348E+02  1.451046E-13  3.758104E-14
       233  18  2.781477E+02 -4.278327E+02 -3.323600E+01  3.110349E+02 -4.363577E-13 -5.167393E-14
       233  19  5.035941E+02  7.203551E+01 -3.241400E+01  2.414292E+02 -8.585546E+01 -1.257137E+02
       233  20  5.662479E+02 -2.865984E+02 -4.742682E+01  2.785947E+02 -4.022151E+01 -1.082775E+02
       233  21  7.250916E+02 -3.800536E+02 -9.551973E+00  3.295496E+02  5.357281E+00 -9.300286E+01
       233  22  1.915849E+02 -3.052613E+02 -9.619025E+01  3.639798E+01 -4.758608E+01 -1.247911E+02
       233  23  3.106574E+02 -4.225999E+02 -6.284091E+01  1.803883E+02 -8.105454E+00 -1.008035E+02
       233  24  4.784409E+02 -3.923303E+02 -1.584848E+01  3.084955E+02  3.143510E+01 -8.399732E+01
       233  25  8.062532E+00 -6.459227E+02 -1.322902E+02 -1.091713E+02 -8.452111E+00 -1.149921E+02
       233  26  1.384768E+02 -5.596326E+02 -7.348689E+01  1.155348E+02  2.288929E+01 -8.901601E+01
       233  27  2.781477E+02 -4.278327E+02 -3.323600E+01  3.110349E+02  5.438477E+01 -7.296070E+01
       234   1  7.364378E+02 -3.757744E+02 -1.452118E+01  3.635394E+02 -1.072545E+01  7.697708E+01
       234   2  7.419303E+02 -2.547115E+02  3.296665E+00  3.353517E+02 -1.710287E+01  5.577726E+01
       234   3  7.299819E+02 -1.733872E+02 -3.079856E+00  3.263903E+02 -2.323224E+01  4.184338E+01
       234   4  5.183437E+02 -3.273316E+02 -7.361049E+00  3.323288E+02 -3.058297E+01  6.743000E+01
       234   5  5.562496E+02 -2.157487E+02  2.858086E-03  3.047879E+02 -3.106921E+01  4.745059E+01
       234   6  5.774379E+02 -1.451696E+02 -1.015990E+01  2.980383E+02 -3.143180E+01  3.548466E+01
       234   7  3.361773E+02 -2.614682E+02 -4.925819E-01  2.899759E+02 -4.865509E+01  5.713672E+01
       234   8  4.125628E+02 -1.557423E+02  3.369486E+00  2.625219E+02 -4.263544E+01  3.830910E+01
       234   9  4.723612E+02 -9.300134E+01 -4.020039E+00  2.576481E+02 -3.666358E+01  2.833935E+01
       234  10  7.364378E+02 -3.757744E+02 -1.452118E+01  3.635394E+02 -1.096114E-13  3.465807E-13
       234  11  7.419303E+02 -2.547115E+02  3.296665E+00  3.353517E+02 -1.273580E-13  2.213106E-13
       234  12  7.299819E+02 -1.733872E+02 -3.079856E+00  3.263903E+02  2.484524E-13  1.487583E-13
       234  13  5.183437E+02 -3.273316E+02 -7.361049E+00  3.323288E+02 -4.217428E-13  6.576682E-14
       234  14  5.562496E+02 -2.157487E+02  2.858086E-03  3.047879E+02 -4.175671E-15 -7.777188E-14
       234  15  5.774379E+02 -1.451696E+02 -1.015990E+01  2.980383E+02  5.115197E-13 -1.148310E-13
       234  16  3.361773E+02 -2.614682E+02 -4.925819E-01  2.899759E+02 -3.507564E-13 -1.879052E-13
       234  17  4.125628E+02 -1.557423E+02  3.369486E+00  2.625219E+02  5.219589E-16 -3.799861E-13
       234  18  4.723612E+02 -9.300134E+01 -4.020039E+00  2.576481E+02  5.845940E-13 -4.337479E-13
       234  19  7.364378E+02 -3.757744E+02 -1.452118E+01  3.635394E+02  1.072545E+01 -7.697708E+01
       234  20  7.419303E+02 -2.547115E+02  3.296665E+00  3.353517E+02  1.710287E+01 -5.577726E+01
       234  21  7.299819E+02 -1.733872E+02 -3.079856E+00  3.263903E+02  2.323224E+01 -4.184338E+01
       234  22  5.183437E+02 -3.273316E+02 -7.361049E+00  3.323288E+02  3.058297E+01 -6.743000E+01
       234  23  5.562496E+02 -2.157487E+02  2.858086E-03  3.047879E+02  3.106921E+01 -4.745059E+01
       234  24  5.774379E+02 -1.451696E+02 -1.015990E+01  2.980383E+02  3.143180E+01 -3.548466E+01
       234  25  3.361773E+02 -2.614682E+02 -4.925819E-01  2.899759E+02  4.865509E+01 -5.713672E+01
       234  26  4.125628E+02 -1.557423E+02  3.369486E+00  2.625219E+02  4.263544E+01 -3.830910E+01
       234  27  4.723612E+02 -9.300134E+01 -4.020039E+00  2.576481E+02  3.666358E+01 -2.833935E+01
       235   1  2.165141E+02 -3.159488E+02 -3.342099E+01  2.353411E+02 -5.665241E+01  4.556223E+01
       235   2  3.357563E+02 -1.455118E+02 -3.704182E+00  2.195882E+02 -4.793274E+01  3.318351E+01
       235   3  4.252554E+02 -5.140808E+01  3.657864E+00  2.090334E+02 -3.924254E+01  2.359637E+01
       235   4  1.302548E+02 -2.747221E+02 -2.462722E+01  1.391181E+02 -6.505170E+01  2.716616E+01
       235   5  2.519784E+02 -1.225094E+02 -8.250444E+00  1.296262E+02 -5.380469E+01  1.854087E+01
       235   6  3.461587E+02 -4.391912E+01 -9.797903E+00  1.254230E+02 -4.257414E+01  1.270428E+01
       235   7  1.184121E+02 -2.021407E+02 -3.980173E+00  2.819867E+01 -6.968749E+01  7.927984E+00
       235   8  2.457539E+02 -6.531079E+01  5.114554E+00  2.493549E+01 -5.591281E+01  3.022863E+00
       235   9  3.477514E+02  5.964149E-01  7.120041E-01  2.705000E+01 -4.214181E+01  9.032434E-01
       235  10  2.165141E+02 -3.159488E+02 -3.342099E+01  2.353411E+02 -4.864657E-13 -3.465807E-13
       235  11  3.357563E+02 -1.455118E+02 -3.704182E+00  2.195882E+02 -4.384455E-14 -1.832076E-13
       235  12  4.252554E+02 -5.140808E+01  3.657864E+00  2.090334E+02  4.300942E-13  5.506667E-14
       235  13  1.302548E+02 -2.747221E+02 -2.462722E+01  1.391181E+02 -2.651551E-13  4.332259E-14
       235  14  2.519784E+02 -1.225094E+02 -8.250444E+00  1.296262E+02 -3.163071E-13 -9.421359E-14
       235  15  3.461587E+02 -4.391912E+01 -9.797903E+00  1.254230E+02  7.077763E-13 -1.884272E-13
       235  16  1.184121E+02 -2.021407E+02 -3.980173E+00  2.819867E+01 -3.778983E-13  4.864657E-13
       235  17  2.457539E+02 -6.531079E+01  5.114554E+00  2.493549E+01 -1.304897E-14  3.966888E-14
       235  18  3.477514E+02  5.964149E-01  7.120041E-01  2.705000E+01  7.839823E-13 -3.837703E-13
       235  19  2.165141E+02 -3.159488E+02 -3.342099E+01  2.353411E+02  5.665241E+01 -4.556223E+01
       235  20  3.357563E+02 -1.455118E+02 -3.704182E+00  2.195882E+02  4.793274E+01 -3.318351E+01
       235  21  4.252554E+02 -5.140808E+01  3.657864E+00  2.090334E+02  3.924254E+01 -2.359637E+01
       235  22  1.302548E+02 -2.747221E+02 -2.462722E+01  1.391181E+02  6.505170E+01 -2.716616E+01
       235  23  2.519784E+02 -1.225094E+02 -8.250444E+00  1.296262E+02  5.380469E+01 -1.854087E+01
       235  24  3.461587E+02 -4.391912E+01 -9.797903E+00  1.254230E+02  4.257414E+01 -1.270428E+01
       235  25  1.184121E+02 -2.021407E+02 -3.980173E+00  2.819867E+01  6.968749E+01 -7.927984E+00
       235  26  2.457539E+02 -6.531079E+01  5.114554E+00  2.493549E+01  5.591281E+01 -3.022863E+00
       235  27  3.477514E+02  5.964149E-01  7.120041E-01  2.705000E+01  4.214181E+01 -9.032434E-01
       236   1 -1.062096E+02 -9.614221E+02 -2.016005E+02 -1.432996E+02 -1.214651E+01  9.908990E+01
       236   2  1.256074E+02 -4.992812E+02 -1.974628E+01  8.217880E+01 -3.898459E+01  7.473849E+01
       236   3  1.992376E+02 -3.876757E+02 -1.994475E+01  2.663612E+02 -6.591579E+01  5.689653E+01
       236   4 -1.540926E+02 -1.273144E+03 -2.387846E+02 -1.082851E+02 -3.998424E+01  5.804802E+01
       236   5  3.808153E+01 -6.097762E+02 -3.391544E+01  4.315655E+01 -5.919376E+01  4.154532E+01
       236   6  4.225102E+01 -3.736854E+02 -3.427711E+01  1.526444E+02 -7.854288E+01  3.413313E+01
       236   7 -6.311711E+01 -1.329094E+03 -1.996334E+02 -3.815150E+01 -5.670830E+01  1.109911E+01
       236   8  2.651387E+01 -6.348786E+02 -3.259531E+01  2.047004E+01 -6.747878E+01  4.729502E+00
       236   9 -6.131483E+01 -3.467323E+02 -5.247246E+01  4.532434E+01 -7.829901E+01  8.507443E+00
       236  10 -1.062096E+02 -9.614221E+02 -2.016005E+02 -1.432996E+02  2.839457E-13 -2.755943E-13
       236  11  1.256074E+02 -4.992812E+02 -1.974628E+01  8.217880E+01  8.768910E-14 -3.632834E-13
       236  12  1.992376E+02 -3.876757E+02 -1.994475E+01  2.663612E+02 -4.634995E-13 -3.862496E-13
       236  13 -1.540926E+02 -1.273144E+03 -2.387846E+02 -1.082851E+02  1.837295E-13 -9.186477E-14
       236  14  3.808153E+01 -6.097762E+02 -3.391544E+01  4.315655E+01  4.008645E-13 -5.010806E-14
       236  15  4.225102E+01 -3.736854E+02 -3.427711E+01  1.526444E+02 -3.591077E-13  4.802022E-14
       236  16 -6.311711E+01 -1.329094E+03 -1.996334E+02 -3.815150E+01  2.484524E-13  8.351343E-14
       236  17  2.651387E+01 -6.348786E+02 -3.259531E+01  2.047004E+01  1.837295E-13  1.920809E-13
       236  18 -6.131483E+01 -3.467323E+02 -5.247246E+01  4.532434E+01 -1.879052E-13  4.572360E-13
       236  19 -1.062096E+02 -9.614221E+02 -2.016005E+02 -1.432996E+02  1.214651E+01 -9.908990E+01
       236  20  1.256074E+02 -4.992812E+02 -1.974628E+01  8.217880E+01  3.898459E+01 -7.473849E+01
       236  21  1.992376E+02 -3.876757E+02 -1.994475E+01  2.663612E+02  6.591579E+01 -5.689653E+01
       236  22 -1.540926E+02 -1.273144E+03 -2.387846E+02 -1.082851E+02  3.998424E+01 -5.804802E+01
       236  23  3.808153E+01 -6.097762E+02 -3.391544E+01  4.315655E+01  5.919376E+01 -4.154532E+01
       236  24  4.225102E+01 -3.736854E+02 -3.427711E+01  1.526444E+02  7.854288E+01 -3.413313E+01
       236  25 -6.311711E+01 -1.329094E+03 -1.996334E+02 -3.815150E+01  5.670830E+01 -1.109911E+01
       236  26  2.651387E+01 -6.348786E+02 -3.259531E+01  2.047004E+01  6.747878E+01 -4.729502E+00
       236  27 -6.131483E+01 -3.467323E+02 -5.247246E+01  4.532434E+01  7.829901E+01 -8.507443E+00
       237   1  9.581576E+02  1.118221E+02  1.003477E+00  1.049777E+02 -4.992549E+00  1.295747E+00
       237   2  9.414521E+02  1.211660E+02 -3.017105E-01  8.764975E+01 -6.269603E+00  9.370433E-01
       237   3  9.317236E+02  1.334320E+02  9.194988E-01  6.964245E+01 -7.281011E+00  5.658985E-01
       237   4  9.379260E+02  1.060991E+02  7.625933E-02  1.182396E+02 -5.566160E+00  2.976088E+00
       237   5  9.171746E+02  1.159083E+02 -9.625006E-01  9.837128E+01 -6.816131E+00  2.274794E+00
       237   6  9.030952E+02  1.284374E+02 -1.690992E-02  7.773345E+01 -7.790999E+00  1.552285E+00
       237   7  9.190990E+02  1.021705E+02  9.584045E-01  1.337137E+02 -6.140353E+00  4.646195E+00
       237   8  8.942265E+02  1.124857E+02  7.990694E-02  1.113402E+02 -7.363665E+00  3.590898E+00
       237   9  8.757175E+02  1.253243E+02  6.444791E-01  8.810649E+01 -8.302187E+00  2.504766E+00
       237  10  9.581576E+02  1.118221E+02  1.003477E+00  1.049777E+02  2.338376E-13  3.006483E-13
       237  11  9.414521E+02  1.211660E+02 -3.017105E-01  8.764975E+01  3.674591E-13 -5.428373E-14
       237  12  9.317236E+02  1.334320E+02  9.194988E-01  6.964245E+01  2.547160E-13 -2.993434E-13
       237  13  9.379260E+02  1.060991E+02  7.625933E-02  1.182396E+02 -2.521062E-13  1.586755E-13
       237  14  9.171746E+02  1.159083E+02 -9.625006E-01  9.837128E+01 -2.782041E-13 -1.127431E-13
       237  15  9.030952E+02  1.284374E+02 -1.690992E-02  7.773345E+01 -1.837295E-13 -3.987766E-13
       237  16  9.190990E+02  1.021705E+02  9.584045E-01  1.337137E+02 -1.002161E-13  2.066957E-13
       237  17  8.942265E+02  1.124857E+02  7.990694E-02  1.113402E+02 -5.010806E-14 -1.879052E-14
       237  18  8.757175E+02  1.253243E+02  6.444791E-01  8.810649E+01 -5.261346E-13 -3.249194E-13
       237  19  9.581576E+02  1.118221E+02  1.003477E+00  1.049777E+02  4.992549E+00 -1.295747E+00
       237  20  9.414521E+02  1.211660E+02 -3.017105E-01  8.764975E+01  6.269603E+00 -9.370433E-01
       237  21  9.317236E+02  1.334320E+02  9.194988E-01  6.964245E+01  7.281011E+00 -5.658985E-01
       237  22  9.379260E+02  1.060991E+02  7.625933E-02  1.182396E+02  5.566160E+00 -2.976088E+00
       237  23  9.171746E+02  1.159083E+02 -9.625006E-01  9.837128E+01  6.816131E+00 -2.274794E+00
       237  24  9.030952E+02  1.284374E+02 -1.690992E-02  7.773345E+01  7.790999E+00 -1.552285E+00
       237  25  9.190990E+02  1.021705E+02  9.584045E-01  1.337137E+02  6.140353E+00 -4.646195E+00
       237  26  8.942265E+02  1.124857E+02  7.990694E-02  1.113402E+02  7.363665E+00 -3.590898E+00
       237  27  8.757175E+02  1.253243E+02  6.444791E-01  8.810649E+01  8.302187E+00 -2.504766E+00
       238   1  9.268936E+02  1.389116E+02  1.272139E+00  5.606799E+01 -7.740495E+00  6.534960E-01
       238   2  9.187597E+02  1.413764E+02 -3.265383E-01  3.201092E+01 -8.314911E+00  2.910140E-01
       238   3  9.187039E+02  1.471829E+02  1.088213E+00  7.726982E+00 -8.546581E+00 -8.751783E-02
       238   4  8.965217E+02  1.332206E+02 -5.598128E-03  6.306970E+01 -8.230403E+00  1.488235E+00
       238   5  8.879677E+02  1.360058E+02 -1.256455E+00  3.585109E+01 -8.779009E+00  7.415571E-01
       238   6  8.874309E+02  1.419918E+02  3.390322E-02  8.280415E+00 -8.973429E+00 -3.242589E-02
       238   7  8.679322E+02  1.311010E+02  9.342348E-01  7.071915E+01 -8.720588E+00  2.313518E+00
       238   8  8.589755E+02  1.343519E+02  1.517998E-02  4.027770E+01 -9.243472E+00  1.170070E+00
       238   9  8.579831E+02  1.406757E+02  1.171530E+00  9.351919E+00 -9.400413E+00 -1.298090E-02
       238  10  9.268936E+02  1.389116E+02  1.272139E+00  5.606799E+01  4.676752E-13  1.409289E-13
       238  11  9.187597E+02  1.413764E+02 -3.265383E-01  3.201092E+01 -3.340537E-14  7.724992E-14
       238  12  9.187039E+02  1.471829E+02  1.088213E+00  7.726982E+00 -5.094319E-13  5.885087E-14
       238  13  8.965217E+02  1.332206E+02 -5.598128E-03  6.306970E+01  2.925580E-13  1.899930E-13
       238  14  8.879677E+02  1.360058E+02 -1.256455E+00  3.585109E+01 -3.387513E-13  2.380133E-13
       238  15  8.874309E+02  1.419918E+02  3.390322E-02  8.280415E+00  3.982547E-13  2.508013E-13
       238  16  8.679322E+02  1.311010E+02  9.342348E-01  7.071915E+01 -1.002161E-13 -8.351343E-15
       238  17  8.589755E+02  1.343519E+02  1.517998E-02  4.027770E+01 -3.841618E-13  8.246951E-14
       238  18  8.579831E+02  1.406757E+02  1.171530E+00  9.351919E+00  4.175671E-13  1.875137E-13
       238  19  9.268936E+02  1.389116E+02  1.272139E+00  5.606799E+01  7.740495E+00 -6.534960E-01
       238  20  9.187597E+02  1.413764E+02 -3.265383E-01  3.201092E+01  8.314911E+00 -2.910140E-01
       238  21  9.187039E+02  1.471829E+02  1.088213E+00  7.726982E+00  8.546581E+00  8.751783E-02
       238  22  8.965217E+02  1.332206E+02 -5.598128E-03  6.306970E+01  8.230403E+00 -1.488235E+00
       238  23  8.879677E+02  1.360058E+02 -1.256455E+00  3.585109E+01  8.779009E+00 -7.415571E-01
       238  24  8.874309E+02  1.419918E+02  3.390322E-02  8.280415E+00  8.973429E+00  3.242589E-02
       238  25  8.679322E+02  1.311010E+02  9.342348E-01  7.071915E+01  8.720588E+00 -2.313518E+00
       238  26  8.589755E+02  1.343519E+02  1.517998E-02  4.027770E+01  9.243472E+00 -1.170070E+00
       238  27  8.579831E+02  1.406757E+02  1.171530E+00  9.351919E+00  9.400413E+00  1.298090E-02
       239   1  8.490537E+02  1.301772E+02  1.365936E+00  7.531228E+01 -9.699509E+00  2.902824E+00
       239   2  8.365774E+02  1.324289E+02 -7.406326E-01  4.305851E+01 -1.026649E+01  1.509643E+00
       239   3  8.375372E+02  1.401214E+02  1.319759E+00  9.804946E+00 -1.040033E+01  6.156199E-02
       239   4  8.080774E+02  1.250186E+02  1.721185E-01  8.408159E+01 -1.135488E+01  3.969709E+00
       239   5  7.950930E+02  1.281951E+02 -1.585440E+00  4.792742E+01 -1.187739E+01  2.086592E+00
       239   6  7.956067E+02  1.367217E+02  3.324972E-01  1.063407E+01 -1.195156E+01  1.320366E-01
       239   7  7.679012E+02  1.200095E+02  1.269658E+00  9.376272E+01 -1.301008E+01  5.042661E+00
       239   8  7.542773E+02  1.239867E+02 -3.434211E-01  5.360975E+01 -1.348848E+01  2.652292E+00
       239   9  7.542201E+02  1.332256E+02  1.230281E+00  1.216823E+01 -1.350290E+01  1.724255E-01
       239  10  8.490537E+02  1.301772E+02  1.365936E+00  7.531228E+01 -2.672430E-13 -1.910370E-13
       239  11  8.365774E+02  1.324289E+02 -7.406326E-01  4.305851E+01 -1.503242E-13 -1.043918E-14
       239  12  8.375372E+02  1.401214E+02  1.319759E+00  9.804946E+00  2.505403E-13  1.293153E-13
       239  13  8.080774E+02  1.250186E+02  1.721185E-01  8.408159E+01  2.429719E-13 -8.768910E-14
       239  14  7.950930E+02  1.281951E+02 -1.585440E+00  4.792742E+01  2.003017E-13 -5.741548E-14
       239  15  7.956067E+02  1.367217E+02  3.324972E-01  1.063407E+01  8.775434E-15 -2.453207E-14
       239  16  7.679012E+02  1.200095E+02  1.269658E+00  9.376272E+01  1.002161E-13 -1.565877E-14
       239  17  7.542773E+02  1.239867E+02 -3.434211E-01  5.360975E+01  8.351343E-14 -3.549321E-14
       239  18  7.542201E+02  1.332256E+02  1.230281E+00  1.216823E+01  1.377972E-13 -1.304897E-16
       239  19  8.490537E+02  1.301772E+02  1.365936E+00  7.531228E+01  9.699509E+00 -2.902824E+00
       239  20  8.365774E+02  1.324289E+02 -7.406326E-01  4.305851E+01  1.026649E+01 -1.509643E+00
       239  21  8.375372E+02  1.401214E+02  1.319759E+00  9.804946E+00  1.040033E+01 -6.156199E-02
       239  22  8.080774E+02  1.250186E+02  1.721185E-01  8.408159E+01  1.135488E+01 -3.969709E+00
       239  23  7.950930E+02  1.281951E+02 -1.585440E+00  4.792742E+01  1.187739E+01 -2.086592E+00
       239  24  7.956067E+02  1.367217E+02  3.324972E-01  1.063407E+01  1.195156E+01 -1.320366E-01
       239  25  7.679012E+02  1.200095E+02  1.269658E+00  9.376272E+01  1.301008E+01 -5.042661E+00
       239  26  7.542773E+02  1.239867E+02 -3.434211E-01  5.360975E+01  1.348848E+01 -2.652292E+00
       239  27  7.542201E+02  1.332256E+02  1.230281E+00  1.216823E+01  1.350290E+01 -1.724255E-01
       240   1  9.047973E+02  9.876745E+01  5.774520E-01  1.430508E+02 -6.751997E+00  5.734952E+00
       240   2  8.754125E+02  1.090388E+02 -9.146709E-01  1.193761E+02 -8.179791E+00  4.465624E+00
       240   3  8.577026E+02  1.243213E+02  1.118039E+00  9.388823E+01 -9.240200E+00  3.149712E+00
       240   4  8.787578E+02  9.075419E+01  3.899005E-01  1.582940E+02 -8.265823E+00  7.901155E+00
       240   5  8.433036E+02  1.027013E+02 -1.024868E+00  1.319725E+02 -9.765971E+00  6.175090E+00
       240   6  8.191600E+02  1.194531E+02  4.172936E-01  1.037606E+02 -1.089172E+01  4.389358E+00
       240   7  8.526270E+02  7.961759E+01  1.316665E+00  1.769318E+02 -9.771610E+00  1.020935E+01
       240   8  8.109178E+02  9.304708E+01 -1.497558E-01  1.480253E+02 -1.134601E+01  8.017808E+00
       240   9  7.801428E+02  1.110665E+02  5.667888E-01  1.171527E+02 -1.253891E+01  5.752679E+00
       240  10  9.047973E+02  9.876745E+01  5.774520E-01  1.430508E+02 -1.336215E-13  1.638951E-13
       240  11  8.754125E+02  1.090388E+02 -9.146709E-01  1.193761E+02 -2.338376E-13 -3.131754E-15
       240  12  8.577026E+02  1.243213E+02  1.118039E+00  9.388823E+01 -1.586755E-13 -2.367084E-13
       240  13  8.787578E+02  9.075419E+01  3.899005E-01  1.582940E+02  4.958610E-14 -2.922970E-14
       240  14  8.433036E+02  1.027013E+02 -1.024868E+00  1.319725E+02  6.879419E-13 -6.681074E-14
       240  15  8.191600E+02  1.194531E+02  4.172936E-01  1.037606E+02 -9.917219E-15 -6.159115E-14
       240  16  8.526270E+02  7.961759E+01  1.316665E+00  1.769318E+02  3.006483E-13 -2.943848E-13
       240  17  8.109178E+02  9.304708E+01 -1.497558E-01  1.480253E+02  3.340537E-13 -7.516208E-14
       240  18  7.801428E+02  1.110665E+02  5.667888E-01  1.171527E+02  2.129592E-13  1.349264E-13
       240  19  9.047973E+02  9.876745E+01  5.774520E-01  1.430508E+02  6.751997E+00 -5.734952E+00
       240  20  8.754125E+02  1.090388E+02 -9.146709E-01  1.193761E+02  8.179791E+00 -4.465624E+00
       240  21  8.577026E+02  1.243213E+02  1.118039E+00  9.388823E+01  9.240200E+00 -3.149712E+00
       240  22  8.787578E+02  9.075419E+01  3.899005E-01  1.582940E+02  8.265823E+00 -7.901155E+00
       240  23  8.433036E+02  1.027013E+02 -1.024868E+00  1.319725E+02  9.765971E+00 -6.175090E+00
       240  24  8.191600E+02  1.194531E+02  4.172936E-01  1.037606E+02  1.089172E+01 -4.389358E+00
       240  25  8.526270E+02  7.961759E+01  1.316665E+00  1.769318E+02  9.771610E+00 -1.020935E+01
       240  26  8.109178E+02  9.304708E+01 -1.497558E-01  1.480253E+02  1.134601E+01 -8.017808E+00
       240  27  7.801428E+02  1.110665E+02  5.667888E-01  1.171527E+02  1.253891E+01 -5.752679E+00
       241   1  8.841559E+02  2.364351E+02 -3.430578E+01  5.618185E+02  1.229445E+02  1.070768E+02
       241   2  1.584342E+03  3.362704E+02  4.681973E+01  7.662922E+02  1.335864E+02  7.207540E+01
       241   3  2.313746E+03  3.392553E+02  1.202917E+02  8.262326E+02  1.368749E+02  3.048544E+01
       241   4  1.529378E+03  1.686396E+02  5.719429E+01  3.578873E+02  1.145539E+02  6.499757E+01
       241   5  1.902370E+03  2.522947E+02  7.108950E+01  4.267874E+02  1.173220E+02  3.036650E+01
       241   6  2.340439E+03  3.002852E+02  1.063050E+02  3.907844E+02  1.167715E+02 -8.478973E+00
       241   7  1.735854E+03 -7.132432E+01  7.706367E+00  1.625480E+02  9.985878E+01  2.262852E+01
       241   8  1.917925E+03  5.143855E+01  7.185609E+00  1.297584E+02  9.925918E+01 -1.134754E+01
       241   9  2.202500E+03  2.001529E+02  5.755846E+01  9.093927E+00  9.841702E+01 -4.746025E+01
       241  10  8.841559E+02  2.364351E+02 -3.430578E+01  5.618185E+02 -4.008645E-13  3.006483E-13
       241  11  1.584342E+03  3.362704E+02  4.681973E+01  7.662922E+02 -1.670269E-13  2.839457E-13
       241  12  2.313746E+03  3.392553E+02  1.202917E+02  8.262326E+02  7.516208E-14  1.002161E-13
       241  13  1.529378E+03  1.686396E+02  5.719429E+01  3.578873E+02 -8.351343E-14 -4.906414E-14
       241  14  1.902370E+03  2.522947E+02  7.108950E+01  4.267874E+02 -1.670269E-13  1.068058E-13
       241  15  2.340439E+03  3.002852E+02  1.063050E+02  3.907844E+02 -1.169188E-13 -1.122212E-14
       241  16  1.735854E+03 -7.132432E+01  7.706367E+00  1.625480E+02  1.419728E-13 -3.006483E-13
       241  17  1.917925E+03  5.143855E+01  7.185609E+00  1.297584E+02  1.252701E-13 -3.006483E-13
       241  18  2.202500E+03  2.001529E+02  5.755846E+01  9.093927E+00 -1.419728E-13  3.758104E-14
       241  19  8.841559E+02  2.364351E+02 -3.430578E+01  5.618185E+02 -1.229445E+02 -1.070768E+02
       241  20  1.584342E+03  3.362704E+02  4.681973E+01  7.662922E+02 -1.335864E+02 -7.207540E+01
       241  21  2.313746E+03  3.392553E+02  1.202917E+02  8.262326E+02 -1.368749E+02 -3.048544E+01
       241  22  1.529378E+03  1.686396E+02  5.719429E+01  3.578873E+02 -1.145539E+02 -6.499757E+01
       241  23  1.902370E+03  2.522947E+02  7.108950E+01  4.267874E+02 -1.173220E+02 -3.036650E+01
       241  24  2.340439E+03  3.002852E+02  1.063050E+02  3.907844E+02 -1.167715E+02  8.478973E+00
       241  25  1.735854E+03 -7.132432E+01  7.706367E+00  1.625480E+02 -9.985878E+01 -2.262852E+01
       241  26  1.917925E+03  5.143855E+01  7.185609E+00  1.297584E+02 -9.925918E+01  1.134754E+01
       241  27  2.202500E+03  2.001529E+02  5.755846E+01  9.093927E+00 -9.841702E+01  4.746025E+01
       242   1  2.889580E+03  3.875825E+02  2.303280E+02  7.634714E+02  1.217156E+02  5.506182E+00
       242   2  3.508023E+03  3.115457E+02  2.998300E+02  5.044751E+02  7.325605E+01 -3.094383E+01
       242   3  3.751983E+03  1.386157E+02  2.806404E+02  1.273929E+02  1.680475E+01 -5.143298E+01
       242   4  2.432605E+03  2.527968E+02  6.235123E+01  3.474527E+02  9.871617E+01 -3.137866E+01
       242   5  2.694942E+03  2.363367E+02  6.845798E+01  2.314977E+02  5.847350E+01 -6.296237E+01
       242   6  2.858275E+03  2.221430E+02  8.724071E+01  4.025758E+01  1.281164E+01 -7.617474E+01
       242   7  2.266870E+03  2.510094E+02  5.170470E+01 -1.091210E+01  7.609050E+01 -6.826724E+01
       242   8  2.317782E+03  3.534944E+02  5.025096E+01  1.313272E+01  4.809221E+01 -9.505137E+01
       242   9  2.402330E+03  4.990124E+02  1.024709E+02 -8.981676E+00  1.629805E+01 -1.009593E+02
       242  10  2.889580E+03  3.875825E+02  2.303280E+02  7.634714E+02  3.173510E-13  6.681074E-14
       242  11  3.508023E+03  3.115457E+02  2.998300E+02  5.044751E+02 -3.340537E-14 -1.670269E-14
       242  12  3.751983E+03  1.386157E+02  2.806404E+02  1.273929E+02 -1.336215E-13 -1.210945E-13
       242  13  2.432605E+03  2.527968E+02  6.235123E+01  3.474527E+02  3.340537E-14  1.852954E-14
       242  14  2.694942E+03  2.363367E+02  6.845798E+01  2.314977E+02  3.340537E-14 -1.800758E-13
       242  15  2.858275E+03  2.221430E+02  8.724071E+01  4.025758E+01 -2.505403E-14  2.257472E-14
       242  16  2.266870E+03  2.510094E+02  5.170470E+01 -1.091210E+01  5.010806E-14  0.000000E+00
       242  17  2.317782E+03  3.534944E+02  5.025096E+01  1.313272E+01  6.054723E-14 -6.681074E-14
       242  18  2.402330E+03  4.990124E+02  1.024709E+02 -8.981676E+00  1.294458E-13 -1.002161E-13
       242  19  2.889580E+03  3.875825E+02  2.303280E+02  7.634714E+02 -1.217156E+02 -5.506182E+00
       242  20  3.508023E+03  3.115457E+02  2.998300E+02  5.044751E+02 -7.325605E+01  3.094383E+01
       242  21  3.751983E+03  1.386157E+02  2.806404E+02  1.273929E+02 -1.680475E+01  5.143298E+01
       242  22  2.432605E+03  2.527968E+02  6.235123E+01  3.474527E+02 -9.871617E+01  3.137866E+01
       242  23  2.694942E+03  2.363367E+02  6.845798E+01  2.314977E+02 -5.847350E+01  6.296237E+01
       242  24  2.858275E+03  2.221430E+02  8.724071E+01  4.025758E+01 -1.281164E+01  7.617474E+01
       242  25  2.266870E+03  2.510094E+02  5.170470E+01 -1.091210E+01 -7.609050E+01  6.826724E+01
       242  26  2.317782E+03  3.534944E+02  5.025096E+01  1.313272E+01 -4.809221E+01  9.505137E+01
       242  27  2.402330E+03  4.990124E+02  1.024709E+02 -8.981676E+00 -1.629805E+01  1.009593E+02
       243   1  2.152288E+03  2.832839E+02  6.075816E+01 -4.816339E+01  6.227661E+01 -6.863320E+01
       243   2  2.159081E+03  3.478179E+02  4.397855E+01 -3.130067E+01  3.929207E+01 -8.786606E+01
       243   3  2.160805E+03  3.794454E+02  4.151207E+01 -1.354471E+01  1.525996E+01 -1.003772E+02
       243   4  1.875730E+03  2.135499E+02  1.242432E+01 -1.120502E+02  4.444560E+01 -6.592054E+01
       243   5  1.875484E+03  2.793514E+02  7.198082E+00 -6.838954E+01  2.672036E+01 -8.145756E+01
       243   6  1.865810E+03  3.082175E+02  7.724290E+00 -2.258344E+01  8.025554E+00 -9.010631E+01
       243   7  1.704082E+03  1.880599E+02  6.667203E+00 -1.759411E+02  2.968975E+01 -6.322448E+01
       243   8  1.699145E+03  2.551420E+02  1.068689E+01 -1.054642E+02  1.735798E+01 -7.505902E+01
       243   9  1.680570E+03  2.813237E+02  1.196276E+01 -3.158436E+01  4.140009E+00 -7.983793E+01
       243  10  2.152288E+03  2.832839E+02  6.075816E+01 -4.816339E+01 -1.670269E-13  6.681074E-14
       243  11  2.159081E+03  3.478179E+02  4.397855E+01 -3.130067E+01 -1.670269E-14  0.000000E+00
       243  12  2.160805E+03  3.794454E+02  4.151207E+01 -1.354471E+01  1.043918E-14 -7.098641E-14
       243  13  1.875730E+03  2.135499E+02  1.242432E+01 -1.120502E+02 -1.002161E-13 -2.714186E-14
       243  14  1.875484E+03  2.793514E+02  7.198082E+00 -6.838954E+01 -6.681074E-14 -2.096318E-13
       243  15  1.865810E+03  3.082175E+02  7.724290E+00 -2.258344E+01  1.210945E-13 -8.344818E-14
       243  16  1.704082E+03  1.880599E+02  6.667203E+00 -1.759411E+02 -3.786812E-13 -2.004322E-13
       243  17  1.699145E+03  2.551420E+02  1.068689E+01 -1.054642E+02  3.340537E-14 -3.340537E-14
       243  18  1.680570E+03  2.813237E+02  1.196276E+01 -3.158436E+01  1.586755E-13 -8.768910E-14
       243  19  2.152288E+03  2.832839E+02  6.075816E+01 -4.816339E+01 -6.227661E+01  6.863320E+01
       243  20  2.159081E+03  3.478179E+02  4.397855E+01 -3.130067E+01 -3.929207E+01  8.786606E+01
       243  21  2.160805E+03  3.794454E+02  4.151207E+01 -1.354471E+01 -1.525996E+01  1.003772E+02
       243  22  1.875730E+03  2.135499E+02  1.242432E+01 -1.120502E+02 -4.444560E+01  6.592054E+01
       243  23  1.875484E+03  2.793514E+02  7.198082E+00 -6.838954E+01 -2.672036E+01  8.145756E+01
       243  24  1.865810E+03  3.082175E+02  7.724290E+00 -2.258344E+01 -8.025554E+00  9.010631E+01
       243  25  1.704082E+03  1.880599E+02  6.667203E+00 -1.759411E+02 -2.968975E+01  6.322448E+01
       243  26  1.699145E+03  2.551420E+02  1.068689E+01 -1.054642E+02 -1.735798E+01  7.505902E+01
       243  27  1.680570E+03  2.813237E+02  1.196276E+01 -3.158436E+01 -4.140009E+00  7.983793E+01
       244   1  1.810855E+03 -9.099201E+01  1.841360E+01  3.920562E+00  8.445593E+01  1.053462E+01
       244   2  1.900067E+03  3.401188E+01  7.108742E+00 -1.474087E+01  8.263239E+01 -1.983571E+01
       244   3  2.020238E+03  1.763624E+02  2.158787E+01 -5.364157E+01  8.145033E+01 -5.207600E+01
       244   4  1.737208E+03 -7.545662E+01  2.267123E+00 -9.239778E+01  5.984367E+01 -4.956822E+00
       244   5  1.788957E+03  3.494145E+01 -8.833939E-01 -1.018895E+02  5.742378E+01 -2.872495E+01
       244   6  1.859468E+03  1.552632E+02  1.234605E+01 -1.285531E+02  5.512784E+01 -5.300386E+01
       244   7  1.671527E+03 -5.196896E+01  5.445442E+00 -1.903369E+02  4.091336E+01 -2.013031E+01
       244   8  1.690983E+03  4.383970E+01  5.090264E+00 -1.908967E+02  3.910791E+01 -3.739310E+01
       244   9  1.719487E+03  1.432877E+02  1.279772E+01 -2.057811E+02  3.719134E+01 -5.390316E+01
       244  10  1.810855E+03 -9.099201E+01  1.841360E+01  3.920562E+00  3.340537E-14  1.670269E-13
       244  11  1.900067E+03  3.401188E+01  7.108742E+00 -1.474087E+01  0.000000E+00 -1.503242E-13
       244  12  2.020238E+03  1.763624E+02  2.158787E+01 -5.364157E+01  4.175671E-15 -8.351343E-14
       244  13  1.737208E+03 -7.545662E+01  2.267123E+00 -9.239778E+01 -3.340537E-14  3.236145E-14
       244  14  1.788957E+03  3.494145E+01 -8.833939E-01 -1.018895E+02  1.002161E-13 -1.357093E-13
       244  15  1.859468E+03  1.552632E+02  1.234605E+01 -1.285531E+02  1.169188E-13  8.090363E-15
       244  16  1.671527E+03 -5.196896E+01  5.445442E+00 -1.903369E+02 -1.443216E-13 -1.336215E-13
       244  17  1.690983E+03  4.383970E+01  5.090264E+00 -1.908967E+02  1.002161E-13 -2.004322E-13
       244  18  1.719487E+03  1.432877E+02  1.279772E+01 -2.057811E+02  1.712025E-13 -1.712025E-13
       244  19  1.810855E+03 -9.099201E+01  1.841360E+01  3.920562E+00 -8.445593E+01 -1.053462E+01
       244  20  1.900067E+03  3.401188E+01  7.108742E+00 -1.474087E+01 -8.263239E+01  1.983571E+01
       244  21  2.020238E+03  1.763624E+02  2.158787E+01 -5.364157E+01 -8.145033E+01  5.207600E+01
       244  22  1.737208E+03 -7.545662E+01  2.267123E+00 -9.239778E+01 -5.984367E+01  4.956822E+00
       244  23  1.788957E+03  3.494145E+01 -8.833939E-01 -1.018895E+02 -5.742378E+01  2.872495E+01
       244  24  1.859468E+03  1.552632E+02  1.234605E+01 -1.285531E+02 -5.512784E+01  5.300386E+01
       244  25  1.671527E+03 -5.196896E+01  5.445442E+00 -1.903369E+02 -4.091336E+01  2.013031E+01
       244  26  1.690983E+03  4.383970E+01  5.090264E+00 -1.908967E+02 -3.910791E+01  3.739310E+01
       244  27  1.719487E+03  1.432877E+02  1.279772E+01 -2.057811E+02 -3.719134E+01  5.390316E+01
       245   1  9.733724E+02  1.027623E+02  4.844974E-01  1.070948E+02 -4.086904E+00  6.729697E-01
       245   2  9.860649E+02  8.677524E+01  1.038417E-01  1.187694E+02 -2.724849E+00  1.608016E+00
       245   3  1.003550E+03  7.227514E+01  5.848918E-02  1.296243E+02 -1.360528E+00  2.541879E+00
       245   4  9.834616E+02  9.938741E+01  2.714323E-01  1.025320E+02 -3.373155E+00 -3.408827E-02
       245   5  9.933950E+02  8.390528E+01 -5.313768E-01  1.116568E+02 -2.102290E+00  7.550220E-01
       245   6  1.010711E+03  7.128449E+01  5.172823E-01  1.195676E+02 -7.878038E-01  1.522408E+00
       245   7  9.933204E+02  9.547293E+01  5.646528E-01  9.766382E+01 -2.668897E+00 -7.521202E-01
       245   8  9.994333E+02  8.024294E+01 -1.062346E+00  1.037912E+02 -1.509722E+00 -1.442615E-01
       245   9  1.016144E+03  6.953929E+01  9.531336E-01  1.082492E+02 -2.546483E-01  4.189318E-01
       245  10  9.733724E+02  1.027623E+02  4.844974E-01  1.070948E+02 -5.344859E-13 -1.712025E-13
       245  11  9.860649E+02  8.677524E+01  1.038417E-01  1.187694E+02 -2.672430E-13  2.233984E-13
       245  12  1.003550E+03  7.227514E+01  5.848918E-02  1.296243E+02 -7.516208E-14  4.932512E-13
       245  13  9.834616E+02  9.938741E+01  2.714323E-01  1.025320E+02  5.845940E-14 -6.681074E-14
       245  14  9.933950E+02  8.390528E+01 -5.313768E-01  1.116568E+02  0.000000E+00  1.712025E-13
       245  15  1.010711E+03  7.128449E+01  5.172823E-01  1.195676E+02 -2.714186E-13  2.494964E-13
       245  16  9.933204E+02  9.547293E+01  5.646528E-01  9.766382E+01  2.672430E-13  1.002161E-13
       245  17  9.994333E+02  8.024294E+01 -1.062346E+00  1.037912E+02  1.336215E-13  3.966888E-14
       245  18  1.016144E+03  6.953929E+01  9.531336E-01  1.082492E+02 -4.802022E-14 -1.435387E-13
       245  19  9.733724E+02  1.027623E+02  4.844974E-01  1.070948E+02  4.086904E+00 -6.729697E-01
       245  20  9.860649E+02  8.677524E+01  1.038417E-01  1.187694E+02  2.724849E+00 -1.608016E+00
       245  21  1.003550E+03  7.227514E+01  5.848918E-02  1.296243E+02  1.360528E+00 -2.541879E+00
       245  22  9.834616E+02  9.938741E+01  2.714323E-01  1.025320E+02  3.373155E+00  3.408827E-02
       245  23  9.933950E+02  8.390528E+01 -5.313768E-01  1.116568E+02  2.102290E+00 -7.550220E-01
       245  24  1.010711E+03  7.128449E+01  5.172823E-01  1.195676E+02  7.878038E-01 -1.522408E+00
       245  25  9.933204E+02  9.547293E+01  5.646528E-01  9.766382E+01  2.668897E+00  7.521202E-01
       245  26  9.994333E+02  8.024294E+01 -1.062346E+00  1.037912E+02  1.509722E+00  1.442615E-01
       245  27  1.016144E+03  6.953929E+01  9.531336E-01  1.082492E+02  2.546483E-01 -4.189318E-01
       246   1  1.016685E+03  6.309636E+01  4.230144E-02  1.330766E+02 -5.565673E-01  2.888005E+00
       246   2  1.043017E+03  4.801657E+01  1.504413E-01  1.328533E+02  1.146664E+00  3.765981E+00
       246   3  1.072823E+03  3.454308E+01  1.196704E-01  1.315737E+02  2.899459E+00  4.617928E+00
       246   4  1.020259E+03  6.348887E+01  3.584338E-01  1.209047E+02 -1.157144E-01  1.672497E+00
       246   5  1.039566E+03  4.840768E+01 -3.897856E-01  1.206992E+02  1.356171E+00  2.403380E+00
       246   6  1.064660E+03  3.644261E+01  2.751126E-01  1.189071E+02  2.936307E+00  3.080337E+00
       246   7  1.024719E+03  6.185119E+01  9.864577E-01  1.097908E+02  3.606670E-01  5.498798E-01
       246   8  1.036187E+03  4.707800E+01 -9.911697E-01  1.093093E+02  1.574871E+00  1.077534E+00
       246   9  1.056237E+03  3.717561E+01  2.151916E-01  1.066161E+02  2.970118E+00  1.520865E+00
       246  10  1.016685E+03  6.309636E+01  4.230144E-02  1.330766E+02  5.010806E-13  9.353504E-13
       246  11  1.043017E+03  4.801657E+01  1.504413E-01  1.328533E+02  4.676752E-13 -2.609795E-13
       246  12  1.072823E+03  3.454308E+01  1.196704E-01  1.315737E+02  4.593238E-14 -1.169188E-12
       246  13  1.020259E+03  6.348887E+01  3.584338E-01  1.209047E+02  4.551482E-13  2.672430E-13
       246  14  1.039566E+03  4.840768E+01 -3.897856E-01  1.206992E+02  1.686971E-12 -3.507564E-13
       246  15  1.064660E+03  3.644261E+01  2.751126E-01  1.189071E+02 -9.812828E-14 -7.046445E-13
       246  16  1.024719E+03  6.185119E+01  9.864577E-01  1.097908E+02  3.340537E-13 -4.342698E-13
       246  17  1.036187E+03  4.707800E+01 -9.911697E-01  1.093093E+02  7.015128E-13 -3.632834E-13
       246  18  1.056237E+03  3.717561E+01  2.151916E-01  1.066161E+02  1.544998E-13  9.134281E-14
       246  19  1.016685E+03  6.309636E+01  4.230144E-02  1.330766E+02  5.565673E-01 -2.888005E+00
       246  20  1.043017E+03  4.801657E+01  1.504413E-01  1.328533E+02 -1.146664E+00 -3.765981E+00
       246  21  1.072823E+03  3.454308E+01  1.196704E-01  1.315737E+02 -2.899459E+00 -4.617928E+00
       246  22  1.020259E+03  6.348887E+01  3.584338E-01  1.209047E+02  1.157144E-01 -1.672497E+00
       246  23  1.039566E+03  4.840768E+01 -3.897856E-01  1.206992E+02 -1.356171E+00 -2.403380E+00
       246  24  1.064660E+03  3.644261E+01  2.751126E-01  1.189071E+02 -2.936307E+00 -3.080337E+00
       246  25  1.024719E+03  6.185119E+01  9.864577E-01  1.097908E+02 -3.606670E-01 -5.498798E-01
       246  26  1.036187E+03  4.707800E+01 -9.911697E-01  1.093093E+02 -1.574871E+00 -1.077534E+00
       246  27  1.056237E+03  3.717561E+01  2.151916E-01  1.066161E+02 -2.970118E+00 -1.520865E+00
       247   1  1.022547E+03  5.975566E+01 -1.357434E-01  1.030328E+02  5.499125E-01 -6.013637E-02
       247   2  1.036385E+03  4.868127E+01  2.217863E-01  1.010433E+02  1.690580E+00  3.522185E-01
       247   3  1.050733E+03  3.763697E+01  6.763280E-02  9.891551E+01  2.826058E+00  7.668767E-01
       247   4  1.021077E+03  5.926113E+01 -5.581248E-02  8.956447E+01  8.544003E-01 -1.107892E+00
       247   5  1.030689E+03  4.849096E+01 -1.338362E-01  8.763111E+01  1.785385E+00 -7.678030E-01
       247   6  1.041851E+03  3.840987E+01 -5.340789E-03  8.534472E+01  2.754097E+00 -4.427470E-01
       247   7  1.020434E+03  5.753739E+01  4.135856E-01  7.694669E+01  1.210411E+00 -2.020959E+00
       247   8  1.025174E+03  4.718652E+01 -4.736784E-01  7.489058E+01  1.899804E+00 -1.809495E+00
       247   9  1.032818E+03  3.832179E+01 -3.005710E-01  7.221873E+01  2.685137E+00 -1.630732E+00
       247  10  1.022547E+03  5.975566E+01 -1.357434E-01  1.030328E+02  6.681074E-14 -3.549321E-13
       247  11  1.036385E+03  4.868127E+01  2.217863E-01  1.010433E+02  2.004322E-13  1.837295E-13
       247  12  1.050733E+03  3.763697E+01  6.763280E-02  9.891551E+01 -1.377972E-13  7.145618E-13
       247  13  1.021077E+03  5.926113E+01 -5.581248E-02  8.956447E+01 -3.925131E-13 -3.340537E-14
       247  14  1.030689E+03  4.849096E+01 -1.338362E-01  8.763111E+01 -1.085675E-13  2.839457E-13
       247  15  1.041851E+03  3.840987E+01 -5.340789E-03  8.534472E+01 -3.674591E-13  5.323981E-13
       247  16  1.020434E+03  5.753739E+01  4.135856E-01  7.694669E+01 -6.681074E-14  1.795539E-13
       247  17  1.025174E+03  4.718652E+01 -4.736784E-01  7.489058E+01  2.338376E-13  1.127431E-13
       247  18  1.032818E+03  3.832179E+01 -3.005710E-01  7.221873E+01  4.050401E-13  3.340537E-14
       247  19  1.022547E+03  5.975566E+01 -1.357434E-01  1.030328E+02 -5.499125E-01  6.013637E-02
       247  20  1.036385E+03  4.868127E+01  2.217863E-01  1.010433E+02 -1.690580E+00 -3.522185E-01
       247  21  1.050733E+03  3.763697E+01  6.763280E-02  9.891551E+01 -2.826058E+00 -7.668767E-01
       247  22  1.021077E+03  5.926113E+01 -5.581248E-02  8.956447E+01 -8.544003E-01  1.107892E+00
       247  23  1.030689E+03  4.849096E+01 -1.338362E-01  8.763111E+01 -1.785385E+00  7.678030E-01
       247  24  1.041851E+03  3.840987E+01 -5.340789E-03  8.534472E+01 -2.754097E+00  4.427470E-01
       247  25  1.020434E+03  5.753739E+01  4.135856E-01  7.694669E+01 -1.210411E+00  2.020959E+00
       247  26  1.025174E+03  4.718652E+01 -4.736784E-01  7.489058E+01 -1.899804E+00  1.809495E+00
       247  27  1.032818E+03  3.832179E+01 -3.005710E-01  7.221873E+01 -2.685137E+00  1.630732E+00
       248   1  9.974273E+02  9.304404E+01  5.431549E-01  9.361669E+01 -2.265839E+00 -1.211274E+00
       248   2  1.005394E+03  7.980231E+01  2.163477E-01  9.789052E+01 -1.137529E+00 -7.029236E-01
       248   3  1.014953E+03  6.699454E+01 -2.426327E-01  1.019116E+02 -3.540850E-02 -1.829519E-01
       248   4  1.001547E+03  8.867029E+01  1.807866E-01  8.475822E+01 -1.565007E+00 -2.022475E+00
       248   5  1.007454E+03  7.642904E+01 -2.561108E-01  8.772943E+01 -6.007571E-01 -1.588989E+00
       248   6  1.016486E+03  6.546818E+01  9.367992E-02  9.021364E+01  3.775323E-01 -1.161094E+00
       248   7  1.005724E+03  8.350132E+01  3.774260E-01  7.563020E+01 -8.028404E-01 -2.762870E+00
       248   8  1.008647E+03  7.212239E+01 -5.791934E-01  7.701437E+01 -4.591441E-02 -2.447155E+00
       248   9  1.016776E+03  6.311834E+01  4.088143E-01  7.762702E+01  7.826425E-01 -2.155851E+00
       248  10  9.974273E+02  9.304404E+01  5.431549E-01  9.361669E+01  2.672430E-13  6.681074E-14
       248  11  1.005394E+03  7.980231E+01  2.163477E-01  9.789052E+01  4.008645E-13 -1.357093E-13
       248  12  1.014953E+03  6.699454E+01 -2.426327E-01  1.019116E+02  1.085675E-13 -2.661990E-13
       248  13  1.001547E+03  8.867029E+01  1.807866E-01  8.475822E+01  6.681074E-14  1.002161E-13
       248  14  1.007454E+03  7.642904E+01 -2.561108E-01  8.772943E+01 -9.186477E-14 -8.768910E-14
       248  15  1.016486E+03  6.546818E+01  9.367992E-02  9.021364E+01 -2.421889E-13 -1.920809E-13
       248  16  1.005724E+03  8.350132E+01  3.774260E-01  7.563020E+01 -1.336215E-13  2.505403E-14
       248  17  1.008647E+03  7.212239E+01 -5.791934E-01  7.701437E+01 -3.340537E-14 -5.219589E-14
       248  18  1.016776E+03  6.311834E+01  4.088143E-01  7.762702E+01 -1.461485E-13 -5.167393E-14
       248  19  9.974273E+02  9.304404E+01  5.431549E-01  9.361669E+01  2.265839E+00  1.211274E+00
       248  20  1.005394E+03  7.980231E+01  2.163477E-01  9.789052E+01  1.137529E+00  7.029236E-01
       248  21  1.014953E+03  6.699454E+01 -2.426327E-01  1.019116E+02  3.540850E-02  1.829519E-01
       248  22  1.001547E+03  8.867029E+01  1.807866E-01  8.475822E+01  1.565007E+00  2.022475E+00
       248  23  1.007454E+03  7.642904E+01 -2.561108E-01  8.772943E+01  6.007571E-01  1.588989E+00
       248  24  1.016486E+03  6.546818E+01  9.367992E-02  9.021364E+01 -3.775323E-01  1.161094E+00
       248  25  1.005724E+03  8.350132E+01  3.774260E-01  7.563020E+01  8.028404E-01  2.762870E+00
       248  26  1.008647E+03  7.212239E+01 -5.791934E-01  7.701437E+01  4.591441E-02  2.447155E+00
       248  27  1.016776E+03  6.311834E+01  4.088143E-01  7.762702E+01 -7.826425E-01  2.155851E+00
       249   1  1.037749E+03  3.213465E+01 -3.867833E-01  6.916097E+01  3.197409E+00 -1.486152E+00
       249   2  1.048684E+03  3.189569E+01 -1.359806E-01  8.167070E+01  3.357889E+00 -4.079289E-01
       249   3  1.059117E+03  2.953966E+01 -7.152981E-01  9.555176E+01  3.539420E+00  8.765796E-01
       249   4  1.045194E+03  2.242807E+01 -4.906477E-01  5.928097E+01  4.084655E+00 -1.578709E+00
       249   5  1.060198E+03  2.269063E+01  1.934965E-01  7.021416E+01  4.461671E+00 -5.081952E-01
       249   6  1.074510E+03  2.077966E+01 -2.433573E-01  8.252808E+01  4.854461E+00  7.608185E-01
       249   7  1.050990E+03  1.217087E+01 -1.331762E+00  4.921398E+01  4.993675E+00 -1.675990E+00
       249   8  1.069983E+03  1.287624E+01 -3.042856E-01  5.861615E+01  5.579214E+00 -6.116800E-01
       249   9  1.088097E+03  1.135111E+01 -6.875256E-01  6.940604E+01  6.175778E+00  6.434958E-01
       249  10  1.037749E+03  3.213465E+01 -3.867833E-01  6.916097E+01  2.223545E-13  0.000000E+00
       249  11  1.048684E+03  3.189569E+01 -1.359806E-01  8.167070E+01 -3.131754E-13 -3.966888E-13
       249  12  1.059117E+03  2.953966E+01 -7.152981E-01  9.555176E+01 -3.799861E-13 -3.455368E-13
       249  13  1.045194E+03  2.242807E+01 -4.906477E-01  5.928097E+01  1.670269E-14 -8.768910E-14
       249  14  1.060198E+03  2.269063E+01  1.934965E-01  7.021416E+01 -8.852423E-13 -2.839457E-13
       249  15  1.074510E+03  2.077966E+01 -2.433573E-01  8.252808E+01 -3.674591E-13 -2.505403E-14
       249  16  1.050990E+03  1.217087E+01 -1.331762E+00  4.921398E+01 -4.927292E-13 -1.920809E-13
       249  17  1.069983E+03  1.287624E+01 -3.042856E-01  5.861615E+01 -8.351343E-15 -1.419728E-13
       249  18  1.088097E+03  1.135111E+01 -6.875256E-01  6.940604E+01  4.634995E-13  1.962566E-13
       249  19  1.037749E+03  3.213465E+01 -3.867833E-01  6.916097E+01 -3.197409E+00  1.486152E+00
       249  20  1.048684E+03  3.189569E+01 -1.359806E-01  8.167070E+01 -3.357889E+00  4.079289E-01
       249  21  1.059117E+03  2.953966E+01 -7.152981E-01  9.555176E+01 -3.539420E+00 -8.765796E-01
       249  22  1.045194E+03  2.242807E+01 -4.906477E-01  5.928097E+01 -4.084655E+00  1.578709E+00
       249  23  1.060198E+03  2.269063E+01  1.934965E-01  7.021416E+01 -4.461671E+00  5.081952E-01
       249  24  1.074510E+03  2.077966E+01 -2.433573E-01  8.252808E+01 -4.854461E+00 -7.608185E-01
       249  25  1.050990E+03  1.217087E+01 -1.331762E+00  4.921398E+01 -4.993675E+00  1.675990E+00
       249  26  1.069983E+03  1.287624E+01 -3.042856E-01  5.861615E+01 -5.579214E+00  6.116800E-01
       249  27  1.088097E+03  1.135111E+01 -6.875256E-01  6.940604E+01 -6.175778E+00 -6.434958E-01
       250   1  1.067474E+03  2.981281E+01  5.871507E-02  1.026591E+02  3.810620E+00  1.656132E+00
       250   2  1.078972E+03  2.986646E+01  3.792753E-01  1.136936E+02  3.859452E+00  3.198949E+00
       250   3  1.089810E+03  2.693804E+01 -2.977362E-01  1.266429E+02  3.922604E+00  4.882264E+00
       250   4  1.083701E+03  2.002757E+01 -2.945446E-01  8.939442E+01  5.225264E+00  1.556355E+00
       250   5  1.101231E+03  2.049954E+01  4.997234E-01  9.889200E+01  5.450138E+00  3.156945E+00
       250   6  1.117910E+03  1.801301E+01  6.350783E-02  1.102771E+02  5.685493E+00  4.889411E+00
       250   7  1.100565E+03  1.092316E+01 -4.728204E-01  7.544571E+01  6.711276E+00  1.438023E+00
       250   8  1.123832E+03  1.162981E+01  5.388685E-01  8.348280E+01  7.103107E+00  3.097785E+00
       250   9  1.146068E+03  9.403361E+00  9.144971E-02  9.337752E+01  7.502084E+00  4.880969E+00
       250  10  1.067474E+03  2.981281E+01  5.871507E-02  1.026591E+02  1.899930E-13 -4.342698E-13
       250  11  1.078972E+03  2.986646E+01  3.792753E-01  1.136936E+02  1.879052E-13 -4.175671E-13
       250  12  1.089810E+03  2.693804E+01 -2.977362E-01  1.266429E+02  8.768910E-14 -1.962566E-13
       250  13  1.083701E+03  2.002757E+01 -2.945446E-01  8.939442E+01  1.503242E-13  0.000000E+00
       250  14  1.101231E+03  2.049954E+01  4.997234E-01  9.889200E+01  3.006483E-13 -2.087836E-14
       250  15  1.117910E+03  1.801301E+01  6.350783E-02  1.102771E+02  3.340537E-14 -2.296619E-14
       250  16  1.100565E+03  1.092316E+01 -4.728204E-01  7.544571E+01 -8.351343E-14  2.839457E-13
       250  17  1.123832E+03  1.162981E+01  5.388685E-01  8.348280E+01 -1.670269E-14  2.964727E-13
       250  18  1.146068E+03  9.403361E+00  9.144971E-02  9.337752E+01 -2.380133E-13  2.369693E-13
       250  19  1.067474E+03  2.981281E+01  5.871507E-02  1.026591E+02 -3.810620E+00 -1.656132E+00
       250  20  1.078972E+03  2.986646E+01  3.792753E-01  1.136936E+02 -3.859452E+00 -3.198949E+00
       250  21  1.089810E+03  2.693804E+01 -2.977362E-01  1.266429E+02 -3.922604E+00 -4.882264E+00
       250  22  1.083701E+03  2.002757E+01 -2.945446E-01  8.939442E+01 -5.225264E+00 -1.556355E+00
       250  23  1.101231E+03  2.049954E+01  4.997234E-01  9.889200E+01 -5.450138E+00 -3.156945E+00
       250  24  1.117910E+03  1.801301E+01  6.350783E-02  1.102771E+02 -5.685493E+00 -4.889411E+00
       250  25  1.100565E+03  1.092316E+01 -4.728204E-01  7.544571E+01 -6.711276E+00 -1.438023E+00
       250  26  1.123832E+03  1.162981E+01  5.388685E-01  8.348280E+01 -7.103107E+00 -3.097785E+00
       250  27  1.146068E+03  9.403361E+00  9.144971E-02  9.337752E+01 -7.502084E+00 -4.880969E+00
       251   1  1.109595E+03  6.100313E+00 -8.127045E-01  6.465154E+01  7.649968E+00  1.440572E+00
       251   2  1.136959E+03  7.675180E+00  6.876669E-01  7.098662E+01  8.131496E+00  3.173102E+00
       251   3  1.163089E+03  5.818807E+00  4.169572E-01  8.002757E+01  8.617515E+00  5.003871E+00
       251   4  1.123499E+03  2.754474E+00 -3.351294E-01  3.838766E+01  8.975846E+00  7.815176E-01
       251   5  1.158278E+03  4.000461E+00  1.783813E+00  4.171112E+01  9.576686E+00  1.939684E+00
       251   6  1.191648E+03  1.912993E+00  1.942701E+00  4.774895E+01  1.018051E+01  3.216171E+00
       251   7  1.135351E+03 -6.027430E-01 -2.187212E-01  1.126447E+01  9.815641E+00  2.489464E-01
       251   8  1.177700E+03  5.130171E-01  3.068554E+00  1.167196E+01  1.055341E+01  8.353810E-01
       251   9  1.218472E+03 -1.609441E+00  4.207948E+00  1.479798E+01  1.129194E+01  1.559579E+00
       251  10  1.109595E+03  6.100313E+00 -8.127045E-01  6.465154E+01  1.252701E-14 -2.004322E-13
       251  11  1.136959E+03  7.675180E+00  6.876669E-01  7.098662E+01  1.002161E-13 -1.252701E-13
       251  12  1.163089E+03  5.818807E+00  4.169572E-01  8.002757E+01 -1.294458E-13  1.826856E-13
       251  13  1.123499E+03  2.754474E+00 -3.351294E-01  3.838766E+01 -2.672430E-13 -5.845940E-14
       251  14  1.158278E+03  4.000461E+00  1.783813E+00  4.171112E+01  5.010806E-13 -2.087836E-13
       251  15  1.191648E+03  1.912993E+00  1.942701E+00  4.774895E+01  0.000000E+00 -1.294458E-13
       251  16  1.135351E+03 -6.027430E-01 -2.187212E-01  1.126447E+01 -4.092158E-13  5.845940E-14
       251  17  1.177700E+03  5.130171E-01  3.068554E+00  1.167196E+01 -1.503242E-13 -2.129592E-13
       251  18  1.218472E+03 -1.609441E+00  4.207948E+00  1.479798E+01  1.461485E-13 -3.591077E-13
       251  19  1.109595E+03  6.100313E+00 -8.127045E-01  6.465154E+01 -7.649968E+00 -1.440572E+00
       251  20  1.136959E+03  7.675180E+00  6.876669E-01  7.098662E+01 -8.131496E+00 -3.173102E+00
       251  21  1.163089E+03  5.818807E+00  4.169572E-01  8.002757E+01 -8.617515E+00 -5.003871E+00
       251  22  1.123499E+03  2.754474E+00 -3.351294E-01  3.838766E+01 -8.975846E+00 -7.815176E-01
       251  23  1.158278E+03  4.000461E+00  1.783813E+00  4.171112E+01 -9.576686E+00 -1.939684E+00
       251  24  1.191648E+03  1.912993E+00  1.942701E+00  4.774895E+01 -1.018051E+01 -3.216171E+00
       251  25  1.135351E+03 -6.027430E-01 -2.187212E-01  1.126447E+01 -9.815641E+00 -2.489464E-01
       251  26  1.177700E+03  5.130171E-01  3.068554E+00  1.167196E+01 -1.055341E+01 -8.353810E-01
       251  27  1.218472E+03 -1.609441E+00  4.207948E+00  1.479798E+01 -1.129194E+01 -1.559579E+00
       252   1  1.053181E+03  6.422940E+00 -2.149861E+00  4.196080E+01  5.558375E+00 -1.652243E+00
       252   2  1.074873E+03  7.690053E+00 -7.566764E-01  4.977776E+01  6.254097E+00 -5.733795E-01
       252   3  1.095486E+03  6.307277E+00 -1.078684E+00  5.950450E+01  6.956804E+00  6.589472E-01
       252   4  1.054926E+03  3.896357E+00 -2.256306E+00  2.469969E+01  6.383276E+00 -1.270609E+00
       252   5  1.081394E+03  4.897476E+00 -4.395811E-01  2.900991E+01  7.237620E+00 -5.663057E-01
       252   6  1.106620E+03  3.266496E+00 -5.718684E-01  3.530858E+01  8.096099E+00  3.022000E-01
       252   7  1.050391E+03 -1.060907E+00 -5.410002E+00  7.174681E+00  6.906772E+00 -8.235605E-01
       252   8  1.081937E+03 -1.155487E-01 -2.770491E+00  8.046337E+00  7.928247E+00 -4.905873E-01
       252   9  1.112072E+03 -1.791130E+00 -2.317554E+00  1.097991E+01  8.950694E+00  1.689333E-02
       252  10  1.053181E+03  6.422940E+00 -2.149861E+00  4.196080E+01 -4.175671E-13  0.000000E+00
       252  11  1.074873E+03  7.690053E+00 -7.566764E-01  4.977776E+01  1.252701E-13  7.516208E-14
       252  12  1.095486E+03  6.307277E+00 -1.078684E+00  5.950450E+01  6.138237E-13 -2.943848E-13
       252  13  1.054926E+03  3.896357E+00 -2.256306E+00  2.469969E+01  1.503242E-13  1.252701E-13
       252  14  1.081394E+03  4.897476E+00 -4.395811E-01  2.900991E+01 -3.340537E-14  1.712025E-13
       252  15  1.106620E+03  3.266496E+00 -5.718684E-01  3.530858E+01  1.336215E-13  6.263507E-14
       252  16  1.050391E+03 -1.060907E+00 -5.410002E+00  7.174681E+00 -2.421889E-13  1.085675E-13
       252  17  1.081937E+03 -1.155487E-01 -2.770491E+00  8.046337E+00 -2.755943E-13  3.382294E-13
       252  18  1.112072E+03 -1.791130E+00 -2.317554E+00  1.097991E+01 -2.797700E-13  3.006483E-13
       252  19  1.053181E+03  6.422940E+00 -2.149861E+00  4.196080E+01 -5.558375E+00  1.652243E+00
       252  20  1.074873E+03  7.690053E+00 -7.566764E-01  4.977776E+01 -6.254097E+00  5.733795E-01
       252  21  1.095486E+03  6.307277E+00 -1.078684E+00  5.950450E+01 -6.956804E+00 -6.589472E-01
       252  22  1.054926E+03  3.896357E+00 -2.256306E+00  2.469969E+01 -6.383276E+00  1.270609E+00
       252  23  1.081394E+03  4.897476E+00 -4.395811E-01  2.900991E+01 -7.237620E+00  5.663057E-01
       252  24  1.106620E+03  3.266496E+00 -5.718684E-01  3.530858E+01 -8.096099E+00 -3.022000E-01
       252  25  1.050391E+03 -1.060907E+00 -5.410002E+00  7.174681E+00 -6.906772E+00  8.235605E-01
       252  26  1.081937E+03 -1.155487E-01 -2.770491E+00  8.046337E+00 -7.928247E+00  4.905873E-01
       252  27  1.112072E+03 -1.791130E+00 -2.317554E+00  1.097991E+01 -8.950694E+00 -1.689333E-02
       253   1  1.000765E+03  1.212821E+02  3.039502E+00  6.592791E+00 -4.516298E-01 -6.513463E+00
       253   2  1.000455E+03  1.410489E+02  4.323771E+00  7.245678E+00 -8.731638E-01 -6.368154E+00
       253   3  1.000153E+03  1.609208E+02  5.757890E+00  8.419181E+00 -1.412456E+00 -6.227864E+00
       253   4  9.995024E+02  1.105028E+02  7.095156E-01  2.380158E+01 -8.392826E-01 -6.131912E+00
       253   5  9.990762E+02  1.258127E+02  1.339103E+00  2.613932E+01 -1.536021E+00 -5.831933E+00
       253   6  9.981764E+02  1.412702E+02  2.164771E+00  2.887422E+01 -2.297156E+00 -5.544895E+00
       253   7  1.000776E+03  1.048199E+02  8.704968E-01  4.024387E+01 -1.275259E+00 -5.518516E+00
       253   8  1.000278E+03  1.159497E+02  1.146792E+00  4.447892E+01 -2.237677E+00 -5.130897E+00
       253   9  9.988173E+02  1.272264E+02  1.650205E+00  4.892814E+01 -3.211138E+00 -4.747472E+00
       253  10  1.000765E+03  1.212821E+02  3.039502E+00  6.592791E+00 -6.681074E-14 -1.085675E-13
       253  11  1.000455E+03  1.410489E+02  4.323771E+00  7.245678E+00 -1.336215E-13 -4.384455E-14
       253  12  1.000153E+03  1.609208E+02  5.757890E+00  8.419181E+00  1.252701E-13  4.854218E-14
       253  13  9.995024E+02  1.105028E+02  7.095156E-01  2.380158E+01  3.424051E-13 -3.173510E-13
       253  14  9.990762E+02  1.258127E+02  1.339103E+00  2.613932E+01 -9.186477E-14 -8.768910E-14
       253  15  9.981764E+02  1.412702E+02  2.164771E+00  2.887422E+01  4.885535E-13  0.000000E+00
       253  16  1.000776E+03  1.048199E+02  8.704968E-01  4.024387E+01  5.344859E-13 -1.837295E-13
       253  17  1.000278E+03  1.159497E+02  1.146792E+00  4.447892E+01  1.670269E-13 -3.758104E-14
       253  18  9.988173E+02  1.272264E+02  1.650205E+00  4.892814E+01  1.002161E-13  1.453656E-13
       253  19  1.000765E+03  1.212821E+02  3.039502E+00  6.592791E+00  4.516298E-01  6.513463E+00
       253  20  1.000455E+03  1.410489E+02  4.323771E+00  7.245678E+00  8.731638E-01  6.368154E+00
       253  21  1.000153E+03  1.609208E+02  5.757890E+00  8.419181E+00  1.412456E+00  6.227864E+00
       253  22  9.995024E+02  1.105028E+02  7.095156E-01  2.380158E+01  8.392826E-01  6.131912E+00
       253  23  9.990762E+02  1.258127E+02  1.339103E+00  2.613932E+01  1.536021E+00  5.831933E+00
       253  24  9.981764E+02  1.412702E+02  2.164771E+00  2.887422E+01  2.297156E+00  5.544895E+00
       253  25  1.000776E+03  1.048199E+02  8.704968E-01  4.024387E+01  1.275259E+00  5.518516E+00
       253  26  1.000278E+03  1.159497E+02  1.146792E+00  4.447892E+01  2.237677E+00  5.130897E+00
       253  27  9.988173E+02  1.272264E+02  1.650205E+00  4.892814E+01  3.211138E+00  4.747472E+00
       254   1  1.001711E+03  1.747138E+02  7.871465E+00  8.507914E+00 -1.780891E+00 -5.918539E+00
       254   2  1.001591E+03  1.901594E+02  8.503954E+00  8.568144E+00 -2.351042E+00 -5.427663E+00
       254   3  1.001254E+03  2.055946E+02  9.433896E+00  8.311552E+00 -2.935931E+00 -4.937411E+00
       254   4  9.965292E+02  1.468456E+02  1.425754E+00  3.004717E+01 -2.764695E+00 -5.303200E+00
       254   5  9.954232E+02  1.588604E+02  1.757772E+00  3.017709E+01 -3.556087E+00 -4.773731E+00
       254   6  9.939036E+02  1.708155E+02  2.407697E+00  3.020983E+01 -4.325812E+00 -4.239907E+00
       254   7  9.972808E+02  1.324627E+02  1.561786E+00  5.071732E+01 -3.802276E+00 -4.485428E+00
       254   8  9.945748E+02  1.396486E+02  1.282009E+00  5.111738E+01 -4.800207E+00 -3.980124E+00
       254   9  9.914003E+02  1.470218E+02  1.471839E+00  5.160902E+01 -5.741641E+00 -3.453312E+00
       254  10  1.001711E+03  1.747138E+02  7.871465E+00  8.507914E+00 -3.340537E-14  2.505403E-13
       254  11  1.001591E+03  1.901594E+02  8.503954E+00  8.568144E+00  4.175671E-13 -3.131754E-15
       254  12  1.001254E+03  2.055946E+02  9.433896E+00  8.311552E+00  1.879052E-13 -3.768543E-13
       254  13  9.965292E+02  1.468456E+02  1.425754E+00  3.004717E+01  5.845940E-14  5.971210E-13
       254  14  9.954232E+02  1.588604E+02  1.757772E+00  3.017709E+01  2.672430E-13 -3.131754E-14
       254  15  9.939036E+02  1.708155E+02  2.407697E+00  3.020983E+01  5.386616E-13 -6.341801E-13
       254  16  9.972808E+02  1.324627E+02  1.561786E+00  5.071732E+01 -4.008645E-13  7.495330E-13
       254  17  9.945748E+02  1.396486E+02  1.282009E+00  5.111738E+01 -1.670269E-13 -8.873302E-14
       254  18  9.914003E+02  1.470218E+02  1.471839E+00  5.160902E+01  7.516208E-14 -8.468783E-13
       254  19  1.001711E+03  1.747138E+02  7.871465E+00  8.507914E+00  1.780891E+00  5.918539E+00
       254  20  1.001591E+03  1.901594E+02  8.503954E+00  8.568144E+00  2.351042E+00  5.427663E+00
       254  21  1.001254E+03  2.055946E+02  9.433896E+00  8.311552E+00  2.935931E+00  4.937411E+00
       254  22  9.965292E+02  1.468456E+02  1.425754E+00  3.004717E+01  2.764695E+00  5.303200E+00
       254  23  9.954232E+02  1.588604E+02  1.757772E+00  3.017709E+01  3.556087E+00  4.773731E+00
       254  24  9.939036E+02  1.708155E+02  2.407697E+00  3.020983E+01  4.325812E+00  4.239907E+00
       254  25  9.972808E+02  1.324627E+02  1.561786E+00  5.071732E+01  3.802276E+00  4.485428E+00
       254  26  9.945748E+02  1.396486E+02  1.282009E+00  5.111738E+01  4.800207E+00  3.980124E+00
       254  27  9.914003E+02  1.470218E+02  1.471839E+00  5.160902E+01  5.741641E+00  3.453312E+00
       255   1  9.946961E+02  1.242314E+02  9.602094E-01  6.030462E+01 -3.659963E+00 -3.694546E+00
       255   2  9.915914E+02  1.309226E+02  1.208078E+00  6.194021E+01 -4.476985E+00 -3.103991E+00
       255   3  9.852742E+02  1.353021E+02  3.978783E-01  6.235757E+01 -5.248471E+00 -2.490816E+00
       255   4  9.919047E+02  1.097870E+02 -2.459435E-01  7.503472E+01 -3.309785E+00 -2.448401E+00
       255   5  9.862082E+02  1.160747E+02  2.259110E-01  7.805679E+01 -4.065925E+00 -1.811846E+00
       255   6  9.774572E+02  1.198794E+02 -3.030453E-01  7.984598E+01 -4.791073E+00 -1.152979E+00
       255   7  9.908409E+02  1.018210E+02  3.817117E-01  9.032075E+01 -2.965016E+00 -1.181928E+00
       255   8  9.821943E+02  1.069678E+02  5.842510E-01  9.468086E+01 -3.667518E+00 -4.744874E-01
       255   9  9.707084E+02  1.095813E+02 -1.032519E-01  9.780262E+01 -4.352642E+00  2.499695E-01
       255  10  9.946961E+02  1.242314E+02  9.602094E-01  6.030462E+01  1.002161E-13  1.039742E-12
       255  11  9.915914E+02  1.309226E+02  1.208078E+00  6.194021E+01  2.505403E-13  1.691147E-13
       255  12  9.852742E+02  1.353021E+02  3.978783E-01  6.235757E+01  7.307425E-14 -7.437915E-13
       255  13  9.919047E+02  1.097870E+02 -2.459435E-01  7.503472E+01 -8.768910E-14  8.017289E-13
       255  14  9.862082E+02  1.160747E+02  2.259110E-01  7.805679E+01  2.505403E-13  4.092158E-13
       255  15  9.774572E+02  1.198794E+02 -3.030453E-01  7.984598E+01  1.962566E-13 -5.219589E-15
       255  16  9.908409E+02  1.018210E+02  3.817117E-01  9.032075E+01 -1.336215E-13  1.586755E-13
       255  17  9.821943E+02  1.069678E+02  5.842510E-01  9.468086E+01  2.505403E-13  3.507564E-13
       255  18  9.707084E+02  1.095813E+02 -1.032519E-01  9.780262E+01  3.089997E-13  4.139134E-13
       255  19  9.946961E+02  1.242314E+02  9.602094E-01  6.030462E+01  3.659963E+00  3.694546E+00
       255  20  9.915914E+02  1.309226E+02  1.208078E+00  6.194021E+01  4.476985E+00  3.103991E+00
       255  21  9.852742E+02  1.353021E+02  3.978783E-01  6.235757E+01  5.248471E+00  2.490816E+00
       255  22  9.919047E+02  1.097870E+02 -2.459435E-01  7.503472E+01  3.309785E+00  2.448401E+00
       255  23  9.862082E+02  1.160747E+02  2.259110E-01  7.805679E+01  4.065925E+00  1.811846E+00
       255  24  9.774572E+02  1.198794E+02 -3.030453E-01  7.984598E+01  4.791073E+00  1.152979E+00
       255  25  9.908409E+02  1.018210E+02  3.817117E-01  9.032075E+01  2.965016E+00  1.181928E+00
       255  26  9.821943E+02  1.069678E+02  5.842510E-01  9.468086E+01  3.667518E+00  4.744874E-01
       255  27  9.707084E+02  1.095813E+02 -1.032519E-01  9.780262E+01  4.352642E+00 -2.499695E-01
       256   1  1.001025E+03  1.010465E+02  7.332564E-01  4.831655E+01 -1.294225E+00 -4.951588E+00
       256   2  9.995618E+02  1.105619E+02  8.364129E-01  5.371427E+01 -2.248324E+00 -4.501729E+00
       256   3  9.958239E+02  1.186003E+02  3.696250E-01  5.831210E+01 -3.149956E+00 -4.025782E+00
       256   4  1.001554E+03  9.264732E+01 -2.043176E-01  5.986652E+01 -1.200990E+00 -3.984892E+00
       256   5  9.992409E+02  1.007398E+02  1.178347E-01  6.690327E+01 -2.031568E+00 -3.393569E+00
       256   6  9.944089E+02  1.069949E+02 -2.017081E-01  7.297349E+01 -2.849083E+00 -2.792823E+00
       256   7  1.003531E+03  8.805931E+01  2.430940E-01  7.138511E+01 -1.084873E+00 -3.127974E+00
       256   8  1.000155E+03  9.458297E+01  5.077171E-01  8.014570E+01 -1.803443E+00 -2.333719E+00
       256   9  9.940331E+02  9.890156E+01  6.151702E-02  8.774226E+01 -2.547140E+00 -1.564081E+00
       256  10  1.001025E+03  1.010465E+02  7.332564E-01  4.831655E+01 -2.672430E-13 -3.340537E-13
       256  11  9.995618E+02  1.105619E+02  8.364129E-01  5.371427E+01 -2.839457E-13 -8.560126E-14
       256  12  9.958239E+02  1.186003E+02  3.696250E-01  5.831210E+01  1.858174E-13  1.612853E-13
       256  13  1.001554E+03  9.264732E+01 -2.043176E-01  5.986652E+01 -4.969049E-13 -2.672430E-13
       256  14  9.992409E+02  1.007398E+02  1.178347E-01  6.690327E+01  0.000000E+00 -2.046079E-13
       256  15  9.944089E+02  1.069949E+02 -2.017081E-01  7.297349E+01  3.632834E-13 -2.066957E-13
       256  16  1.003531E+03  8.805931E+01  2.430940E-01  7.138511E+01 -3.340537E-14  1.043918E-13
       256  17  1.000155E+03  9.458297E+01  5.077171E-01  8.014570E+01 -5.010806E-14 -2.296619E-13
       256  18  9.940331E+02  9.890156E+01  6.151702E-02  8.774226E+01 -4.509725E-13 -2.296619E-13
       256  19  1.001025E+03  1.010465E+02  7.332564E-01  4.831655E+01  1.294225E+00  4.951588E+00
       256  20  9.995618E+02  1.105619E+02  8.364129E-01  5.371427E+01  2.248324E+00  4.501729E+00
       256  21  9.958239E+02  1.186003E+02  3.696250E-01  5.831210E+01  3.149956E+00  4.025782E+00
       256  22  1.001554E+03  9.264732E+01 -2.043176E-01  5.986652E+01  1.200990E+00  3.984892E+00
       256  23  9.992409E+02  1.007398E+02  1.178347E-01  6.690327E+01  2.031568E+00  3.393569E+00
       256  24  9.944089E+02  1.069949E+02 -2.017081E-01  7.297349E+01  2.849083E+00  2.792823E+00
       256  25  1.003531E+03  8.805931E+01  2.430940E-01  7.138511E+01  1.084873E+00  3.127974E+00
       256  26  1.000155E+03  9.458297E+01  5.077171E-01  8.014570E+01  1.803443E+00  2.333719E+00
       256  27  9.940331E+02  9.890156E+01  6.151702E-02  8.774226E+01  2.547140E+00  1.564081E+00
       257   1  1.586777E+03 -8.324011E+01 -1.721510E-01 -1.876989E+02  2.796398E+01 -1.020905E+01
       257   2  1.525649E+03 -5.343518E+01  3.142761E-01 -1.944160E+02  1.595410E+01 -1.265700E+01
       257   3  1.462835E+03 -2.350727E+01  2.895570E+00 -2.011147E+02  4.266680E+00 -1.511430E+01
       257   4  1.549554E+03 -1.340537E+02  4.247233E-02 -1.333559E+02  2.326639E+01  2.912978E+00
       257   5  1.509156E+03 -9.706440E+01 -3.018291E+00 -1.474452E+02  1.301116E+01 -2.074033E-01
       257   6  1.468402E+03 -5.909859E+01 -2.566070E+00 -1.617438E+02  3.127011E+00 -3.345235E+00
       257   7  1.522363E+03 -1.599364E+02  6.302045E+00 -8.769373E+01  1.863427E+01  1.409514E+01
       257   8  1.503923E+03 -1.139416E+02  2.377054E+00 -1.093799E+02  1.012252E+01  1.025039E+01
       257   9  1.486451E+03 -6.609733E+01  3.386962E+00 -1.315069E+02  2.029398E+00  6.378543E+00
       257  10  1.586777E+03 -8.324011E+01 -1.721510E-01 -1.876989E+02  3.340537E-14 -8.351343E-15
       257  11  1.525649E+03 -5.343518E+01  3.142761E-01 -1.944160E+02  5.010806E-14 -4.175671E-14
       257  12  1.462835E+03 -2.350727E+01  2.895570E+00 -2.011147E+02  9.186477E-14  2.922970E-14
       257  13  1.549554E+03 -1.340537E+02  4.247233E-02 -1.333559E+02  3.079558E-14 -3.340537E-13
       257  14  1.509156E+03 -9.706440E+01 -3.018291E+00 -1.474452E+02  2.312278E-13 -6.681074E-14
       257  15  1.468402E+03 -5.909859E+01 -2.566070E+00 -1.617438E+02  1.513681E-14  2.588916E-13
       257  16  1.522363E+03 -1.599364E+02  6.302045E+00 -8.769373E+01 -6.681074E-14 -3.925131E-13
       257  17  1.503923E+03 -1.139416E+02  2.377054E+00 -1.093799E+02 -3.340537E-14  2.505403E-14
       257  18  1.486451E+03 -6.609733E+01  3.386962E+00 -1.315069E+02  4.175671E-14  3.131754E-13
       257  19  1.586777E+03 -8.324011E+01 -1.721510E-01 -1.876989E+02 -2.796398E+01  1.020905E+01
       257  20  1.525649E+03 -5.343518E+01  3.142761E-01 -1.944160E+02 -1.595410E+01  1.265700E+01
       257  21  1.462835E+03 -2.350727E+01  2.895570E+00 -2.011147E+02 -4.266680E+00  1.511430E+01
       257  22  1.549554E+03 -1.340537E+02  4.247233E-02 -1.333559E+02 -2.326639E+01 -2.912978E+00
       257  23  1.509156E+03 -9.706440E+01 -3.018291E+00 -1.474452E+02 -1.301116E+01  2.074033E-01
       257  24  1.468402E+03 -5.909859E+01 -2.566070E+00 -1.617438E+02 -3.127011E+00  3.345235E+00
       257  25  1.522363E+03 -1.599364E+02  6.302045E+00 -8.769373E+01 -1.863427E+01 -1.409514E+01
       257  26  1.503923E+03 -1.139416E+02  2.377054E+00 -1.093799E+02 -1.012252E+01 -1.025039E+01
       257  27  1.486451E+03 -6.609733E+01  3.386962E+00 -1.315069E+02 -2.029398E+00 -6.378543E+00
       258   1  1.416957E+03 -1.835940E+01 -7.644841E-01 -1.868538E+02 -2.413363E+00 -1.585871E+01
       258   2  1.344047E+03 -9.699066E+00 -7.930747E+00 -1.188049E+02 -1.204837E+01 -1.015872E+01
       258   3  1.294611E+03  7.134382E+00 -1.056573E+01 -4.797539E+01 -1.853132E+01 -4.550987E+00
       258   4  1.445514E+03 -3.321065E+01  6.263112E-01 -1.507292E+02 -2.685944E+00 -4.421844E+00
       258   5  1.404755E+03 -2.146137E+01 -4.713729E+00 -9.384532E+01 -1.112743E+01 -2.212464E+00
       258   6  1.390278E+03  6.132463E-01 -7.440958E-01 -3.446039E+01 -1.642769E+01 -1.511596E-01
       258   7  1.478831E+03 -3.831068E+01  6.286965E+00 -1.274976E+02 -2.936779E+00  5.701587E+00
       258   8  1.470732E+03 -2.251646E+01  4.276876E+00 -8.204657E+01 -1.019415E+01  4.432355E+00
       258   9  1.491704E+03  5.763018E+00  1.635189E+01 -3.437885E+01 -1.432126E+01  2.960482E+00
       258  10  1.416957E+03 -1.835940E+01 -7.644841E-01 -1.868538E+02 -3.340537E-14 -2.588916E-13
       258  11  1.344047E+03 -9.699066E+00 -7.930747E+00 -1.188049E+02  1.002161E-13 -8.351343E-15
       258  12  1.294611E+03  7.134382E+00 -1.056573E+01 -4.797539E+01  3.340537E-13  1.753782E-13
       258  13  1.445514E+03 -3.321065E+01  6.263112E-01 -1.507292E+02 -2.479305E-14 -3.507564E-13
       258  14  1.404755E+03 -2.146137E+01 -4.713729E+00 -9.384532E+01 -2.579782E-13  0.000000E+00
       258  15  1.390278E+03  6.132463E-01 -7.440958E-01 -3.446039E+01 -2.198752E-14 -4.175671E-14
       258  16  1.478831E+03 -3.831068E+01  6.286965E+00 -1.274976E+02 -1.336215E-13 -2.421889E-13
       258  17  1.470732E+03 -2.251646E+01  4.276876E+00 -8.204657E+01 -2.171349E-13  7.516208E-14
       258  18  1.491704E+03  5.763018E+00  1.635189E+01 -3.437885E+01 -2.213106E-13 -7.098641E-14
       258  19  1.416957E+03 -1.835940E+01 -7.644841E-01 -1.868538E+02  2.413363E+00  1.585871E+01
       258  20  1.344047E+03 -9.699066E+00 -7.930747E+00 -1.188049E+02  1.204837E+01  1.015872E+01
       258  21  1.294611E+03  7.134382E+00 -1.056573E+01 -4.797539E+01  1.853132E+01  4.550987E+00
       258  22  1.445514E+03 -3.321065E+01  6.263112E-01 -1.507292E+02  2.685944E+00  4.421844E+00
       258  23  1.404755E+03 -2.146137E+01 -4.713729E+00 -9.384532E+01  1.112743E+01  2.212464E+00
       258  24  1.390278E+03  6.132463E-01 -7.440958E-01 -3.446039E+01  1.642769E+01  1.511596E-01
       258  25  1.478831E+03 -3.831068E+01  6.286965E+00 -1.274976E+02  2.936779E+00 -5.701587E+00
       258  26  1.470732E+03 -2.251646E+01  4.276876E+00 -8.204657E+01  1.019415E+01 -4.432355E+00
       258  27  1.491704E+03  5.763018E+00  1.635189E+01 -3.437885E+01  1.432126E+01 -2.960482E+00
       259   1  1.487891E+03 -4.218047E+01  6.697544E+00 -1.010075E+02 -1.103783E+00  1.030637E+01
       259   2  1.495595E+03 -2.517702E+01  6.072485E+00 -6.677566E+01 -6.714125E+00  7.478656E+00
       259   3  1.544698E+03  9.788236E+00  2.629081E+01 -2.974995E+01 -1.092776E+01  4.546406E+00
       259   4  1.487926E+03 -4.426033E+01  5.659344E+00 -5.608814E+01 -1.848191E-01  1.630296E+01
       259   5  1.515275E+03 -3.023075E+01  5.042270E+00 -3.720536E+01 -4.474758E+00  1.179729E+01
       259   6  1.585180E+03  2.640486E+00  2.745998E+01 -1.589334E+01 -7.347371E+00  7.161166E+00
       259   7  1.492786E+03 -3.675826E+01  9.962954E+00 -1.930487E+01  7.576248E-01  2.088179E+01
       259   8  1.540532E+03 -2.451598E+01  1.116087E+01 -1.584115E+01 -2.221740E+00  1.467829E+01
       259   9  1.631989E+03  7.463947E+00  3.758907E+01 -1.030948E+01 -3.763809E+00  8.318151E+00
       259  10  1.487891E+03 -4.218047E+01  6.697544E+00 -1.010075E+02 -3.340537E-13  1.085675E-13
       259  11  1.495595E+03 -2.517702E+01  6.072485E+00 -6.677566E+01 -1.837295E-13 -9.604044E-14
       259  12  1.544698E+03  9.788236E+00  2.629081E+01 -2.974995E+01 -4.175671E-15 -1.190066E-13
       259  13  1.487926E+03 -4.426033E+01  5.659344E+00 -5.608814E+01  1.205725E-13  1.670269E-14
       259  14  1.515275E+03 -3.023075E+01  5.042270E+00 -3.720536E+01  2.479305E-14 -8.351343E-14
       259  15  1.585180E+03  2.640486E+00  2.745998E+01 -1.589334E+01 -1.086327E-13 -2.171349E-13
       259  16  1.492786E+03 -3.675826E+01  9.962954E+00 -1.930487E+01  2.672430E-13 -1.670269E-14
       259  17  1.540532E+03 -2.451598E+01  1.116087E+01 -1.584115E+01  1.336215E-13 -8.351343E-14
       259  18  1.631989E+03  7.463947E+00  3.758907E+01 -1.030948E+01  7.516208E-14 -1.899930E-13
       259  19  1.487891E+03 -4.218047E+01  6.697544E+00 -1.010075E+02  1.103783E+00 -1.030637E+01
       259  20  1.495595E+03 -2.517702E+01  6.072485E+00 -6.677566E+01  6.714125E+00 -7.478656E+00
       259  21  1.544698E+03  9.788236E+00  2.629081E+01 -2.974995E+01  1.092776E+01 -4.546406E+00
       259  22  1.487926E+03 -4.426033E+01  5.659344E+00 -5.608814E+01  1.848191E-01 -1.630296E+01
       259  23  1.515275E+03 -3.023075E+01  5.042270E+00 -3.720536E+01  4.474758E+00 -1.179729E+01
       259  24  1.585180E+03  2.640486E+00  2.745998E+01 -1.589334E+01  7.347371E+00 -7.161166E+00
       259  25  1.492786E+03 -3.675826E+01  9.962954E+00 -1.930487E+01 -7.576248E-01 -2.088179E+01
       259  26  1.540532E+03 -2.451598E+01  1.116087E+01 -1.584115E+01  2.221740E+00 -1.467829E+01
       259  27  1.631989E+03  7.463947E+00  3.758907E+01 -1.030948E+01  3.763809E+00 -8.318151E+00
       260   1  1.480770E+03 -1.735778E+02  9.419023E-02 -4.297961E+01  1.436563E+01  1.886698E+01
       260   2  1.488029E+03 -1.201626E+02  1.688687E+00 -7.421021E+01  9.149366E+00  1.491272E+01
       260   3  1.489162E+03 -6.913099E+01  4.791040E+00 -1.001437E+02  2.848274E+00  1.103967E+01
       260   4  1.426358E+03 -1.650155E+02 -1.494473E-01  1.421955E+01  1.007785E+01  2.345920E+01
       260   5  1.453067E+03 -1.193673E+02  1.881971E-01 -2.012576E+01  6.915775E+00  2.035559E+01
       260   6  1.474106E+03 -7.638562E+01  1.222228E+00 -4.938373E+01  2.748758E+00  1.734447E+01
       260   7  1.376482E+03 -1.445561E+02  2.204494E-01  6.236199E+01  5.864920E+00  2.583421E+01
       260   8  1.424074E+03 -1.046738E+02  2.504995E+00  2.460524E+01  4.744928E+00  2.349720E+01
       260   9  1.466445E+03 -6.772058E+01  4.678150E+00 -8.280207E+00  2.698348E+00  2.126114E+01
       260  10  1.480770E+03 -1.735778E+02  9.419023E-02 -4.297961E+01 -1.002161E-13 -1.294458E-13
       260  11  1.488029E+03 -1.201626E+02  1.688687E+00 -7.421021E+01 -3.173510E-13  4.593238E-14
       260  12  1.489162E+03 -6.913099E+01  4.791040E+00 -1.001437E+02 -4.133915E-13  2.380133E-13
       260  13  1.426358E+03 -1.650155E+02 -1.494473E-01  1.421955E+01  1.090894E-13  0.000000E+00
       260  14  1.453067E+03 -1.193673E+02  1.881971E-01 -2.012576E+01 -7.620600E-14  1.503242E-13
       260  15  1.474106E+03 -7.638562E+01  1.222228E+00 -4.938373E+01 -1.785100E-13  1.628512E-13
       260  16  1.376482E+03 -1.445561E+02  2.204494E-01  6.236199E+01 -1.336215E-13 -8.351343E-15
       260  17  1.424074E+03 -1.046738E+02  2.504995E+00  2.460524E+01  6.681074E-14  8.351343E-15
       260  18  1.466445E+03 -6.772058E+01  4.678150E+00 -8.280207E+00  3.006483E-13 -5.010806E-14
       260  19  1.480770E+03 -1.735778E+02  9.419023E-02 -4.297961E+01 -1.436563E+01 -1.886698E+01
       260  20  1.488029E+03 -1.201626E+02  1.688687E+00 -7.421021E+01 -9.149366E+00 -1.491272E+01
       260  21  1.489162E+03 -6.913099E+01  4.791040E+00 -1.001437E+02 -2.848274E+00 -1.103967E+01
       260  22  1.426358E+03 -1.650155E+02 -1.494473E-01  1.421955E+01 -1.007785E+01 -2.345920E+01
       260  23  1.453067E+03 -1.193673E+02  1.881971E-01 -2.012576E+01 -6.915775E+00 -2.035559E+01
       260  24  1.474106E+03 -7.638562E+01  1.222228E+00 -4.938373E+01 -2.748758E+00 -1.734447E+01
       260  25  1.376482E+03 -1.445561E+02  2.204494E-01  6.236199E+01 -5.864920E+00 -2.583421E+01
       260  26  1.424074E+03 -1.046738E+02  2.504995E+00  2.460524E+01 -4.744928E+00 -2.349720E+01
       260  27  1.466445E+03 -6.772058E+01  4.678150E+00 -8.280207E+00 -2.698348E+00 -2.126114E+01
       261   1  1.097417E+03  2.535835E+01 -4.724969E-01  1.338448E+02  4.175297E+00  5.937029E+00
       261   2  1.114352E+03  2.419348E+01  6.652807E-01  1.434877E+02  3.972941E+00  8.160885E+00
       261   3  1.129654E+03  1.786743E+01  1.238693E-01  1.553220E+02  3.778189E+00  1.049368E+01
       261   4  1.128648E+03  1.653339E+01 -1.998529E-01  1.166542E+02  6.033436E+00  5.960949E+00
       261   5  1.151730E+03  1.621016E+01  1.052381E+00  1.243635E+02  5.966139E+00  8.206327E+00
       261   6  1.172953E+03  1.051595E+01  3.277115E-01  1.343489E+02  5.905063E+00  1.056282E+01
       261   7  1.161472E+03  8.763439E+00  3.781885E-01  9.868822E+01  7.958658E+00  5.965397E+00
       261   8  1.190849E+03  9.317803E+00  1.763308E+00  1.044428E+02  8.028079E+00  8.232789E+00
       261   9  1.218132E+03  4.286806E+00  8.698827E-01  1.125610E+02  8.102250E+00  1.061351E+01
       261  10  1.097417E+03  2.535835E+01 -4.724969E-01  1.338448E+02 -7.516208E-14 -1.753782E-13
       261  11  1.114352E+03  2.419348E+01  6.652807E-01  1.434877E+02 -1.377972E-13 -2.881213E-13
       261  12  1.129654E+03  1.786743E+01  1.238693E-01  1.553220E+02  1.753782E-13 -2.870774E-13
       261  13  1.128648E+03  1.653339E+01 -1.998529E-01  1.166542E+02 -1.503242E-13  5.845940E-14
       261  14  1.151730E+03  1.621016E+01  1.052381E+00  1.243635E+02 -6.848101E-13  3.758104E-14
       261  15  1.172953E+03  1.051595E+01  3.277115E-01  1.343489E+02  1.503242E-13 -7.098641E-14
       261  16  1.161472E+03  8.763439E+00  3.781885E-01  9.868822E+01 -2.254863E-13  2.839457E-13
       261  17  1.190849E+03  9.317803E+00  1.763308E+00  1.044428E+02 -5.010806E-14  1.795539E-13
       261  18  1.218132E+03  4.286806E+00  8.698827E-01  1.125610E+02  2.797700E-13  9.708436E-14
       261  19  1.097417E+03  2.535835E+01 -4.724969E-01  1.338448E+02 -4.175297E+00 -5.937029E+00
       261  20  1.114352E+03  2.419348E+01  6.652807E-01  1.434877E+02 -3.972941E+00 -8.160885E+00
       261  21  1.129654E+03  1.786743E+01  1.238693E-01  1.553220E+02 -3.778189E+00 -1.049368E+01
       261  22  1.128648E+03  1.653339E+01 -1.998529E-01  1.166542E+02 -6.033436E+00 -5.960949E+00
       261  23  1.151730E+03  1.621016E+01  1.052381E+00  1.243635E+02 -5.966139E+00 -8.206327E+00
       261  24  1.172953E+03  1.051595E+01  3.277115E-01  1.343489E+02 -5.905063E+00 -1.056282E+01
       261  25  1.161472E+03  8.763439E+00  3.781885E-01  9.868822E+01 -7.958658E+00 -5.965397E+00
       261  26  1.190849E+03  9.317803E+00  1.763308E+00  1.044428E+02 -8.028079E+00 -8.232789E+00
       261  27  1.218132E+03  4.286806E+00  8.698827E-01  1.125610E+02 -8.102250E+00 -1.061351E+01
       262   1  1.137555E+03  1.338188E+01 -6.666350E-01  1.607838E+02  3.946130E+00  1.183802E+01
       262   2  1.157857E+03  7.488339E+00  8.925968E-01  1.656210E+02  3.397502E+00  1.440934E+01
       262   3  1.175702E+03 -5.494245E+00  3.190307E-01  1.720027E+02  2.850134E+00  1.699842E+01
       262   4  1.186141E+03  7.674364E+00  2.915436E-01  1.384356E+02  6.133442E+00  1.190191E+01
       262   5  1.211739E+03  3.687053E+00  1.650589E+00  1.410248E+02  5.641491E+00  1.443629E+01
       262   6  1.234678E+03 -7.642673E+00  6.401240E-01  1.452310E+02  5.150668E+00  1.699061E+01
       262   7  1.236512E+03  2.740386E+00  1.455480E+00  1.156752E+02  8.316643E+00  1.196684E+01
       262   8  1.267568E+03  7.580352E-01  2.731275E+00  1.159769E+02  7.883376E+00  1.446375E+01
       262   9  1.295756E+03 -8.826946E+00  1.396533E+00  1.179709E+02  7.451041E+00  1.698284E+01
       262  10  1.137555E+03  1.338188E+01 -6.666350E-01  1.607838E+02  5.261346E-13 -4.008645E-13
       262  11  1.157857E+03  7.488339E+00  8.925968E-01  1.656210E+02  4.593238E-14 -3.758104E-13
       262  12  1.175702E+03 -5.494245E+00  3.190307E-01  1.720027E+02 -5.887697E-13 -1.795539E-13
       262  13  1.186141E+03  7.674364E+00  2.915436E-01  1.384356E+02  3.674591E-13 -1.837295E-13
       262  14  1.211739E+03  3.687053E+00  1.650589E+00  1.410248E+02  2.505403E-13 -1.920809E-13
       262  15  1.234678E+03 -7.642673E+00  6.401240E-01  1.452310E+02 -3.841618E-13  2.505403E-14
       262  16  1.236512E+03  2.740386E+00  1.455480E+00  1.156752E+02  2.254863E-13  7.516208E-14
       262  17  1.267568E+03  7.580352E-01  2.731275E+00  1.159769E+02  2.755943E-13 -5.010806E-14
       262  18  1.295756E+03 -8.826946E+00  1.396533E+00  1.179709E+02 -1.043918E-13  3.653712E-14
       262  19  1.137555E+03  1.338188E+01 -6.666350E-01  1.607838E+02 -3.946130E+00 -1.183802E+01
       262  20  1.157857E+03  7.488339E+00  8.925968E-01  1.656210E+02 -3.397502E+00 -1.440934E+01
       262  21  1.175702E+03 -5.494245E+00  3.190307E-01  1.720027E+02 -2.850134E+00 -1.699842E+01
       262  22  1.186141E+03  7.674364E+00  2.915436E-01  1.384356E+02 -6.133442E+00 -1.190191E+01
       262  23  1.211739E+03  3.687053E+00  1.650589E+00  1.410248E+02 -5.641491E+00 -1.443629E+01
       262  24  1.234678E+03 -7.642673E+00  6.401240E-01  1.452310E+02 -5.150668E+00 -1.699061E+01
       262  25  1.236512E+03  2.740386E+00  1.455480E+00  1.156752E+02 -8.316643E+00 -1.196684E+01
       262  26  1.267568E+03  7.580352E-01  2.731275E+00  1.159769E+02 -7.883376E+00 -1.446375E+01
       262  27  1.295756E+03 -8.826946E+00  1.396533E+00  1.179709E+02 -7.451041E+00 -1.698284E+01
       263   1  1.266366E+03  2.298018E+00  2.534255E+00  9.828508E+01  9.681564E+00  1.223627E+01
       263   2  1.301314E+03  1.409030E+00  3.899062E+00  9.722395E+01  9.259542E+00  1.486250E+01
       263   3  1.335201E+03 -2.962189E+00  4.401870E+00  9.889275E+01  8.834652E+00  1.740338E+01
       263   4  1.318808E+03 -1.235592E+00  5.543301E+00  5.835993E+01  1.156559E+01  8.126230E+00
       263   5  1.361661E+03 -1.282917E+00  7.524129E+00  5.713554E+01  1.108835E+01  9.957547E+00
       263   6  1.403312E+03 -4.876378E+00  8.579129E+00  5.869233E+01  1.060993E+01  1.172668E+01
       263   7  1.380699E+03  9.574991E-01  1.639060E+01  1.709127E+01  1.275808E+01  4.192260E+00
       263   8  1.432000E+03  2.221911E+00  2.010954E+01  1.572731E+01  1.224835E+01  5.214185E+00
       263   9  1.481952E+03 -1.252049E-01  2.283671E+01  1.719632E+01  1.173845E+01  6.198077E+00
       263  10  1.266366E+03  2.298018E+00  2.534255E+00  9.828508E+01  9.186477E-14  8.351343E-14
       263  11  1.301314E+03  1.409030E+00  3.899062E+00  9.722395E+01  8.351343E-15  6.263507E-14
       263  12  1.335201E+03 -2.962189E+00  4.401870E+00  9.889275E+01  5.010806E-14  1.346654E-13
       263  13  1.318808E+03 -1.235592E+00  5.543301E+00  5.835993E+01 -3.340537E-14  0.000000E+00
       263  14  1.361661E+03 -1.282917E+00  7.524129E+00  5.713554E+01  4.342698E-13 -1.085675E-13
       263  15  1.403312E+03 -4.876378E+00  8.579129E+00  5.869233E+01  0.000000E+00 -3.340537E-14
       263  16  1.380699E+03  9.574991E-01  1.639060E+01  1.709127E+01 -7.516208E-14 -2.505403E-14
       263  17  1.432000E+03  2.221911E+00  2.010954E+01  1.572731E+01  6.681074E-14 -2.380133E-13
       263  18  1.481952E+03 -1.252049E-01  2.283671E+01  1.719632E+01  2.505403E-14 -2.474085E-13
       263  19  1.266366E+03  2.298018E+00  2.534255E+00  9.828508E+01 -9.681564E+00 -1.223627E+01
       263  20  1.301314E+03  1.409030E+00  3.899062E+00  9.722395E+01 -9.259542E+00 -1.486250E+01
       263  21  1.335201E+03 -2.962189E+00  4.401870E+00  9.889275E+01 -8.834652E+00 -1.740338E+01
       263  22  1.318808E+03 -1.235592E+00  5.543301E+00  5.835993E+01 -1.156559E+01 -8.126230E+00
       263  23  1.361661E+03 -1.282917E+00  7.524129E+00  5.713554E+01 -1.108835E+01 -9.957547E+00
       263  24  1.403312E+03 -4.876378E+00  8.579129E+00  5.869233E+01 -1.060993E+01 -1.172668E+01
       263  25  1.380699E+03  9.574991E-01  1.639060E+01  1.709127E+01 -1.275808E+01 -4.192260E+00
       263  26  1.432000E+03  2.221911E+00  2.010954E+01  1.572731E+01 -1.224835E+01 -5.214185E+00
       263  27  1.481952E+03 -1.252049E-01  2.283671E+01  1.719632E+01 -1.173845E+01 -6.198077E+00
       264   1  1.180453E+03  5.068560E+00  5.740332E-01  8.453198E+01  9.170694E+00  6.115740E+00
       264   2  1.214104E+03  6.330267E+00  2.216929E+00  8.863737E+01  9.304601E+00  8.453351E+00
       264   3  1.246336E+03  3.604854E+00  2.183346E+00  9.590080E+01  9.440060E+00  1.083717E+01
       264   4  1.212961E+03  1.274451E+00  2.306941E+00  5.030844E+01  1.087292E+01  3.923328E+00
       264   5  1.254688E+03  2.478561E+00  4.591664E+00  5.215942E+01  1.106900E+01  5.517031E+00
       264   6  1.294791E+03 -4.030653E-01  5.002206E+00  5.729106E+01  1.126643E+01  7.182054E+00
       264   7  1.247650E+03 -1.198087E-01  6.887971E+00  1.483621E+01  1.195907E+01  1.909757E+00
       264   8  1.298124E+03  1.483850E+00  1.083998E+01  1.442382E+01  1.224052E+01  2.744410E+00
       264   9  1.346758E+03 -1.099608E+00  1.271562E+01  1.741799E+01  1.252240E+01  3.676602E+00
       264  10  1.180453E+03  5.068560E+00  5.740332E-01  8.453198E+01 -2.672430E-13  3.006483E-13
       264  11  1.214104E+03  6.330267E+00  2.216929E+00  8.863737E+01 -1.544998E-13  3.048240E-13
       264  12  1.246336E+03  3.604854E+00  2.183346E+00  9.590080E+01 -7.516208E-14  4.384455E-14
       264  13  1.212961E+03  1.274451E+00  2.306941E+00  5.030844E+01 -5.010806E-14  5.845940E-14
       264  14  1.254688E+03  2.478561E+00  4.591664E+00  5.215942E+01  5.010806E-13  1.879052E-13
       264  15  1.294791E+03 -4.030653E-01  5.002206E+00  5.729106E+01  1.670269E-14  4.175671E-14
       264  16  1.247650E+03 -1.198087E-01  6.887971E+00  1.483621E+01 -7.516208E-14 -2.004322E-13
       264  17  1.298124E+03  1.483850E+00  1.083998E+01  1.442382E+01 -2.505403E-14  7.933776E-14
       264  18  1.346758E+03 -1.099608E+00  1.271562E+01  1.741799E+01 -1.962566E-13 -2.401011E-14
       264  19  1.180453E+03  5.068560E+00  5.740332E-01  8.453198E+01 -9.170694E+00 -6.115740E+00
       264  20  1.214104E+03  6.330267E+00  2.216929E+00  8.863737E+01 -9.304601E+00 -8.453351E+00
       264  21  1.246336E+03  3.604854E+00  2.183346E+00  9.590080E+01 -9.440060E+00 -1.083717E+01
       264  22  1.212961E+03  1.274451E+00  2.306941E+00  5.030844E+01 -1.087292E+01 -3.923328E+00
       264  23  1.254688E+03  2.478561E+00  4.591664E+00  5.215942E+01 -1.106900E+01 -5.517031E+00
       264  24  1.294791E+03 -4.030653E-01  5.002206E+00  5.729106E+01 -1.126643E+01 -7.182054E+00
       264  25  1.247650E+03 -1.198087E-01  6.887971E+00  1.483621E+01 -1.195907E+01 -1.909757E+00
       264  26  1.298124E+03  1.483850E+00  1.083998E+01  1.442382E+01 -1.224052E+01 -2.744410E+00
       264  27  1.346758E+03 -1.099608E+00  1.271562E+01  1.741799E+01 -1.252240E+01 -3.676602E+00
       265   1  1.349987E+03 -1.294474E+02  7.610597E-02  8.973228E+01  4.729237E+00  2.616679E+01
       265   2  1.401794E+03 -9.541828E+01  1.365921E+00  5.218599E+01  4.346637E+00  2.421733E+01
       265   3  1.450051E+03 -6.343676E+01  2.872840E+00  1.813362E+01  3.332550E+00  2.234368E+01
       265   4  1.308948E+03 -9.983168E+01  8.532617E-01  1.205105E+02  3.804778E+00  2.586478E+01
       265   5  1.368971E+03 -7.362727E+01  2.322735E+00  8.373792E+01  4.312892E+00  2.446679E+01
       265   6  1.425502E+03 -4.986499E+01  3.268655E+00  5.047052E+01  4.221727E+00  2.315356E+01
       265   7  1.266099E+03 -7.337349E+01 -8.363472E-01  1.472093E+02  2.869247E+00  2.460882E+01
       265   8  1.334892E+03 -5.447483E+01  2.073389E+00  1.110456E+02  4.269849E+00  2.372733E+01
       265   9  1.400252E+03 -3.841386E+01  3.719363E+00  7.839165E+01  5.103608E+00  2.293820E+01
       265  10  1.349987E+03 -1.294474E+02  7.610597E-02  8.973228E+01 -2.004322E-13  2.505403E-14
       265  11  1.401794E+03 -9.541828E+01  1.365921E+00  5.218599E+01 -1.336215E-13  1.670269E-14
       265  12  1.450051E+03 -6.343676E+01  2.872840E+00  1.813362E+01 -1.210945E-13 -5.845940E-14
       265  13  1.308948E+03 -9.983168E+01  8.532617E-01  1.205105E+02 -2.609795E-16 -6.681074E-14
       265  14  1.368971E+03 -7.362727E+01  2.322735E+00  8.373792E+01  3.962973E-13 -1.169188E-13
       265  15  1.425502E+03 -4.986499E+01  3.268655E+00  5.047052E+01 -3.989071E-13 -1.670269E-14
       265  16  1.266099E+03 -7.337349E+01 -8.363472E-01  1.472093E+02  4.676752E-13 -5.845940E-14
       265  17  1.334892E+03 -5.447483E+01  2.073389E+00  1.110456E+02  6.681074E-14 -6.681074E-14
       265  18  1.400252E+03 -3.841386E+01  3.719363E+00  7.839165E+01  2.004322E-13 -2.818578E-14
       265  19  1.349987E+03 -1.294474E+02  7.610597E-02  8.973228E+01 -4.729237E+00 -2.616679E+01
       265  20  1.401794E+03 -9.541828E+01  1.365921E+00  5.218599E+01 -4.346637E+00 -2.421733E+01
       265  21  1.450051E+03 -6.343676E+01  2.872840E+00  1.813362E+01 -3.332550E+00 -2.234368E+01
       265  22  1.308948E+03 -9.983168E+01  8.532617E-01  1.205105E+02 -3.804778E+00 -2.586478E+01
       265  23  1.368971E+03 -7.362727E+01  2.322735E+00  8.373792E+01 -4.312892E+00 -2.446679E+01
       265  24  1.425502E+03 -4.986499E+01  3.268655E+00  5.047052E+01 -4.221727E+00 -2.315356E+01
       265  25  1.266099E+03 -7.337349E+01 -8.363472E-01  1.472093E+02 -2.869247E+00 -2.460882E+01
       265  26  1.334892E+03 -5.447483E+01  2.073389E+00  1.110456E+02 -4.269849E+00 -2.372733E+01
       265  27  1.400252E+03 -3.841386E+01  3.719363E+00  7.839165E+01 -5.103608E+00 -2.293820E+01
       266   1  1.482425E+03 -3.574847E+01  8.157152E+00  4.426335E+00  2.493477E+00  2.227052E+01
       266   2  1.542678E+03 -2.265828E+01  1.204467E+01 -1.390477E+00  1.015414E+00  1.542871E+01
       266   3  1.636807E+03  6.344176E+00  3.754016E+01 -5.903112E+00 -4.316453E-01  8.583171E+00
       266   4  1.460477E+03 -2.932737E+01  6.588508E+00  3.396987E+01  3.892934E+00  2.319961E+01
       266   5  1.526579E+03 -2.081784E+01  9.822180E+00  1.773657E+01  3.245415E+00  1.619572E+01
       266   6  1.627099E+03  3.730825E+00  3.491838E+01  2.546188E+00  2.663985E+00  9.182483E+00
       266   7  1.440216E+03 -1.994024E+01  7.822346E+00  6.064474E+01  5.287244E+00  2.323326E+01
       266   8  1.512731E+03 -1.535526E+01  1.156371E+01  3.382466E+01  5.472325E+00  1.603100E+01
       266   9  1.620209E+03  5.404492E+00  3.742691E+01  7.777688E+00  5.758854E+00  8.812206E+00
       266  10  1.482425E+03 -3.574847E+01  8.157152E+00  4.426335E+00 -6.681074E-14  8.351343E-14
       266  11  1.542678E+03 -2.265828E+01  1.204467E+01 -1.390477E+00  6.681074E-14 -3.758104E-14
       266  12  1.636807E+03  6.344176E+00  3.754016E+01 -5.903112E+00  2.046079E-13 -2.630673E-13
       266  13  1.460477E+03 -2.932737E+01  6.588508E+00  3.396987E+01  1.552828E-14 -1.002161E-13
       266  14  1.526579E+03 -2.081784E+01  9.822180E+00  1.773657E+01 -6.922480E-14 -1.336215E-13
       266  15  1.627099E+03  3.730825E+00  3.491838E+01  2.546188E+00  4.350201E-14 -1.002161E-13
       266  16  1.440216E+03 -1.994024E+01  7.822346E+00  6.064474E+01  0.000000E+00 -1.169188E-13
       266  17  1.512731E+03 -1.535526E+01  1.156371E+01  3.382466E+01  0.000000E+00 -8.351343E-14
       266  18  1.620209E+03  5.404492E+00  3.742691E+01  7.777688E+00 -1.962566E-13 -1.106553E-13
       266  19  1.482425E+03 -3.574847E+01  8.157152E+00  4.426335E+00 -2.493477E+00 -2.227052E+01
       266  20  1.542678E+03 -2.265828E+01  1.204467E+01 -1.390477E+00 -1.015414E+00 -1.542871E+01
       266  21  1.636807E+03  6.344176E+00  3.754016E+01 -5.903112E+00  4.316453E-01 -8.583171E+00
       266  22  1.460477E+03 -2.932737E+01  6.588508E+00  3.396987E+01 -3.892934E+00 -2.319961E+01
       266  23  1.526579E+03 -2.081784E+01  9.822180E+00  1.773657E+01 -3.245415E+00 -1.619572E+01
       266  24  1.627099E+03  3.730825E+00  3.491838E+01  2.546188E+00 -2.663985E+00 -9.182483E+00
       266  25  1.440216E+03 -1.994024E+01  7.822346E+00  6.064474E+01 -5.287244E+00 -2.323326E+01
       266  26  1.512731E+03 -1.535526E+01  1.156371E+01  3.382466E+01 -5.472325E+00 -1.603100E+01
       266  27  1.620209E+03  5.404492E+00  3.742691E+01  7.777688E+00 -5.758854E+00 -8.812206E+00
       267   1  1.422384E+03 -1.654827E+01  6.853047E+00  7.286319E+01  6.385229E+00  2.257930E+01
       267   2  1.498555E+03 -1.279170E+01  1.176662E+01  4.190768E+01  7.323514E+00  1.540989E+01
       267   3  1.595859E+03  2.059319E+00  3.296026E+01  1.036361E+01  7.683839E+00  8.341923E+00
       267   4  1.389053E+03 -1.032878E+01  5.569912E+00  8.403307E+01  7.446298E+00  2.086529E+01
       267   5  1.462167E+03 -8.993502E+00  9.869417E+00  4.867576E+01  8.712895E+00  1.426513E+01
       267   6  1.556000E+03  3.032736E+00  2.956980E+01  1.262290E+01  9.412113E+00  7.776866E+00
       267   7  1.355398E+03 -5.736815E+00  4.781714E+00  9.626963E+01  8.505233E+00  1.878077E+01
       267   8  1.425621E+03 -6.650638E+00  8.865333E+00  5.652465E+01  1.010101E+01  1.273877E+01
       267   9  1.516146E+03  2.722807E+00  2.747041E+01  1.597715E+01  1.114009E+01  6.818700E+00
       267  10  1.422384E+03 -1.654827E+01  6.853047E+00  7.286319E+01 -2.338376E-13  1.294458E-13
       267  11  1.498555E+03 -1.279170E+01  1.176662E+01  4.190768E+01 -2.672430E-13  3.131754E-14
       267  12  1.595859E+03  2.059319E+00  3.296026E+01  1.036361E+01 -9.186477E-14  8.038167E-14
       267  13  1.389053E+03 -1.032878E+01  5.569912E+00  8.403307E+01 -1.514986E-13  1.002161E-13
       267  14  1.462167E+03 -8.993502E+00  9.869417E+00  4.867576E+01  1.494107E-14 -3.340537E-14
       267  15  1.556000E+03  3.032736E+00  2.956980E+01  1.262290E+01 -2.163520E-13 -2.922970E-14
       267  16  1.355398E+03 -5.736815E+00  4.781714E+00  9.626963E+01  1.002161E-13  8.351343E-14
       267  17  1.425621E+03 -6.650638E+00  8.865333E+00  5.652465E+01  2.004322E-13 -8.351343E-15
       267  18  1.516146E+03  2.722807E+00  2.747041E+01  1.597715E+01  2.129592E-13 -8.873302E-14
       267  19  1.422384E+03 -1.654827E+01  6.853047E+00  7.286319E+01 -6.385229E+00 -2.257930E+01
       267  20  1.498555E+03 -1.279170E+01  1.176662E+01  4.190768E+01 -7.323514E+00 -1.540989E+01
       267  21  1.595859E+03  2.059319E+00  3.296026E+01  1.036361E+01 -7.683839E+00 -8.341923E+00
       267  22  1.389053E+03 -1.032878E+01  5.569912E+00  8.403307E+01 -7.446298E+00 -2.086529E+01
       267  23  1.462167E+03 -8.993502E+00  9.869417E+00  4.867576E+01 -8.712895E+00 -1.426513E+01
       267  24  1.556000E+03  3.032736E+00  2.956980E+01  1.262290E+01 -9.412113E+00 -7.776866E+00
       267  25  1.355398E+03 -5.736815E+00  4.781714E+00  9.626963E+01 -8.505233E+00 -1.878077E+01
       267  26  1.425621E+03 -6.650638E+00  8.865333E+00  5.652465E+01 -1.010101E+01 -1.273877E+01
       267  27  1.516146E+03  2.722807E+00  2.747041E+01  1.597715E+01 -1.114009E+01 -6.818700E+00
       268   1  1.248129E+03 -5.702478E+01  5.477674E-02  1.576556E+02  2.342427E+00  2.349475E+01
       268   2  1.313793E+03 -4.472745E+01  1.042853E+00  1.240440E+02  4.111042E+00  2.283522E+01
       268   3  1.379064E+03 -3.305688E+01  2.054721E+00  9.157796E+01  5.609010E+00  2.222320E+01
       268   4  1.218583E+03 -3.258573E+01  9.176290E-01  1.655241E+02  2.693023E+00  2.114064E+01
       268   5  1.284255E+03 -2.502895E+01  2.474376E+00  1.340289E+02  4.725550E+00  2.076208E+01
       268   6  1.349332E+03 -1.841135E+01  3.549821E+00  1.037486E+02  6.496401E+00  2.043512E+01
       268   7  1.185634E+03 -1.637248E+01 -1.307580E+00  1.730715E+02  3.040088E+00  1.848400E+01
       268   8  1.251348E+03 -1.367988E+01  1.049833E+00  1.436793E+02  5.337108E+00  1.837656E+01
       268   9  1.316260E+03 -1.225038E+01  2.416011E+00  1.155713E+02  7.381489E+00  1.832445E+01
       268  10  1.248129E+03 -5.702478E+01  5.477674E-02  1.576556E+02 -3.340537E-13 -5.219589E-15
       268  11  1.313793E+03 -4.472745E+01  1.042853E+00  1.240440E+02 -1.169188E-13  2.087836E-15
       268  12  1.379064E+03 -3.305688E+01  2.054721E+00  9.157796E+01 -1.336215E-13 -1.252701E-14
       268  13  1.218583E+03 -3.258573E+01  9.176290E-01  1.655241E+02 -1.347959E-13 -8.351343E-14
       268  14  1.284255E+03 -2.502895E+01  2.474376E+00  1.340289E+02 -1.422338E-14 -3.340537E-14
       268  15  1.349332E+03 -1.841135E+01  3.549821E+00  1.037486E+02  5.428373E-14  8.351343E-15
       268  16  1.185634E+03 -1.637248E+01 -1.307580E+00  1.730715E+02  3.674591E-13 -9.186477E-14
       268  17  1.251348E+03 -1.367988E+01  1.049833E+00  1.436793E+02  3.006483E-13 -9.186477E-14
       268  18  1.316260E+03 -1.225038E+01  2.416011E+00  1.155713E+02  1.169188E-13  7.098641E-14
       268  19  1.248129E+03 -5.702478E+01  5.477674E-02  1.576556E+02 -2.342427E+00 -2.349475E+01
       268  20  1.313793E+03 -4.472745E+01  1.042853E+00  1.240440E+02 -4.111042E+00 -2.283522E+01
       268  21  1.379064E+03 -3.305688E+01  2.054721E+00  9.157796E+01 -5.609010E+00 -2.222320E+01
       268  22  1.218583E+03 -3.258573E+01  9.176290E-01  1.655241E+02 -2.693023E+00 -2.114064E+01
       268  23  1.284255E+03 -2.502895E+01  2.474376E+00  1.340289E+02 -4.725550E+00 -2.076208E+01
       268  24  1.349332E+03 -1.841135E+01  3.549821E+00  1.037486E+02 -6.496401E+00 -2.043512E+01
       268  25  1.185634E+03 -1.637248E+01 -1.307580E+00  1.730715E+02 -3.040088E+00 -1.848400E+01
       268  26  1.251348E+03 -1.367988E+01  1.049833E+00  1.436793E+02 -5.337108E+00 -1.837656E+01
       268  27  1.316260E+03 -1.225038E+01  2.416011E+00  1.155713E+02 -7.381489E+00 -1.832445E+01
       269   1  1.034810E+03 -1.921724E+00 -6.772999E+00  6.614633E+00  5.894138E+00 -9.165385E-01
       269   2  1.018926E+03 -9.618138E-01 -6.191006E+00  4.175892E+00  4.709114E+00 -1.133357E+00
       269   3  1.001771E+03 -2.109263E+00 -7.752191E+00  2.291782E+00  3.524796E+00 -1.097934E+00
       269   4  1.043551E+03  4.547725E+00 -2.266361E+00  2.117522E+01  5.379698E+00 -1.492156E+00
       269   5  1.029240E+03  5.780490E+00 -1.641979E+00  1.530143E+01  4.440371E+00 -1.842871E+00
       269   6  1.013818E+03  5.037624E+00 -2.806008E+00  9.944412E+00  3.504466E+00 -1.924184E+00
       269   7  1.043112E+03  6.941118E+00 -2.256454E+00  3.619452E+01  4.761533E+00 -2.046971E+00
       269   8  1.030241E+03  8.370336E+00 -1.702957E+00  2.678300E+01  4.082442E+00 -2.537996E+00
       269   9  1.016414E+03  7.952865E+00 -2.584671E+00  1.784513E+01  3.410053E+00 -2.741460E+00
       269  10  1.034810E+03 -1.921724E+00 -6.772999E+00  6.614633E+00 -1.419728E-13  5.845940E-14
       269  11  1.018926E+03 -9.618138E-01 -6.191006E+00  4.175892E+00 -1.712025E-13 -3.799861E-13
       269  12  1.001771E+03 -2.109263E+00 -7.752191E+00  2.291782E+00  3.215267E-13 -3.747665E-13
       269  13  1.043551E+03  4.547725E+00 -2.266361E+00  2.117522E+01 -3.340537E-13  2.087836E-14
       269  14  1.029240E+03  5.780490E+00 -1.641979E+00  1.530143E+01 -1.085675E-12 -1.899930E-13
       269  15  1.013818E+03  5.037624E+00 -2.806008E+00  9.944412E+00  1.002161E-13 -1.398850E-13
       269  16  1.043112E+03  6.941118E+00 -2.256454E+00  3.619452E+01 -1.052269E-12 -2.505403E-14
       269  17  1.030241E+03  8.370336E+00 -1.702957E+00  2.678300E+01  4.843779E-13 -2.922970E-14
       269  18  1.016414E+03  7.952865E+00 -2.584671E+00  1.784513E+01  6.931614E-13  7.098641E-14
       269  19  1.034810E+03 -1.921724E+00 -6.772999E+00  6.614633E+00 -5.894138E+00  9.165385E-01
       269  20  1.018926E+03 -9.618138E-01 -6.191006E+00  4.175892E+00 -4.709114E+00  1.133357E+00
       269  21  1.001771E+03 -2.109263E+00 -7.752191E+00  2.291782E+00 -3.524796E+00  1.097934E+00
       269  22  1.043551E+03  4.547725E+00 -2.266361E+00  2.117522E+01 -5.379698E+00  1.492156E+00
       269  23  1.029240E+03  5.780490E+00 -1.641979E+00  1.530143E+01 -4.440371E+00  1.842871E+00
       269  24  1.013818E+03  5.037624E+00 -2.806008E+00  9.944412E+00 -3.504466E+00  1.924184E+00
       269  25  1.043112E+03  6.941118E+00 -2.256454E+00  3.619452E+01 -4.761533E+00  2.046971E+00
       269  26  1.030241E+03  8.370336E+00 -1.702957E+00  2.678300E+01 -4.082442E+00  2.537996E+00
       269  27  1.016414E+03  7.952865E+00 -2.584671E+00  1.784513E+01 -3.410053E+00  2.741460E+00
       270   1  9.990310E+02 -4.620643E-01 -6.411186E+00  3.406959E-01  2.512512E+00 -9.273351E-01
       270   2  9.983897E+02  4.437113E-01 -4.397986E+00 -5.777712E-01  1.538172E+00 -6.990464E-01
       270   3  9.957007E+02 -2.705716E+00 -5.145549E+00 -1.896785E+00  5.637857E-01 -4.881206E-01
       270   4  1.007295E+03  4.771520E+00 -3.176931E+00  6.229944E+00  2.651740E+00 -1.769361E+00
       270   5  1.004961E+03  4.006989E+00 -2.083066E+00  2.711832E+00  1.695900E+00 -1.457239E+00
       270   6  1.000490E+03 -1.019564E+00 -3.793657E+00 -1.297086E+00  7.398913E-01 -1.158779E+00
       270   7  1.010041E+03  7.520651E+00 -2.959147E+00  1.196304E+01  2.857114E+00 -2.617824E+00
       270   8  1.005805E+03  4.990678E+00 -2.810073E+00  5.734093E+00  1.922846E+00 -2.219274E+00
       270   9  9.993308E+02 -2.028150E+00 -5.519553E+00 -1.085287E+00  9.883613E-01 -1.830354E+00
       270  10  9.990310E+02 -4.620643E-01 -6.411186E+00  3.406959E-01  6.806344E-13 -4.676752E-13
       270  11  9.983897E+02  4.437113E-01 -4.397986E+00 -5.777712E-01 -9.186477E-14 -4.342698E-13
       270  12  9.957007E+02 -2.705716E+00 -5.145549E+00 -1.896785E+00 -3.340537E-13 -7.411817E-14
       270  13  1.007295E+03  4.771520E+00 -3.176931E+00  6.229944E+00  2.839457E-13 -1.649390E-13
       270  14  1.004961E+03  4.006989E+00 -2.083066E+00  2.711832E+00  1.169188E-12 -3.596297E-13
       270  15  1.000490E+03 -1.019564E+00 -3.793657E+00 -1.297086E+00  3.173510E-13 -1.452351E-13
       270  16  1.010041E+03  7.520651E+00 -2.959147E+00  1.196304E+01  1.002161E-13  1.419728E-13
       270  17  1.005805E+03  4.990678E+00 -2.810073E+00  5.734093E+00 -2.922970E-13 -2.171349E-13
       270  18  9.993308E+02 -2.028150E+00 -5.519553E+00 -1.085287E+00  4.217428E-13 -3.257024E-13
       270  19  9.990310E+02 -4.620643E-01 -6.411186E+00  3.406959E-01 -2.512512E+00  9.273351E-01
       270  20  9.983897E+02  4.437113E-01 -4.397986E+00 -5.777712E-01 -1.538172E+00  6.990464E-01
       270  21  9.957007E+02 -2.705716E+00 -5.145549E+00 -1.896785E+00 -5.637857E-01  4.881206E-01
       270  22  1.007295E+03  4.771520E+00 -3.176931E+00  6.229944E+00 -2.651740E+00  1.769361E+00
       270  23  1.004961E+03  4.006989E+00 -2.083066E+00  2.711832E+00 -1.695900E+00  1.457239E+00
       270  24  1.000490E+03 -1.019564E+00 -3.793657E+00 -1.297086E+00 -7.398913E-01  1.158779E+00
       270  25  1.010041E+03  7.520651E+00 -2.959147E+00  1.196304E+01 -2.857114E+00  2.617824E+00
       270  26  1.005805E+03  4.990678E+00 -2.810073E+00  5.734093E+00 -1.922846E+00  2.219274E+00
       270  27  9.993308E+02 -2.028150E+00 -5.519553E+00 -1.085287E+00 -9.883613E-01  1.830354E+00
       271   1  1.010713E+03  1.286989E+01 -2.229255E+00  1.624427E+01  2.945590E+00 -2.856592E+00
       271   2  1.006323E+03  1.003982E+01 -2.148930E+00  8.281653E+00  2.039173E+00 -2.698275E+00
       271   3  9.978195E+02 -1.867880E+00 -6.820572E+00  7.089844E-01  1.135133E+00 -2.460495E+00
       271   4  1.009836E+03  2.226243E+01 -1.716652E+00  2.299880E+01  2.867633E+00 -3.205909E+00
       271   5  1.006518E+03  1.900320E+01 -1.507845E+00  1.268231E+01  2.052817E+00 -3.269081E+00
       271   6  9.989169E+02  6.140178E+00 -6.147803E+00  2.746484E+00  1.241419E+00 -3.250367E+00
       271   7  1.007530E+03  3.104731E+01 -2.079959E+00  2.945978E+01  2.587536E+00 -3.535560E+00
       271   8  1.005271E+03  2.728761E+01 -1.921402E+00  1.661794E+01  1.866037E+00 -3.828766E+00
       271   9  9.985425E+02  1.335254E+01 -6.726835E+00  4.141622E+00  1.149129E+00 -4.037731E+00
       271  10  1.010713E+03  1.286989E+01 -2.229255E+00  1.624427E+01 -5.010806E-13  5.010806E-13
       271  11  1.006323E+03  1.003982E+01 -2.148930E+00  8.281653E+00  4.259185E-13  6.681074E-13
       271  12  9.978195E+02 -1.867880E+00 -6.820572E+00  7.089844E-01  1.586755E-13  5.261346E-13
       271  13  1.009836E+03  2.226243E+01 -1.716652E+00  2.299880E+01  1.336215E-13  1.242262E-13
       271  14  1.006518E+03  1.900320E+01 -1.507845E+00  1.268231E+01  1.670269E-14  3.236145E-13
       271  15  9.989169E+02  6.140178E+00 -6.147803E+00  2.746484E+00  1.336215E-13  1.267055E-13
       271  16  1.007530E+03  3.104731E+01 -2.079959E+00  2.945978E+01  6.012967E-13 -2.755943E-13
       271  17  1.005271E+03  2.728761E+01 -1.921402E+00  1.661794E+01 -2.672430E-13  4.175671E-14
       271  18  9.985425E+02  1.335254E+01 -6.726835E+00  4.141622E+00 -4.259185E-13 -2.004322E-13
       271  19  1.010713E+03  1.286989E+01 -2.229255E+00  1.624427E+01 -2.945590E+00  2.856592E+00
       271  20  1.006323E+03  1.003982E+01 -2.148930E+00  8.281653E+00 -2.039173E+00  2.698275E+00
       271  21  9.978195E+02 -1.867880E+00 -6.820572E+00  7.089844E-01 -1.135133E+00  2.460495E+00
       271  22  1.009836E+03  2.226243E+01 -1.716652E+00  2.299880E+01 -2.867633E+00  3.205909E+00
       271  23  1.006518E+03  1.900320E+01 -1.507845E+00  1.268231E+01 -2.052817E+00  3.269081E+00
       271  24  9.989169E+02  6.140178E+00 -6.147803E+00  2.746484E+00 -1.241419E+00  3.250367E+00
       271  25  1.007530E+03  3.104731E+01 -2.079959E+00  2.945978E+01 -2.587536E+00  3.535560E+00
       271  26  1.005271E+03  2.728761E+01 -1.921402E+00  1.661794E+01 -1.866037E+00  3.828766E+00
       271  27  9.985425E+02  1.335254E+01 -6.726835E+00  4.141622E+00 -1.149129E+00  4.037731E+00
       272   1  1.041571E+03  1.281576E+01 -1.483959E+00  4.273893E+01  4.389125E+00 -2.070533E+00
       272   2  1.029606E+03  1.419400E+01 -1.006292E+00  3.253837E+01  3.849326E+00 -2.562252E+00
       272   3  1.016389E+03  1.288404E+01 -2.168812E+00  2.291360E+01  3.315838E+00 -2.842391E+00
       272   4  1.037533E+03  2.309274E+01 -5.646073E-01  5.220878E+01  3.712798E+00 -2.040756E+00
       272   5  1.027358E+03  2.445946E+01 -1.421306E-01  4.075410E+01  3.381610E+00 -2.674320E+00
       272   6  1.016028E+03  2.315331E+01 -1.124136E+00  2.990111E+01  3.059820E+00 -3.082517E+00
       272   7  1.030872E+03  3.231752E+01 -8.293058E-01  6.165655E+01  2.910575E+00 -1.985721E+00
       272   8  1.022560E+03  3.367944E+01 -4.986047E-01  4.888178E+01  2.800708E+00 -2.768124E+00
       272   9  1.013193E+03  3.237746E+01 -1.338073E+00  3.673465E+01  2.703918E+00 -3.310541E+00
       272  10  1.041571E+03  1.281576E+01 -1.483959E+00  4.273893E+01 -8.059046E-13  7.516208E-14
       272  11  1.029606E+03  1.419400E+01 -1.006292E+00  3.253837E+01  2.755943E-13  2.630673E-13
       272  12  1.016389E+03  1.288404E+01 -2.168812E+00  2.291360E+01  1.018864E-12  2.223545E-13
       272  13  1.037533E+03  2.309274E+01 -5.646073E-01  5.220878E+01 -4.175671E-13  1.461485E-13
       272  14  1.027358E+03  2.445946E+01 -1.421306E-01  4.075410E+01  5.845940E-13  7.098641E-14
       272  15  1.016028E+03  2.315331E+01 -1.124136E+00  2.990111E+01  1.169188E-12 -5.428373E-14
       272  16  1.030872E+03  3.231752E+01 -8.293058E-01  6.165655E+01 -3.591077E-13  2.254863E-13
       272  17  1.022560E+03  3.367944E+01 -4.986047E-01  4.888178E+01  1.336215E-13  1.085675E-13
       272  18  1.013193E+03  3.237746E+01 -1.338073E+00  3.673465E+01  4.342698E-13 -3.048240E-13
       272  19  1.041571E+03  1.281576E+01 -1.483959E+00  4.273893E+01 -4.389125E+00  2.070533E+00
       272  20  1.029606E+03  1.419400E+01 -1.006292E+00  3.253837E+01 -3.849326E+00  2.562252E+00
       272  21  1.016389E+03  1.288404E+01 -2.168812E+00  2.291360E+01 -3.315838E+00  2.842391E+00
       272  22  1.037533E+03  2.309274E+01 -5.646073E-01  5.220878E+01 -3.712798E+00  2.040756E+00
       272  23  1.027358E+03  2.445946E+01 -1.421306E-01  4.075410E+01 -3.381610E+00  2.674320E+00
       272  24  1.016028E+03  2.315331E+01 -1.124136E+00  2.990111E+01 -3.059820E+00  3.082517E+00
       272  25  1.030872E+03  3.231752E+01 -8.293058E-01  6.165655E+01 -2.910575E+00  1.985721E+00
       272  26  1.022560E+03  3.367944E+01 -4.986047E-01  4.888178E+01 -2.800708E+00  2.768124E+00
       272  27  1.013193E+03  3.237746E+01 -1.338073E+00  3.673465E+01 -2.703918E+00  3.310541E+00
       273   1  1.004485E+03  8.257969E+01 -2.063028E-01  6.977045E+01 -6.804719E-01 -3.188048E+00
       273   2  1.009110E+03  7.260950E+01 -3.950792E-02  7.009040E+01  6.783008E-02 -2.938633E+00
       273   3  1.013073E+03  6.223119E+01 -4.588256E-01  7.049569E+01  7.905764E-01 -2.681603E+00
       273   4  1.002986E+03  8.812015E+01  1.458926E-01  5.805258E+01 -7.260286E-01 -4.075455E+00
       273   5  1.006485E+03  7.698434E+01  2.492206E-01  5.820362E+01  4.856166E-02 -3.831664E+00
       273   6  1.009451E+03  6.551766E+01 -1.544240E-01  5.841130E+01  7.945852E-01 -3.581480E+00
       273   7  1.000588E+03  9.213320E+01 -3.597958E-01  4.679301E+01 -7.747489E-01 -4.945338E+00
       273   8  1.003108E+03  7.995489E+01 -1.942912E-01  4.671224E+01  2.675089E-02 -4.703812E+00
       273   9  1.005196E+03  6.750419E+01 -4.704364E-01  4.666985E+01  7.969452E-01 -4.457357E+00
       273  10  1.004485E+03  8.257969E+01 -2.063028E-01  6.977045E+01  2.672430E-13 -1.712025E-13
       273  11  1.009110E+03  7.260950E+01 -3.950792E-02  7.009040E+01  3.340537E-13  2.505403E-14
       273  12  1.013073E+03  6.223119E+01 -4.588256E-01  7.049569E+01  2.547160E-13  1.054357E-13
       273  13  1.002986E+03  8.812015E+01  1.458926E-01  5.805258E+01  2.421889E-13  2.505403E-14
       273  14  1.006485E+03  7.698434E+01  2.492206E-01  5.820362E+01 -4.614117E-13  1.670269E-14
       273  15  1.009451E+03  6.551766E+01 -1.544240E-01  5.841130E+01 -1.858174E-13  3.966888E-14
       273  16  1.000588E+03  9.213320E+01 -3.597958E-01  4.679301E+01  6.681074E-14  1.712025E-13
       273  17  1.003108E+03  7.995489E+01 -1.942912E-01  4.671224E+01  1.336215E-13  8.142559E-14
       273  18  1.005196E+03  6.750419E+01 -4.704364E-01  4.666985E+01 -3.424051E-13 -2.338376E-13
       273  19  1.004485E+03  8.257969E+01 -2.063028E-01  6.977045E+01  6.804719E-01  3.188048E+00
       273  20  1.009110E+03  7.260950E+01 -3.950792E-02  7.009040E+01 -6.783008E-02  2.938633E+00
       273  21  1.013073E+03  6.223119E+01 -4.588256E-01  7.049569E+01 -7.905764E-01  2.681603E+00
       273  22  1.002986E+03  8.812015E+01  1.458926E-01  5.805258E+01  7.260286E-01  4.075455E+00
       273  23  1.006485E+03  7.698434E+01  2.492206E-01  5.820362E+01 -4.856166E-02  3.831664E+00
       273  24  1.009451E+03  6.551766E+01 -1.544240E-01  5.841130E+01 -7.945852E-01  3.581480E+00
       273  25  1.000588E+03  9.213320E+01 -3.597958E-01  4.679301E+01  7.747489E-01  4.945338E+00
       273  26  1.003108E+03  7.995489E+01 -1.942912E-01  4.671224E+01 -2.675089E-02  4.703812E+00
       273  27  1.005196E+03  6.750419E+01 -4.704364E-01  4.666985E+01 -7.969452E-01  4.457357E+00
       274   1  1.015816E+03  5.647822E+01 -6.173584E-01  7.015136E+01  1.205542E+00 -2.487225E+00
       274   2  1.021776E+03  4.775664E+01 -3.529770E-01  6.738665E+01  1.881482E+00 -2.326610E+00
       274   3  1.027370E+03  3.892658E+01 -4.340219E-01  6.451246E+01  2.482018E+00 -2.143544E+00
       274   4  1.011626E+03  5.949843E+01 -1.823771E-01  5.755979E+01  1.208133E+00 -3.377548E+00
       274   5  1.015978E+03  4.995797E+01 -6.319544E-03  5.480641E+01  1.861759E+00 -3.140363E+00
       274   6  1.020053E+03  4.032580E+01 -1.684605E-01  5.190602E+01  2.447979E+00 -2.888111E+00
       274   7  1.006130E+03  5.966821E+01 -1.018559E+00  4.567704E+01  1.207716E+00 -4.192970E+00
       274   8  1.009040E+03  4.948612E+01 -8.151049E-01  4.285330E+01  1.842378E+00 -3.890246E+00
       274   9  1.011737E+03  3.920915E+01 -9.564823E-01  3.985684E+01  2.416503E+00 -3.578010E+00
       274  10  1.015816E+03  5.647822E+01 -6.173584E-01  7.015136E+01  1.336215E-13  1.043918E-13
       274  11  1.021776E+03  4.775664E+01 -3.529770E-01  6.738665E+01  2.004322E-13  8.455735E-14
       274  12  1.027370E+03  3.892658E+01 -4.340219E-01  6.451246E+01 -1.586755E-13  1.398850E-13
       274  13  1.011626E+03  5.949843E+01 -1.823771E-01  5.755979E+01 -1.952126E-13 -5.010806E-14
       274  14  1.015978E+03  4.995797E+01 -6.319544E-03  5.480641E+01  5.959466E-13  1.419728E-13
       274  15  1.020053E+03  4.032580E+01 -1.684605E-01  5.190602E+01  8.664518E-14  5.678913E-13
       274  16  1.006130E+03  5.966821E+01 -1.018559E+00  4.567704E+01  2.004322E-13 -4.593238E-13
       274  17  1.009040E+03  4.948612E+01 -8.151049E-01  4.285330E+01  3.340537E-14  1.252701E-14
       274  18  1.011737E+03  3.920915E+01 -9.564823E-01  3.985684E+01  4.217428E-13  4.958610E-13
       274  19  1.015816E+03  5.647822E+01 -6.173584E-01  7.015136E+01 -1.205542E+00  2.487225E+00
       274  20  1.021776E+03  4.775664E+01 -3.529770E-01  6.738665E+01 -1.881482E+00  2.326610E+00
       274  21  1.027370E+03  3.892658E+01 -4.340219E-01  6.451246E+01 -2.482018E+00  2.143544E+00
       274  22  1.011626E+03  5.949843E+01 -1.823771E-01  5.755979E+01 -1.208133E+00  3.377548E+00
       274  23  1.015978E+03  4.995797E+01 -6.319544E-03  5.480641E+01 -1.861759E+00  3.140363E+00
       274  24  1.020053E+03  4.032580E+01 -1.684605E-01  5.190602E+01 -2.447979E+00  2.888111E+00
       274  25  1.006130E+03  5.966821E+01 -1.018559E+00  4.567704E+01 -1.207716E+00  4.192970E+00
       274  26  1.009040E+03  4.948612E+01 -8.151049E-01  4.285330E+01 -1.842378E+00  3.890246E+00
       274  27  1.011737E+03  3.920915E+01 -9.564823E-01  3.985684E+01 -2.416503E+00  3.578010E+00
       275   1  1.003396E+03  6.003093E+01 -1.303539E+00  3.832826E+01  1.135020E+00 -4.653804E+00
       275   2  1.005301E+03  4.896509E+01 -1.271504E+00  3.520500E+01  1.779883E+00 -4.300984E+00
       275   3  1.006586E+03  3.740982E+01 -1.851262E+00  3.247430E+01  2.315541E+00 -3.934890E+00
       275   4  1.002617E+03  6.019459E+01 -9.212082E-01  2.233880E+01  8.359524E-01 -5.300286E+00
       275   5  1.003815E+03  4.677962E+01 -1.193729E+00  2.038588E+01  1.291302E+00 -4.822814E+00
       275   6  1.004346E+03  3.292778E+01 -2.142319E+00  1.864032E+01  1.663957E+00 -4.339952E+00
       275   7  9.985563E+02  5.289132E+01 -3.998092E+00  6.474696E+00  5.281652E-01 -5.729342E+00
       275   8  9.992816E+02  3.776276E+01 -4.446850E+00  5.616090E+00  8.037384E-01 -5.157151E+00
       275   9  9.992651E+02  2.217927E+01 -5.665096E+00  4.802672E+00  1.019932E+00 -4.584129E+00
       275  10  1.003396E+03  6.003093E+01 -1.303539E+00  3.832826E+01  1.336215E-13 -8.121681E-13
       275  11  1.005301E+03  4.896509E+01 -1.271504E+00  3.520500E+01  1.002161E-13 -1.774660E-13
       275  12  1.006586E+03  3.740982E+01 -1.851262E+00  3.247430E+01  6.263507E-13  4.410553E-13
       275  13  1.002617E+03  6.019459E+01 -9.212082E-01  2.233880E+01  3.361415E-13 -9.186477E-13
       275  14  1.003815E+03  4.677962E+01 -1.193729E+00  2.038588E+01 -6.472291E-14 -2.421889E-13
       275  15  1.004346E+03  3.292778E+01 -2.142319E+00  1.864032E+01 -1.565877E-14  4.175671E-13
       275  16  9.985563E+02  5.289132E+01 -3.998092E+00  6.474696E+00  1.336215E-13 -8.643640E-13
       275  17  9.992816E+02  3.776276E+01 -4.446850E+00  5.616090E+00 -6.681074E-13 -9.604044E-14
       275  18  9.992651E+02  2.217927E+01 -5.665096E+00  4.802672E+00 -5.261346E-13  6.738490E-13
       275  19  1.003396E+03  6.003093E+01 -1.303539E+00  3.832826E+01 -1.135020E+00  4.653804E+00
       275  20  1.005301E+03  4.896509E+01 -1.271504E+00  3.520500E+01 -1.779883E+00  4.300984E+00
       275  21  1.006586E+03  3.740982E+01 -1.851262E+00  3.247430E+01 -2.315541E+00  3.934890E+00
       275  22  1.002617E+03  6.019459E+01 -9.212082E-01  2.233880E+01 -8.359524E-01  5.300286E+00
       275  23  1.003815E+03  4.677962E+01 -1.193729E+00  2.038588E+01 -1.291302E+00  4.822814E+00
       275  24  1.004346E+03  3.292778E+01 -2.142319E+00  1.864032E+01 -1.663957E+00  4.339952E+00
       275  25  9.985563E+02  5.289132E+01 -3.998092E+00  6.474696E+00 -5.281652E-01  5.729342E+00
       275  26  9.992816E+02  3.776276E+01 -4.446850E+00  5.616090E+00 -8.037384E-01  5.157151E+00
       275  27  9.992651E+02  2.217927E+01 -5.665096E+00  4.802672E+00 -1.019932E+00  4.584129E+00
       276   1  1.000372E+03  9.552523E+01 -5.244795E-02  3.884789E+01 -8.011425E-01 -5.435810E+00
       276   2  1.001939E+03  8.188583E+01 -2.050035E-01  3.861141E+01 -4.168100E-02 -5.194017E+00
       276   3  1.002654E+03  6.753017E+01 -1.043854E+00  3.920177E+01  7.125775E-01 -4.951581E+00
       276   4  1.000281E+03  1.017897E+02  7.230072E-01  2.277170E+01 -5.159727E-01 -6.108945E+00
       276   5  1.001312E+03  8.496277E+01  6.678261E-02  2.245913E+01  2.529685E-04 -5.872536E+00
       276   6  1.001519E+03  6.759022E+01 -1.183973E+00  2.286607E+01  5.346614E-01 -5.637307E+00
       276   7  9.994838E+02  1.061442E+02  8.171187E-01  6.648036E+00 -2.802749E-01 -6.508081E+00
       276   8  1.000007E+03  8.636934E+01 -3.934689E-01  6.234407E+00  1.165048E-02 -6.300222E+00
       276   9  9.997213E+02  6.617323E+01 -2.124003E+00  6.446145E+00  3.409431E-01 -6.092886E+00
       276  10  1.000372E+03  9.552523E+01 -5.244795E-02  3.884789E+01 -6.681074E-14  1.785100E-13
       276  11  1.001939E+03  8.188583E+01 -2.050035E-01  3.861141E+01  4.342698E-13  5.637156E-14
       276  12  1.002654E+03  6.753017E+01 -1.043854E+00  3.920177E+01  2.004322E-13 -1.297068E-13
       276  13  1.000281E+03  1.017897E+02  7.230072E-01  2.277170E+01 -6.263507E-14  2.839457E-13
       276  14  1.001312E+03  8.496277E+01  6.678261E-02  2.245913E+01 -3.089997E-13  6.263507E-14
       276  15  1.001519E+03  6.759022E+01 -1.183973E+00  2.286607E+01  3.027362E-14 -5.845940E-14
       276  16  9.994838E+02  1.061442E+02  8.171187E-01  6.648036E+00 -5.344859E-13  2.421889E-13
       276  17  1.000007E+03  8.636934E+01 -3.934689E-01  6.234407E+00  1.670269E-13  4.593238E-14
       276  18  9.997213E+02  6.617323E+01 -2.124003E+00  6.446145E+00  2.087836E-13 -1.594585E-13
       276  19  1.000372E+03  9.552523E+01 -5.244795E-02  3.884789E+01  8.011425E-01  5.435810E+00
       276  20  1.001939E+03  8.188583E+01 -2.050035E-01  3.861141E+01  4.168100E-02  5.194017E+00
       276  21  1.002654E+03  6.753017E+01 -1.043854E+00  3.920177E+01 -7.125775E-01  4.951581E+00
       276  22  1.000281E+03  1.017897E+02  7.230072E-01  2.277170E+01  5.159727E-01  6.108945E+00
       276  23  1.001312E+03  8.496277E+01  6.678261E-02  2.245913E+01 -2.529685E-04  5.872536E+00
       276  24  1.001519E+03  6.759022E+01 -1.183973E+00  2.286607E+01 -5.346614E-01  5.637307E+00
       276  25  9.994838E+02  1.061442E+02  8.171187E-01  6.648036E+00  2.802749E-01  6.508081E+00
       276  26  1.000007E+03  8.636934E+01 -3.934689E-01  6.234407E+00 -1.165048E-02  6.300222E+00
       276  27  9.997213E+02  6.617323E+01 -2.124003E+00  6.446145E+00 -3.409431E-01  6.092886E+00
       277   1  7.272204E+02  1.314328E+02  1.842201E+00  1.217370E+01 -1.501953E+01  2.113551E-01
       277   2  6.690871E+02  1.224772E+02  4.524940E-01  1.389056E+01 -1.839454E+01  3.294100E-01
       277   3  6.105475E+02  1.096503E+02  1.564664E+00  1.745519E+01 -2.176947E+01  5.450478E-01
       277   4  7.238987E+02  1.188081E+02 -1.533650E+00  5.774866E+01 -1.518377E+01  3.128683E+00
       277   5  6.691059E+02  1.074466E+02 -2.361815E+00  6.534933E+01 -1.849198E+01  4.089561E+00
       277   6  6.139197E+02  9.224061E+01 -7.236015E-01  7.482376E+01 -2.179978E+01  5.153160E+00
       277   7  7.432118E+02  1.158254E+02  1.929554E+00  1.004284E+02 -1.459720E+01  5.892001E+00
       277   8  6.913921E+02  1.016543E+02  6.009979E-01  1.138635E+02 -1.783417E+01  7.688838E+00
       277   9  6.391923E+02  8.366522E+01  1.703338E+00  1.291976E+02 -2.107036E+01  9.593417E+00
       277  10  7.272204E+02  1.314328E+02  1.842201E+00  1.217370E+01 -1.837295E-13 -1.336215E-13
       277  11  6.690871E+02  1.224772E+02  4.524940E-01  1.389056E+01  1.753782E-13 -1.842515E-13
       277  12  6.105475E+02  1.096503E+02  1.564664E+00  1.745519E+01  1.670269E-13 -3.547363E-13
       277  13  7.238987E+02  1.188081E+02 -1.533650E+00  5.774866E+01  0.000000E+00  2.609795E-14
       277  14  6.691059E+02  1.074466E+02 -2.361815E+00  6.534933E+01 -3.591077E-13  4.906414E-14
       277  15  6.139197E+02  9.224061E+01 -7.236015E-01  7.482376E+01 -2.087836E-13  6.067772E-14
       277  16  7.432118E+02  1.158254E+02  1.929554E+00  1.004284E+02  3.758104E-13  1.341434E-13
       277  17  6.913921E+02  1.016543E+02  6.009979E-01  1.138635E+02 -2.296619E-13  3.163071E-13
       277  18  6.391923E+02  8.366522E+01  1.703338E+00  1.291976E+02 -1.169188E-13  3.983199E-13
       277  19  7.272204E+02  1.314328E+02  1.842201E+00  1.217370E+01  1.501953E+01 -2.113551E-01
       277  20  6.690871E+02  1.224772E+02  4.524940E-01  1.389056E+01  1.839454E+01 -3.294100E-01
       277  21  6.105475E+02  1.096503E+02  1.564664E+00  1.745519E+01  2.176947E+01 -5.450478E-01
       277  22  7.238987E+02  1.188081E+02 -1.533650E+00  5.774866E+01  1.518377E+01 -3.128683E+00
       277  23  6.691059E+02  1.074466E+02 -2.361815E+00  6.534933E+01  1.849198E+01 -4.089561E+00
       277  24  6.139197E+02  9.224061E+01 -7.236015E-01  7.482376E+01  2.179978E+01 -5.153160E+00
       277  25  7.432118E+02  1.158254E+02  1.929554E+00  1.004284E+02  1.459720E+01 -5.892001E+00
       277  26  6.913921E+02  1.016543E+02  6.009979E-01  1.138635E+02  1.783417E+01 -7.688838E+00
       277  27  6.391923E+02  8.366522E+01  1.703338E+00  1.291976E+02  2.107036E+01 -9.593417E+00
       278   1  5.768644E+02  1.018286E+02  4.040632E+00  1.830768E+01 -2.446213E+01  5.013884E-01
       278   2  4.933938E+02  7.177172E+01  1.203113E+00  1.886323E+01 -3.121454E+01  5.473833E-01
       278   3  4.062763E+02  2.735574E+01  5.366376E-01  2.317269E+01 -3.796649E+01  1.030792E+00
       278   4  5.693569E+02  7.639852E+01 -3.614519E+00  8.243516E+01 -2.498621E+01  6.096672E+00
       278   5  4.945039E+02  4.524329E+01 -3.570295E+00  9.270225E+01 -3.139619E+01  8.220075E+00
       278   6  4.159428E+02 -2.408629E-01 -1.693740E+00  1.067643E+02 -3.780432E+01  1.079091E+01
       278   7  6.053570E+02  6.942373E+01  1.968038E+00  1.411717E+02 -2.364296E+01  1.127070E+01
       278   8  5.381152E+02  3.607960E+01  2.188493E+00  1.610791E+02 -2.970179E+01  1.545445E+01
       278   9  4.671032E+02 -1.156568E+01  3.901637E+00  1.848214E+02 -3.575733E+01  2.009539E+01
       278  10  5.768644E+02  1.018286E+02  4.040632E+00  1.830768E+01 -2.463646E-13 -4.008645E-13
       278  11  4.933938E+02  7.177172E+01  1.203113E+00  1.886323E+01  1.440607E-13 -4.173062E-13
       278  12  4.062763E+02  2.735574E+01  5.366376E-01  2.317269E+01  8.977693E-14 -3.965909E-13
       278  13  5.693569E+02  7.639852E+01 -3.614519E+00  8.243516E+01 -2.505403E-13  2.714186E-14
       278  14  4.945039E+02  4.524329E+01 -3.570295E+00  9.270225E+01  1.503242E-13 -8.873302E-14
       278  15  4.159428E+02 -2.408629E-01 -1.693740E+00  1.067643E+02  2.421889E-13 -1.118297E-13
       278  16  6.053570E+02  6.942373E+01  1.968038E+00  1.411717E+02 -3.507564E-13  4.332259E-13
       278  17  5.381152E+02  3.607960E+01  2.188493E+00  1.610791E+02  2.108714E-13  2.513232E-13
       278  18  4.671032E+02 -1.156568E+01  3.901637E+00  1.848214E+02  3.966888E-13  1.723443E-13
       278  19  5.768644E+02  1.018286E+02  4.040632E+00  1.830768E+01  2.446213E+01 -5.013884E-01
       278  20  4.933938E+02  7.177172E+01  1.203113E+00  1.886323E+01  3.121454E+01 -5.473833E-01
       278  21  4.062763E+02  2.735574E+01  5.366376E-01  2.317269E+01  3.796649E+01 -1.030792E+00
       278  22  5.693569E+02  7.639852E+01 -3.614519E+00  8.243516E+01  2.498621E+01 -6.096672E+00
       278  23  4.945039E+02  4.524329E+01 -3.570295E+00  9.270225E+01  3.139619E+01 -8.220075E+00
       278  24  4.159428E+02 -2.408629E-01 -1.693740E+00  1.067643E+02  3.780432E+01 -1.079091E+01
       278  25  6.053570E+02  6.942373E+01  1.968038E+00  1.411717E+02  2.364296E+01 -1.127070E+01
       278  26  5.381152E+02  3.607960E+01  2.188493E+00  1.610791E+02  2.970179E+01 -1.545445E+01
       278  27  4.671032E+02 -1.156568E+01  3.901637E+00  1.848214E+02  3.575733E+01 -2.009539E+01
       279   1  6.342576E+02  5.254620E+01  1.521870E+00  1.755298E+02 -2.228370E+01  1.323379E+01
       279   2  5.742846E+02  1.302815E+01  3.670371E-01  1.987036E+02 -2.779009E+01  1.803576E+01
       279   3  5.068782E+02 -4.937245E+01 -3.558239E+00  2.330102E+02 -3.327970E+01  2.469891E+01
       279   4  6.920558E+02  1.620135E+01 -2.358295E+00  2.159829E+02 -1.952693E+01  1.731625E+01
       279   5  6.568229E+02 -2.494535E+01 -3.290761E-01  2.381631E+02 -2.349549E+01  2.284468E+01
       279   6  6.134022E+02 -8.965200E+01 -3.197159E+00  2.713520E+02 -2.744174E+01  3.021613E+01
       279   7  7.715224E+02 -9.449356E+00 -1.126013E+00  2.504322E+02 -1.586117E+01  2.119367E+01
       279   8  7.601750E+02 -5.287436E+01  2.574417E+00  2.716412E+02 -1.830612E+01  2.744459E+01
       279   9  7.398806E+02 -1.205409E+02 -7.519672E-01  3.037365E+02 -2.072341E+01  3.552055E+01
       279  10  6.342576E+02  5.254620E+01  1.521870E+00  1.755298E+02 -4.447090E-13  4.697630E-13
       279  11  5.742846E+02  1.302815E+01  3.670371E-01  1.987036E+02  6.263507E-14  1.597194E-13
       279  12  5.068782E+02 -4.937245E+01 -3.558239E+00  2.330102E+02  1.962566E-13 -1.800758E-13
       279  13  6.920558E+02  1.620135E+01 -2.358295E+00  2.159829E+02 -7.265668E-13  1.419728E-13
       279  14  6.568229E+02 -2.494535E+01 -3.290761E-01  2.381631E+02 -3.173510E-13  1.544998E-13
       279  15  6.134022E+02 -8.965200E+01 -3.197159E+00  2.713520E+02 -2.004322E-13  1.565877E-14
       279  16  7.715224E+02 -9.449356E+00 -1.126013E+00  2.504322E+02 -2.171349E-13 -1.973005E-13
       279  17  7.601750E+02 -5.287436E+01  2.574417E+00  2.716412E+02 -4.175671E-15  4.906414E-14
       279  18  7.398806E+02 -1.205409E+02 -7.519672E-01  3.037365E+02 -2.505403E-14  1.987359E-13
       279  19  6.342576E+02  5.254620E+01  1.521870E+00  1.755298E+02  2.228370E+01 -1.323379E+01
       279  20  5.742846E+02  1.302815E+01  3.670371E-01  1.987036E+02  2.779009E+01 -1.803576E+01
       279  21  5.068782E+02 -4.937245E+01 -3.558239E+00  2.330102E+02  3.327970E+01 -2.469891E+01
       279  22  6.920558E+02  1.620135E+01 -2.358295E+00  2.159829E+02  1.952693E+01 -1.731625E+01
       279  23  6.568229E+02 -2.494535E+01 -3.290761E-01  2.381631E+02  2.349549E+01 -2.284468E+01
       279  24  6.134022E+02 -8.965200E+01 -3.197159E+00  2.713520E+02  2.744174E+01 -3.021613E+01
       279  25  7.715224E+02 -9.449356E+00 -1.126013E+00  2.504322E+02  1.586117E+01 -2.119367E+01
       279  26  7.601750E+02 -5.287436E+01  2.574417E+00  2.716412E+02  1.830612E+01 -2.744459E+01
       279  27  7.398806E+02 -1.205409E+02 -7.519672E-01  3.037365E+02  2.072341E+01 -3.552055E+01
       280   1  7.570731E+02  1.060922E+02  1.236285E+00  1.255312E+02 -1.401079E+01  6.701463E+00
       280   2  7.110136E+02  9.275580E+01  1.223974E+00  1.402798E+02 -1.710014E+01  8.790700E+00
       280   3  6.617837E+02  6.892266E+01  6.536047E-01  1.612146E+02 -2.018469E+01  1.141039E+01
       280   4  7.864333E+02  8.292360E+01 -2.084563E+00  1.594644E+02 -1.267279E+01  9.272950E+00
       280   5  7.532008E+02  6.590456E+01 -9.608572E-01  1.764994E+02 -1.532687E+01  1.192691E+01
       280   6  7.166345E+02  3.823882E+01 -9.512856E-01  1.996705E+02 -1.797454E+01  1.510885E+01
       280   7  8.346953E+02  6.879005E+01  1.688148E-01  1.890791E+02 -1.077664E+01  1.172995E+01
       280   8  8.138418E+02  4.774264E+01  1.544166E+00  2.083828E+02 -1.299729E+01  1.494463E+01
       280   9  7.894891E+02  1.589706E+01  1.248246E+00  2.337734E+02 -1.520997E+01  1.868484E+01
       280  10  7.570731E+02  1.060922E+02  1.236285E+00  1.255312E+02  1.043918E-13  2.348815E-13
       280  11  7.110136E+02  9.275580E+01  1.223974E+00  1.402798E+02  8.351343E-14  2.641112E-13
       280  12  6.617837E+02  6.892266E+01  6.536047E-01  1.612146E+02 -1.002161E-13  4.029523E-13
       280  13  7.864333E+02  8.292360E+01 -2.084563E+00  1.594644E+02  1.252701E-13 -4.384455E-14
       280  14  7.532008E+02  6.590456E+01 -9.608572E-01  1.764994E+02  2.505403E-14 -3.758104E-14
       280  15  7.166345E+02  3.823882E+01 -9.512856E-01  1.996705E+02 -6.681074E-14 -6.263507E-15
       280  16  8.346953E+02  6.879005E+01  1.688148E-01  1.890791E+02  2.046079E-13 -3.330098E-13
       280  17  8.138418E+02  4.774264E+01  1.544166E+00  2.083828E+02  7.516208E-14 -3.914692E-13
       280  18  7.894891E+02  1.589706E+01  1.248246E+00  2.337734E+02 -1.628512E-13 -4.265709E-13
       280  19  7.570731E+02  1.060922E+02  1.236285E+00  1.255312E+02  1.401079E+01 -6.701463E+00
       280  20  7.110136E+02  9.275580E+01  1.223974E+00  1.402798E+02  1.710014E+01 -8.790700E+00
       280  21  6.617837E+02  6.892266E+01  6.536047E-01  1.612146E+02  2.018469E+01 -1.141039E+01
       280  22  7.864333E+02  8.292360E+01 -2.084563E+00  1.594644E+02  1.267279E+01 -9.272950E+00
       280  23  7.532008E+02  6.590456E+01 -9.608572E-01  1.764994E+02  1.532687E+01 -1.192691E+01
       280  24  7.166345E+02  3.823882E+01 -9.512856E-01  1.996705E+02  1.797454E+01 -1.510885E+01
       280  25  8.346953E+02  6.879005E+01  1.688148E-01  1.890791E+02  1.077664E+01 -1.172995E+01
       280  26  8.138418E+02  4.774264E+01  1.544166E+00  2.083828E+02  1.299729E+01 -1.494463E+01
       280  27  7.894891E+02  1.589706E+01  1.248246E+00  2.337734E+02  1.520997E+01 -1.868484E+01
       281   1  1.312112E+03 -1.525950E+02 -3.022077E+00  1.223720E+02  4.411361E+00  2.718407E+01
       281   2  1.271498E+03 -1.119595E+02  6.974719E-01  1.467350E+02  3.183004E+00  2.588279E+01
       281   3  1.224932E+03 -8.416682E+01 -2.519535E+00  1.705256E+02  1.953007E+00  2.444998E+01
       281   4  1.238918E+03 -1.639073E+02  1.150220E-01  1.724209E+02  2.522001E+00  3.053887E+01
       281   5  1.198392E+03 -1.156233E+02  4.014866E+00  1.876099E+02  1.139457E+00  2.781575E+01
       281   6  1.151950E+03 -7.996918E+01  8.853271E-01  2.022412E+02 -2.448065E-01  2.496353E+01
       281   7  1.147047E+03 -1.830485E+02 -1.740880E+00  2.251383E+02 -5.997180E-01  3.408935E+01
       281   8  1.105766E+03 -1.280815E+02  3.580786E-01  2.313304E+02 -2.134020E+00  2.996627E+01
       281   9  1.058599E+03 -8.554141E+01 -4.669472E+00  2.369792E+02 -3.670120E+00  2.571648E+01
       281  10  1.312112E+03 -1.525950E+02 -3.022077E+00  1.223720E+02 -2.672430E-13 -3.758104E-13
       281  11  1.271498E+03 -1.119595E+02  6.974719E-01  1.467350E+02  1.419728E-13  2.505403E-14
       281  12  1.224932E+03 -8.416682E+01 -2.519535E+00  1.705256E+02  2.046079E-13  1.002161E-13
       281  13  1.238918E+03 -1.639073E+02  1.150220E-01  1.724209E+02  4.175671E-14 -6.263507E-15
       281  14  1.198392E+03 -1.156233E+02  4.014866E+00  1.876099E+02  1.419728E-13  4.802022E-14
       281  15  1.151950E+03 -7.996918E+01  8.853271E-01  2.022412E+02  6.931614E-13 -4.175671E-15
       281  16  1.147047E+03 -1.830485E+02 -1.740880E+00  2.251383E+02 -7.933776E-14  4.008645E-13
       281  17  1.105766E+03 -1.280815E+02  3.580786E-01  2.313304E+02  3.465807E-13  1.920809E-13
       281  18  1.058599E+03 -8.554141E+01 -4.669472E+00  2.369792E+02  1.043918E-13 -1.941687E-13
       281  19  1.312112E+03 -1.525950E+02 -3.022077E+00  1.223720E+02 -4.411361E+00 -2.718407E+01
       281  20  1.271498E+03 -1.119595E+02  6.974719E-01  1.467350E+02 -3.183004E+00 -2.588279E+01
       281  21  1.224932E+03 -8.416682E+01 -2.519535E+00  1.705256E+02 -1.953007E+00 -2.444998E+01
       281  22  1.238918E+03 -1.639073E+02  1.150220E-01  1.724209E+02 -2.522001E+00 -3.053887E+01
       281  23  1.198392E+03 -1.156233E+02  4.014866E+00  1.876099E+02 -1.139457E+00 -2.781575E+01
       281  24  1.151950E+03 -7.996918E+01  8.853271E-01  2.022412E+02  2.448065E-01 -2.496353E+01
       281  25  1.147047E+03 -1.830485E+02 -1.740880E+00  2.251383E+02  5.997180E-01 -3.408935E+01
       281  26  1.105766E+03 -1.280815E+02  3.580786E-01  2.313304E+02  2.134020E+00 -2.996627E+01
       281  27  1.058599E+03 -8.554141E+01 -4.669472E+00  2.369792E+02  3.670120E+00 -2.571648E+01
       282   1  1.205178E+03 -6.589017E+01 -2.289982E+00  1.786521E+02  1.031045E+00  2.327272E+01
       282   2  1.180363E+03 -3.242734E+01  1.298035E+00  1.815622E+02  1.368764E+00  2.044754E+01
       282   3  1.148727E+03 -1.540952E+01 -1.694709E+00  1.870635E+02  1.709516E+00  1.786741E+01
       282   4  1.130132E+03 -6.052736E+01 -7.378098E-01  2.063375E+02 -1.705941E+00  2.336635E+01
       282   5  1.111586E+03 -2.440746E+01  2.667755E+00  2.027736E+02 -1.147961E+00  2.012589E+01
       282   6  1.086572E+03 -4.106472E+00  4.149299E-02  2.017164E+02 -5.868676E-01  1.712162E+01
       282   7  1.049903E+03 -5.707758E+01 -1.767883E+00  2.335468E+02 -4.718432E+00  2.351663E+01
       282   8  1.037125E+03 -1.868211E+01  7.902711E-01  2.236702E+02 -3.947813E+00  1.986760E+01
       282   9  1.018228E+03  4.505131E+00 -2.141160E+00  2.162188E+02 -3.174009E+00  1.644620E+01
       282  10  1.205178E+03 -6.589017E+01 -2.289982E+00  1.786521E+02 -5.052562E-13  2.338376E-13
       282  11  1.180363E+03 -3.242734E+01  1.298035E+00  1.815622E+02 -1.252701E-13  1.252701E-13
       282  12  1.148727E+03 -1.540952E+01 -1.694709E+00  1.870635E+02  2.087836E-13 -2.432329E-13
       282  13  1.130132E+03 -6.052736E+01 -7.378098E-01  2.063375E+02 -3.424051E-13  7.307425E-14
       282  14  1.111586E+03 -2.440746E+01  2.667755E+00  2.027736E+02 -1.336215E-13  7.098641E-14
       282  15  1.086572E+03 -4.106472E+00  4.149299E-02  2.017164E+02  1.169188E-13 -8.351343E-15
       282  16  1.049903E+03 -5.707758E+01 -1.767883E+00  2.335468E+02 -3.883374E-13 -1.419728E-13
       282  17  1.037125E+03 -1.868211E+01  7.902711E-01  2.236702E+02 -1.210945E-13  8.351343E-15
       282  18  1.018228E+03  4.505131E+00 -2.141160E+00  2.162188E+02  2.171349E-13  7.933776E-14
       282  19  1.205178E+03 -6.589017E+01 -2.289982E+00  1.786521E+02 -1.031045E+00 -2.327272E+01
       282  20  1.180363E+03 -3.242734E+01  1.298035E+00  1.815622E+02 -1.368764E+00 -2.044754E+01
       282  21  1.148727E+03 -1.540952E+01 -1.694709E+00  1.870635E+02 -1.709516E+00 -1.786741E+01
       282  22  1.130132E+03 -6.052736E+01 -7.378098E-01  2.063375E+02  1.705941E+00 -2.336635E+01
       282  23  1.111586E+03 -2.440746E+01  2.667755E+00  2.027736E+02  1.147961E+00 -2.012589E+01
       282  24  1.086572E+03 -4.106472E+00  4.149299E-02  2.017164E+02  5.868676E-01 -1.712162E+01
       282  25  1.049903E+03 -5.707758E+01 -1.767883E+00  2.335468E+02  4.718432E+00 -2.351663E+01
       282  26  1.037125E+03 -1.868211E+01  7.902711E-01  2.236702E+02  3.947813E+00 -1.986760E+01
       282  27  1.018228E+03  4.505131E+00 -2.141160E+00  2.162188E+02  3.174009E+00 -1.644620E+01
       283   1  1.001748E+03 -4.605963E+01 -5.230209E-01  2.444237E+02 -6.618824E+00  2.267266E+01
       283   2  9.946027E+02 -6.883345E+00  1.911693E+00  2.286001E+02 -5.640578E+00  1.893065E+01
       283   3  9.806427E+02  1.490942E+01 -1.761370E+00  2.189041E+02 -4.654288E+00  1.574639E+01
       283   4  9.146077E+02 -2.762712E+01 -1.472142E+00  2.455005E+02 -9.955748E+00  2.145025E+01
       283   5  9.210167E+02  1.119945E+01  1.315125E+00  2.255810E+02 -8.486069E+00  1.751002E+01
       283   6  9.211703E+02  3.349056E+01 -1.001828E+00  2.115997E+02 -7.008222E+00  1.410937E+01
       283   7  8.325555E+02 -6.158078E+00 -1.827248E+00  2.437692E+02 -1.331742E+01  2.023291E+01
       283   8  8.519143E+02  3.206453E+01  9.132520E-01  2.198833E+02 -1.137144E+01  1.609831E+01
       283   9  8.655697E+02  5.458400E+01 -4.539136E-01  2.017518E+02 -9.417187E+00  1.248567E+01
       283  10  1.001748E+03 -4.605963E+01 -5.230209E-01  2.444237E+02 -1.879052E-13  1.670269E-13
       283  11  9.946027E+02 -6.883345E+00  1.911693E+00  2.286001E+02 -2.839457E-13  1.879052E-14
       283  12  9.806427E+02  1.490942E+01 -1.761370E+00  2.189041E+02  2.129592E-13 -2.860335E-13
       283  13  9.146077E+02 -2.762712E+01 -1.472142E+00  2.455005E+02 -4.593238E-13  7.098641E-14
       283  14  9.210167E+02  1.119945E+01  1.315125E+00  2.255810E+02 -1.252701E-13  6.681074E-14
       283  15  9.211703E+02  3.349056E+01 -1.001828E+00  2.115997E+02 -5.845940E-14  2.087836E-14
       283  16  8.325555E+02 -6.158078E+00 -1.827248E+00  2.437692E+02 -5.010806E-14 -1.002161E-13
       283  17  8.519143E+02  3.206453E+01  9.132520E-01  2.198833E+02  8.768910E-14  1.482363E-13
       283  18  8.655697E+02  5.458400E+01 -4.539136E-01  2.017518E+02 -1.210945E-13  2.714186E-13
       283  19  1.001748E+03 -4.605963E+01 -5.230209E-01  2.444237E+02  6.618824E+00 -2.267266E+01
       283  20  9.946027E+02 -6.883345E+00  1.911693E+00  2.286001E+02  5.640578E+00 -1.893065E+01
       283  21  9.806427E+02  1.490942E+01 -1.761370E+00  2.189041E+02  4.654288E+00 -1.574639E+01
       283  22  9.146077E+02 -2.762712E+01 -1.472142E+00  2.455005E+02  9.955748E+00 -2.145025E+01
       283  23  9.210167E+02  1.119945E+01  1.315125E+00  2.255810E+02  8.486069E+00 -1.751002E+01
       283  24  9.211703E+02  3.349056E+01 -1.001828E+00  2.115997E+02  7.008222E+00 -1.410937E+01
       283  25  8.325555E+02 -6.158078E+00 -1.827248E+00  2.437692E+02  1.331742E+01 -2.023291E+01
       283  26  8.519143E+02  3.206453E+01  9.132520E-01  2.198833E+02  1.137144E+01 -1.609831E+01
       283  27  8.655697E+02  5.458400E+01 -4.539136E-01  2.017518E+02  9.417187E+00 -1.248567E+01
       284   1  1.075795E+03 -1.970100E+02 -7.510654E+00  2.594459E+02 -3.618714E+00  3.617476E+01
       284   2  1.047256E+03 -1.227123E+02  9.884488E-01  2.508175E+02 -4.803539E+00  2.966883E+01
       284   3  1.007269E+03 -7.509794E+01 -3.169466E+00  2.515625E+02 -5.964287E+00  2.483634E+01
       284   4  9.510955E+02 -1.678237E+02 -2.310960E+00  2.874944E+02 -1.016446E+01  3.591474E+01
       284   5  9.408075E+02 -9.753556E+01  3.743224E+00  2.679345E+02 -9.935858E+00  2.903062E+01
       284   6  9.203049E+02 -5.229788E+01 -4.050885E-01  2.574556E+02 -9.682736E+00  2.376835E+01
       284   7  8.184639E+02 -1.405558E+02 -1.325287E+00  3.117366E+02 -1.671954E+01  3.565621E+01
       284   8  8.255113E+02 -7.461821E+01  1.669821E+00  2.815008E+02 -1.512069E+01  2.840169E+01
       284   9  8.235666E+02 -3.212013E+01 -3.092780E+00  2.600631E+02 -1.349694E+01  2.271900E+01
       284  10  1.075795E+03 -1.970100E+02 -7.510654E+00  2.594459E+02  5.845940E-14  6.263507E-14
       284  11  1.047256E+03 -1.227123E+02  9.884488E-01  2.508175E+02 -1.503242E-13  1.252701E-13
       284  12  1.007269E+03 -7.509794E+01 -3.169466E+00  2.515625E+02  5.010806E-14  1.649390E-13
       284  13  9.510955E+02 -1.678237E+02 -2.310960E+00  2.874944E+02 -1.085675E-13 -8.351343E-15
       284  14  9.408075E+02 -9.753556E+01  3.743224E+00  2.679345E+02  3.340537E-14  5.428373E-14
       284  15  9.203049E+02 -5.229788E+01 -4.050885E-01  2.574556E+02  1.169188E-13  4.593238E-14
       284  16  8.184639E+02 -1.405558E+02 -1.325287E+00  3.117366E+02  5.845940E-14 -3.340537E-14
       284  17  8.255113E+02 -7.461821E+01  1.669821E+00  2.815008E+02  3.173510E-13  3.340537E-14
       284  18  8.235666E+02 -3.212013E+01 -3.092780E+00  2.600631E+02 -2.171349E-13 -1.143090E-13
       284  19  1.075795E+03 -1.970100E+02 -7.510654E+00  2.594459E+02  3.618714E+00 -3.617476E+01
       284  20  1.047256E+03 -1.227123E+02  9.884488E-01  2.508175E+02  4.803539E+00 -2.966883E+01
       284  21  1.007269E+03 -7.509794E+01 -3.169466E+00  2.515625E+02  5.964287E+00 -2.483634E+01
       284  22  9.510955E+02 -1.678237E+02 -2.310960E+00  2.874944E+02  1.016446E+01 -3.591474E+01
       284  23  9.408075E+02 -9.753556E+01  3.743224E+00  2.679345E+02  9.935858E+00 -2.903062E+01
       284  24  9.203049E+02 -5.229788E+01 -4.050885E-01  2.574556E+02  9.682736E+00 -2.376835E+01
       284  25  8.184639E+02 -1.405558E+02 -1.325287E+00  3.117366E+02  1.671954E+01 -3.565621E+01
       284  26  8.255113E+02 -7.461821E+01  1.669821E+00  2.815008E+02  1.512069E+01 -2.840169E+01
       284  27  8.235666E+02 -3.212013E+01 -3.092780E+00  2.600631E+02  1.349694E+01 -2.271900E+01
