    1C
    1UUSER                                                              
    1UDATE              03.april.2020                                   
    1UTIME              21:26:51                                        
    1UHOST                                                              
    1UPGM               CalculiX                                        
    1UVERSION           Version 2.16                             
    1UCOMPILETIME       Mo 25. Nov 18:56:47 CET 2019                    
    1UDIR                                                               
    1UDBN                                                               
    1UMAT    1STEEL                                                     
    2C                           948                                     1
 -1         1 4.44444E+00-2.22222E+00 0.00000E+00
 -1         2 4.44444E+00 2.22222E+00 0.00000E+00
 -1         3-4.44444E+00 2.22222E+00 0.00000E+00
 -1         4-4.44444E+00-2.22222E+00 0.00000E+00
 -1         5 0.00000E+00 1.00000E+00 0.00000E+00
 -1         7 1.00000E+00 0.00000E+00 0.00000E+00
 -1         8 0.00000E+00-1.00000E+00 0.00000E+00
 -1         9-1.00000E+00 0.00000E+00 0.00000E+00
 -1        10-0.00000E+00 2.22222E+00 0.00000E+00
 -1        11 4.44444E+00 0.00000E+00 0.00000E+00
 -1        12-0.00000E+00-2.22222E+00 0.00000E+00
 -1        13-4.44444E+00-0.00000E+00 0.00000E+00
 -1        14 4.44444E+00-1.94444E+00 0.00000E+00
 -1        15 4.44444E+00-1.66667E+00 0.00000E+00
 -1        16 4.44444E+00-1.38889E+00 0.00000E+00
 -1        17 4.44444E+00-1.11111E+00 0.00000E+00
 -1        18 4.44444E+00-8.33333E-01 0.00000E+00
 -1        19 4.44444E+00-5.55556E-01 0.00000E+00
 -1        20 4.44444E+00-2.77778E-01 0.00000E+00
 -1        21 4.44444E+00-2.08333E+00 0.00000E+00
 -1        22 4.44444E+00-1.80555E+00 0.00000E+00
 -1        23 4.44444E+00-1.52778E+00 0.00000E+00
 -1        24 4.44444E+00-1.25000E+00 0.00000E+00
 -1        25 4.44444E+00-9.72222E-01 0.00000E+00
 -1        26 4.44444E+00-6.94444E-01 0.00000E+00
 -1        27 4.44444E+00-4.16667E-01 0.00000E+00
 -1        28 4.44444E+00-1.38889E-01 0.00000E+00
 -1        29 4.07407E+00 2.22222E+00 0.00000E+00
 -1        30 3.70370E+00 2.22222E+00 0.00000E+00
 -1        31 3.33333E+00 2.22222E+00 0.00000E+00
 -1        32 2.96296E+00 2.22222E+00 0.00000E+00
 -1        33 2.59259E+00 2.22222E+00 0.00000E+00
 -1        34 2.22222E+00 2.22222E+00 0.00000E+00
 -1        35 1.85185E+00 2.22222E+00 0.00000E+00
 -1        36 1.48148E+00 2.22222E+00 0.00000E+00
 -1        37 1.11111E+00 2.22222E+00 0.00000E+00
 -1        38 7.40741E-01 2.22222E+00 0.00000E+00
 -1        39 3.70370E-01 2.22222E+00 0.00000E+00
 -1        40 4.25926E+00 2.22222E+00 0.00000E+00
 -1        41 3.88889E+00 2.22222E+00 0.00000E+00
 -1        42 3.51852E+00 2.22222E+00 0.00000E+00
 -1        43 3.14815E+00 2.22222E+00 0.00000E+00
 -1        44 2.77778E+00 2.22222E+00 0.00000E+00
 -1        45 2.40741E+00 2.22222E+00 0.00000E+00
 -1        46 2.03704E+00 2.22222E+00 0.00000E+00
 -1        47 1.66667E+00 2.22222E+00 0.00000E+00
 -1        48 1.29630E+00 2.22222E+00 0.00000E+00
 -1        49 9.25926E-01 2.22222E+00 0.00000E+00
 -1        50 5.55556E-01 2.22222E+00 0.00000E+00
 -1        51 1.85185E-01 2.22222E+00 0.00000E+00
 -1        52-4.44444E+00 1.94444E+00 0.00000E+00
 -1        53-4.44444E+00 1.66667E+00 0.00000E+00
 -1        54-4.44444E+00 1.38889E+00 0.00000E+00
 -1        55-4.44444E+00 1.11111E+00 0.00000E+00
 -1        56-4.44444E+00 8.33333E-01 0.00000E+00
 -1        57-4.44444E+00 5.55556E-01 0.00000E+00
 -1        58-4.44444E+00 2.77778E-01 0.00000E+00
 -1        59-4.44444E+00 2.08333E+00 0.00000E+00
 -1        60-4.44444E+00 1.80555E+00 0.00000E+00
 -1        61-4.44444E+00 1.52778E+00 0.00000E+00
 -1        62-4.44444E+00 1.25000E+00 0.00000E+00
 -1        63-4.44444E+00 9.72222E-01 0.00000E+00
 -1        64-4.44444E+00 6.94444E-01 0.00000E+00
 -1        65-4.44444E+00 4.16667E-01 0.00000E+00
 -1        66-4.44444E+00 1.38889E-01 0.00000E+00
 -1        67-4.07407E+00-2.22222E+00 0.00000E+00
 -1        68-3.70370E+00-2.22222E+00 0.00000E+00
 -1        69-3.33333E+00-2.22222E+00 0.00000E+00
 -1        70-2.96296E+00-2.22222E+00 0.00000E+00
 -1        71-2.59259E+00-2.22222E+00 0.00000E+00
 -1        72-2.22222E+00-2.22222E+00 0.00000E+00
 -1        73-1.85185E+00-2.22222E+00 0.00000E+00
 -1        74-1.48148E+00-2.22222E+00 0.00000E+00
 -1        75-1.11111E+00-2.22222E+00 0.00000E+00
 -1        76-7.40741E-01-2.22222E+00 0.00000E+00
 -1        77-3.70370E-01-2.22222E+00 0.00000E+00
 -1        78-4.25926E+00-2.22222E+00 0.00000E+00
 -1        79-3.88889E+00-2.22222E+00 0.00000E+00
 -1        80-3.51852E+00-2.22222E+00 0.00000E+00
 -1        81-3.14815E+00-2.22222E+00 0.00000E+00
 -1        82-2.77778E+00-2.22222E+00 0.00000E+00
 -1        83-2.40741E+00-2.22222E+00 0.00000E+00
 -1        84-2.03704E+00-2.22222E+00 0.00000E+00
 -1        85-1.66667E+00-2.22222E+00 0.00000E+00
 -1        86-1.29630E+00-2.22222E+00 0.00000E+00
 -1        87-9.25926E-01-2.22222E+00 0.00000E+00
 -1        88-5.55556E-01-2.22222E+00 0.00000E+00
 -1        89-1.85185E-01-2.22222E+00 0.00000E+00
 -1        90 3.82683E-01 9.23880E-01 0.00000E+00
 -1        91 7.07107E-01 7.07107E-01 0.00000E+00
 -1        92 9.23880E-01 3.82683E-01 0.00000E+00
 -1        93 1.95090E-01 9.80785E-01 0.00000E+00
 -1        94 5.55570E-01 8.31470E-01 0.00000E+00
 -1        95 8.31470E-01 5.55570E-01 0.00000E+00
 -1        96 9.80785E-01 1.95090E-01 0.00000E+00
 -1        97 9.23880E-01-3.82683E-01 0.00000E+00
 -1        98 7.07107E-01-7.07107E-01 0.00000E+00
 -1        99 3.82683E-01-9.23880E-01 0.00000E+00
 -1       100 9.80785E-01-1.95090E-01 0.00000E+00
 -1       101 8.31470E-01-5.55570E-01 0.00000E+00
 -1       102 5.55570E-01-8.31470E-01 0.00000E+00
 -1       103 1.95090E-01-9.80785E-01 0.00000E+00
 -1       104-3.82683E-01-9.23880E-01 0.00000E+00
 -1       105-7.07107E-01-7.07107E-01 0.00000E+00
 -1       106-9.23880E-01-3.82683E-01 0.00000E+00
 -1       107-1.95090E-01-9.80785E-01 0.00000E+00
 -1       108-5.55570E-01-8.31470E-01 0.00000E+00
 -1       109-8.31470E-01-5.55570E-01 0.00000E+00
 -1       110-9.80785E-01-1.95090E-01 0.00000E+00
 -1       111-9.23880E-01 3.82683E-01 0.00000E+00
 -1       112-7.07107E-01 7.07107E-01 0.00000E+00
 -1       113-3.82683E-01 9.23880E-01 0.00000E+00
 -1       114-9.80785E-01 1.95090E-01 0.00000E+00
 -1       115-8.31470E-01 5.55570E-01 0.00000E+00
 -1       116-5.55570E-01 8.31470E-01 0.00000E+00
 -1       117-1.95090E-01 9.80785E-01 0.00000E+00
 -1       118-3.70370E-01 2.22222E+00 0.00000E+00
 -1       119-7.40741E-01 2.22222E+00 0.00000E+00
 -1       120-1.11111E+00 2.22222E+00 0.00000E+00
 -1       121-1.48148E+00 2.22222E+00 0.00000E+00
 -1       122-1.85185E+00 2.22222E+00 0.00000E+00
 -1       123-2.22222E+00 2.22222E+00 0.00000E+00
 -1       124-2.59259E+00 2.22222E+00 0.00000E+00
 -1       125-2.96296E+00 2.22222E+00 0.00000E+00
 -1       126-3.33333E+00 2.22222E+00 0.00000E+00
 -1       127-3.70370E+00 2.22222E+00 0.00000E+00
 -1       128-4.07407E+00 2.22222E+00 0.00000E+00
 -1       129-1.85185E-01 2.22222E+00 0.00000E+00
 -1       130-5.55555E-01 2.22222E+00 0.00000E+00
 -1       131-9.25926E-01 2.22222E+00 0.00000E+00
 -1       132-1.29630E+00 2.22222E+00 0.00000E+00
 -1       133-1.66667E+00 2.22222E+00 0.00000E+00
 -1       134-2.03704E+00 2.22222E+00 0.00000E+00
 -1       135-2.40741E+00 2.22222E+00 0.00000E+00
 -1       136-2.77778E+00 2.22222E+00 0.00000E+00
 -1       137-3.14815E+00 2.22222E+00 0.00000E+00
 -1       138-3.51852E+00 2.22222E+00 0.00000E+00
 -1       139-3.88889E+00 2.22222E+00 0.00000E+00
 -1       140-4.25926E+00 2.22222E+00 0.00000E+00
 -1       141 0.00000E+00 1.91667E+00 0.00000E+00
 -1       142 0.00000E+00 1.61111E+00 0.00000E+00
 -1       143 0.00000E+00 1.30556E+00 0.00000E+00
 -1       144 0.00000E+00 2.06944E+00 0.00000E+00
 -1       145 0.00000E+00 1.76389E+00 0.00000E+00
 -1       146 0.00000E+00 1.45833E+00 0.00000E+00
 -1       147 0.00000E+00 1.15278E+00 0.00000E+00
 -1       148 4.44444E+00 2.77778E-01 0.00000E+00
 -1       149 4.44444E+00 5.55555E-01 0.00000E+00
 -1       150 4.44444E+00 8.33333E-01 0.00000E+00
 -1       151 4.44444E+00 1.11111E+00 0.00000E+00
 -1       152 4.44444E+00 1.38889E+00 0.00000E+00
 -1       153 4.44444E+00 1.66667E+00 0.00000E+00
 -1       154 4.44444E+00 1.94444E+00 0.00000E+00
 -1       155 4.44444E+00 1.38889E-01 0.00000E+00
 -1       156 4.44444E+00 4.16667E-01 0.00000E+00
 -1       157 4.44444E+00 6.94444E-01 0.00000E+00
 -1       158 4.44444E+00 9.72222E-01 0.00000E+00
 -1       159 4.44444E+00 1.25000E+00 0.00000E+00
 -1       160 4.44444E+00 1.52778E+00 0.00000E+00
 -1       161 4.44444E+00 1.80555E+00 0.00000E+00
 -1       162 4.44444E+00 2.08333E+00 0.00000E+00
 -1       163 4.01389E+00 0.00000E+00 0.00000E+00
 -1       164 3.58333E+00 0.00000E+00 0.00000E+00
 -1       165 3.15278E+00 0.00000E+00 0.00000E+00
 -1       166 2.72222E+00 0.00000E+00 0.00000E+00
 -1       167 2.29167E+00 0.00000E+00 0.00000E+00
 -1       168 1.86111E+00 0.00000E+00 0.00000E+00
 -1       169 1.43056E+00 0.00000E+00 0.00000E+00
 -1       170 4.22917E+00 0.00000E+00 0.00000E+00
 -1       171 3.79861E+00 0.00000E+00 0.00000E+00
 -1       172 3.36806E+00 0.00000E+00 0.00000E+00
 -1       173 2.93750E+00 0.00000E+00 0.00000E+00
 -1       174 2.50694E+00 0.00000E+00 0.00000E+00
 -1       175 2.07639E+00 0.00000E+00 0.00000E+00
 -1       176 1.64583E+00 0.00000E+00 0.00000E+00
 -1       177 1.21528E+00 0.00000E+00 0.00000E+00
 -1       178 3.70370E-01-2.22222E+00 0.00000E+00
 -1       179 7.40741E-01-2.22222E+00 0.00000E+00
 -1       180 1.11111E+00-2.22222E+00 0.00000E+00
 -1       181 1.48148E+00-2.22222E+00 0.00000E+00
 -1       182 1.85185E+00-2.22222E+00 0.00000E+00
 -1       183 2.22222E+00-2.22222E+00 0.00000E+00
 -1       184 2.59259E+00-2.22222E+00 0.00000E+00
 -1       185 2.96296E+00-2.22222E+00 0.00000E+00
 -1       186 3.33333E+00-2.22222E+00 0.00000E+00
 -1       187 3.70370E+00-2.22222E+00 0.00000E+00
 -1       188 4.07407E+00-2.22222E+00 0.00000E+00
 -1       189 1.85185E-01-2.22222E+00 0.00000E+00
 -1       190 5.55555E-01-2.22222E+00 0.00000E+00
 -1       191 9.25926E-01-2.22222E+00 0.00000E+00
 -1       192 1.29630E+00-2.22222E+00 0.00000E+00
 -1       193 1.66667E+00-2.22222E+00 0.00000E+00
 -1       194 2.03704E+00-2.22222E+00 0.00000E+00
 -1       195 2.40741E+00-2.22222E+00 0.00000E+00
 -1       196 2.77778E+00-2.22222E+00 0.00000E+00
 -1       197 3.14815E+00-2.22222E+00 0.00000E+00
 -1       198 3.51852E+00-2.22222E+00 0.00000E+00
 -1       199 3.88889E+00-2.22222E+00 0.00000E+00
 -1       200 4.25926E+00-2.22222E+00 0.00000E+00
 -1       201 0.00000E+00-1.30555E+00 0.00000E+00
 -1       202 0.00000E+00-1.61111E+00 0.00000E+00
 -1       203 0.00000E+00-1.91667E+00 0.00000E+00
 -1       204 0.00000E+00-1.15278E+00 0.00000E+00
 -1       205 0.00000E+00-1.45833E+00 0.00000E+00
 -1       206 0.00000E+00-1.76389E+00 0.00000E+00
 -1       207 0.00000E+00-2.06944E+00 0.00000E+00
 -1       208-4.44444E+00-2.77778E-01 0.00000E+00
 -1       209-4.44444E+00-5.55555E-01 0.00000E+00
 -1       210-4.44444E+00-8.33333E-01 0.00000E+00
 -1       211-4.44444E+00-1.11111E+00 0.00000E+00
 -1       212-4.44444E+00-1.38889E+00 0.00000E+00
 -1       213-4.44444E+00-1.66667E+00 0.00000E+00
 -1       214-4.44444E+00-1.94444E+00 0.00000E+00
 -1       215-4.44444E+00-1.38889E-01 0.00000E+00
 -1       216-4.44444E+00-4.16667E-01 0.00000E+00
 -1       217-4.44444E+00-6.94444E-01 0.00000E+00
 -1       218-4.44444E+00-9.72222E-01 0.00000E+00
 -1       219-4.44444E+00-1.25000E+00 0.00000E+00
 -1       220-4.44444E+00-1.52778E+00 0.00000E+00
 -1       221-4.44444E+00-1.80555E+00 0.00000E+00
 -1       222-4.44444E+00-2.08333E+00 0.00000E+00
 -1       223-1.43055E+00 0.00000E+00 0.00000E+00
 -1       224-1.86111E+00 0.00000E+00 0.00000E+00
 -1       225-2.29167E+00 0.00000E+00 0.00000E+00
 -1       226-2.72222E+00 0.00000E+00 0.00000E+00
 -1       227-3.15278E+00 0.00000E+00 0.00000E+00
 -1       228-3.58333E+00 0.00000E+00 0.00000E+00
 -1       229-4.01389E+00 0.00000E+00 0.00000E+00
 -1       230-1.21528E+00 0.00000E+00 0.00000E+00
 -1       231-1.64583E+00 0.00000E+00 0.00000E+00
 -1       232-2.07639E+00 0.00000E+00 0.00000E+00
 -1       233-2.50694E+00 0.00000E+00 0.00000E+00
 -1       234-2.93750E+00 0.00000E+00 0.00000E+00
 -1       235-3.36806E+00 0.00000E+00 0.00000E+00
 -1       236-3.79861E+00 0.00000E+00 0.00000E+00
 -1       237-4.22917E+00 0.00000E+00 0.00000E+00
 -1       238 3.17710E+00-1.55475E+00 0.00000E+00
 -1       239 2.44131E+00-1.47515E+00 0.00000E+00
 -1       240 3.83794E+00-1.63380E+00 0.00000E+00
 -1       241 7.38627E-01-1.49027E+00 0.00000E+00
 -1       242 2.07355E+00-7.07660E-01 0.00000E+00
 -1       243 2.65374E+00-7.40381E-01 0.00000E+00
 -1       244 3.97828E+00-1.20521E+00 0.00000E+00
 -1       245 3.57312E+00-8.19529E-01 0.00000E+00
 -1       246 1.34593E+00-6.95058E-01 0.00000E+00
 -1       247 1.61689E+00-1.27813E+00 0.00000E+00
 -1       248 3.90811E+00-1.41951E+00 0.00000E+00
 -1       249 3.77570E+00-1.01237E+00 0.00000E+00
 -1       250 3.37511E+00-1.18714E+00 0.00000E+00
 -1       251 3.50752E+00-1.59427E+00 0.00000E+00
 -1       252 3.64161E+00-1.30332E+00 0.00000E+00
 -1       253 1.02652E+00-7.01082E-01 0.00000E+00
 -1       254 7.22867E-01-1.09869E+00 0.00000E+00
 -1       255 1.17776E+00-1.38420E+00 0.00000E+00
 -1       256 1.48141E+00-9.86596E-01 0.00000E+00
 -1       257 1.10214E+00-1.04264E+00 0.00000E+00
 -1       258 3.57823E+00-4.09764E-01 0.00000E+00
 -1       259 4.00878E+00-6.87542E-01 0.00000E+00
 -1       260 4.01134E+00-3.43771E-01 0.00000E+00
 -1       261 3.69314E-01-1.55069E+00 0.00000E+00
 -1       262 3.75999E-01-1.23729E+00 0.00000E+00
 -1       263 2.36365E+00-7.24020E-01 0.00000E+00
 -1       264 1.84522E+00-9.92897E-01 0.00000E+00
 -1       265 2.02910E+00-1.37664E+00 0.00000E+00
 -1       266 2.54752E+00-1.10776E+00 0.00000E+00
 -1       267 2.19637E+00-1.05033E+00 0.00000E+00
 -1       268 1.60352E+00-3.47529E-01 0.00000E+00
 -1       269 1.96733E+00-3.53830E-01 0.00000E+00
 -1       270 1.72437E+00-6.70213E-01 0.00000E+00
 -1       271 2.68798E+00-3.70191E-01 0.00000E+00
 -1       272 2.32766E+00-3.62010E-01 0.00000E+00
 -1       273 7.39684E-01-1.85625E+00 0.00000E+00
 -1       274 3.69842E-01-1.88646E+00 0.00000E+00
 -1       275 3.11343E+00-7.79955E-01 0.00000E+00
 -1       276 3.13310E+00-3.89977E-01 0.00000E+00
 -1       277 3.07003E+00-1.88848E+00 0.00000E+00
 -1       278 3.77082E+00-1.92801E+00 0.00000E+00
 -1       279 3.42043E+00-1.90825E+00 0.00000E+00
 -1       280 1.54919E+00-1.75018E+00 0.00000E+00
 -1       281 2.33176E+00-1.84868E+00 0.00000E+00
 -1       282 1.94048E+00-1.79943E+00 0.00000E+00
 -1       283 1.14444E+00-1.80321E+00 0.00000E+00
 -1       284 1.26370E+00-3.65106E-01 0.00000E+00
 -1       285 2.80920E+00-1.51495E+00 0.00000E+00
 -1       286 2.70090E+00-1.86858E+00 0.00000E+00
 -1       287 4.14119E+00-1.65024E+00 0.00000E+00
 -1       288 4.10763E+00-1.93623E+00 0.00000E+00
 -1       289 2.96132E+00-1.14745E+00 0.00000E+00
 -1       290 4.21136E+00-1.15816E+00 0.00000E+00
 -1       291 4.11007E+00-9.22851E-01 0.00000E+00
 -1       292 4.17628E+00-1.40420E+00 0.00000E+00
 -1       293 3.87303E+00-1.52665E+00 0.00000E+00
 -1       294 3.77486E+00-1.36141E+00 0.00000E+00
 -1       295 3.57457E+00-1.44880E+00 0.00000E+00
 -1       296 3.67273E+00-1.61404E+00 0.00000E+00
 -1       297 3.94320E+00-1.31236E+00 0.00000E+00
 -1       298 3.87699E+00-1.10879E+00 0.00000E+00
 -1       299 3.70866E+00-1.15785E+00 0.00000E+00
 -1       300 3.67441E+00-9.15948E-01 0.00000E+00
 -1       301 3.47412E+00-1.00333E+00 0.00000E+00
 -1       302 3.50836E+00-1.24523E+00 0.00000E+00
 -1       303 3.27610E+00-1.37094E+00 0.00000E+00
 -1       304 3.34231E+00-1.57451E+00 0.00000E+00
 -1       305 1.18623E+00-6.98070E-01 0.00000E+00
 -1       306 1.06433E+00-8.71862E-01 0.00000E+00
 -1       307 1.29178E+00-1.01462E+00 0.00000E+00
 -1       308 1.41367E+00-8.40827E-01 0.00000E+00
 -1       309 8.66813E-01-7.04095E-01 0.00000E+00
 -1       310 7.14987E-01-9.02897E-01 0.00000E+00
 -1       311 9.12503E-01-1.07067E+00 0.00000E+00
 -1       312 7.30747E-01-1.29448E+00 0.00000E+00
 -1       313 9.58194E-01-1.43723E+00 0.00000E+00
 -1       314 1.13995E+00-1.21342E+00 0.00000E+00
 -1       315 1.39733E+00-1.33117E+00 0.00000E+00
 -1       316 1.54915E+00-1.13236E+00 0.00000E+00
 -1       317 3.58078E+00-2.04882E-01 0.00000E+00
 -1       318 3.79478E+00-3.76768E-01 0.00000E+00
 -1       319 4.01261E+00-1.71886E-01 0.00000E+00
 -1       320 3.57568E+00-6.14646E-01 0.00000E+00
 -1       321 3.79095E+00-7.53535E-01 0.00000E+00
 -1       322 4.01006E+00-5.15657E-01 0.00000E+00
 -1       323 4.22661E+00-6.21549E-01 0.00000E+00
 -1       324 4.22789E+00-3.10774E-01 0.00000E+00
 -1       325 3.79341E-01-1.08058E+00 0.00000E+00
 -1       326 5.49433E-01-1.16799E+00 0.00000E+00
 -1       327 1.87999E-01-1.27142E+00 0.00000E+00
 -1       328 1.84657E-01-1.58090E+00 0.00000E+00
 -1       329 3.72656E-01-1.39399E+00 0.00000E+00
 -1       330 5.53970E-01-1.52048E+00 0.00000E+00
 -1       331 2.50869E+00-7.32201E-01 0.00000E+00
 -1       332 2.28001E+00-8.87175E-01 0.00000E+00
 -1       333 2.37195E+00-1.07905E+00 0.00000E+00
 -1       334 2.60063E+00-9.24072E-01 0.00000E+00
 -1       335 2.21860E+00-7.15840E-01 0.00000E+00
 -1       336 1.95939E+00-8.50278E-01 0.00000E+00
 -1       337 2.02080E+00-1.02161E+00 0.00000E+00
 -1       338 1.73106E+00-1.13552E+00 0.00000E+00
 -1       339 1.82300E+00-1.32739E+00 0.00000E+00
 -1       340 2.11274E+00-1.21349E+00 0.00000E+00
 -1       341 2.23520E+00-1.42589E+00 0.00000E+00
 -1       342 2.49441E+00-1.29146E+00 0.00000E+00
 -1       343 1.73232E+00-1.73765E-01 0.00000E+00
 -1       344 1.66395E+00-5.08871E-01 0.00000E+00
 -1       345 1.84585E+00-5.12021E-01 0.00000E+00
 -1       346 1.91422E+00-1.76915E-01 0.00000E+00
 -1       347 1.47473E+00-5.21294E-01 0.00000E+00
 -1       348 1.60289E+00-8.28405E-01 0.00000E+00
 -1       349 1.78480E+00-8.31555E-01 0.00000E+00
 -1       350 2.02044E+00-5.30745E-01 0.00000E+00
 -1       351 2.67086E+00-5.55286E-01 0.00000E+00
 -1       352 2.50782E+00-3.66100E-01 0.00000E+00
 -1       353 2.34565E+00-5.43015E-01 0.00000E+00
 -1       354 2.70510E+00-1.85095E-01 0.00000E+00
 -1       355 2.30966E+00-1.81005E-01 0.00000E+00
 -1       356 2.14749E+00-3.57920E-01 0.00000E+00
 -1       357 7.40212E-01-2.03923E+00 0.00000E+00
 -1       358 5.54763E-01-1.87135E+00 0.00000E+00
 -1       359 3.70106E-01-2.05434E+00 0.00000E+00
 -1       360 7.39156E-01-1.67326E+00 0.00000E+00
 -1       361 3.69578E-01-1.71857E+00 0.00000E+00
 -1       362 1.84921E-01-1.90156E+00 0.00000E+00
 -1       363 3.35567E+00-3.99871E-01 0.00000E+00
 -1       364 3.12327E+00-5.84966E-01 0.00000E+00
 -1       365 3.34328E+00-7.99742E-01 0.00000E+00
 -1       366 3.14294E+00-1.94989E-01 0.00000E+00
 -1       367 2.91054E+00-3.80084E-01 0.00000E+00
 -1       368 2.88358E+00-7.60168E-01 0.00000E+00
 -1       369 3.46397E+00-1.75126E+00 0.00000E+00
 -1       370 3.59562E+00-1.91813E+00 0.00000E+00
 -1       371 3.80438E+00-1.78091E+00 0.00000E+00
 -1       372 3.12356E+00-1.72161E+00 0.00000E+00
 -1       373 3.24523E+00-1.89837E+00 0.00000E+00
 -1       374 3.01650E+00-2.05535E+00 0.00000E+00
 -1       375 3.37688E+00-2.06523E+00 0.00000E+00
 -1       376 3.73726E+00-2.07512E+00 0.00000E+00
 -1       377 1.58304E+00-1.51416E+00 0.00000E+00
 -1       378 1.74483E+00-1.77480E+00 0.00000E+00
 -1       379 1.98479E+00-1.58804E+00 0.00000E+00
 -1       380 1.51533E+00-1.98620E+00 0.00000E+00
 -1       381 1.89616E+00-2.01083E+00 0.00000E+00
 -1       382 2.27699E+00-2.03545E+00 0.00000E+00
 -1       383 2.13612E+00-1.82406E+00 0.00000E+00
 -1       384 2.38653E+00-1.66191E+00 0.00000E+00
 -1       385 1.34681E+00-1.77670E+00 0.00000E+00
 -1       386 1.12777E+00-2.01272E+00 0.00000E+00
 -1       387 1.16110E+00-1.59371E+00 0.00000E+00
 -1       388 9.42060E-01-1.82973E+00 0.00000E+00
 -1       389 1.34713E+00-1.82553E-01 0.00000E+00
 -1       390 1.43361E+00-3.56318E-01 0.00000E+00
 -1       391 1.09379E+00-3.73895E-01 0.00000E+00
 -1       392 1.14511E+00-5.33094E-01 0.00000E+00
 -1       393 2.64674E+00-2.04540E+00 0.00000E+00
 -1       394 2.51633E+00-1.85863E+00 0.00000E+00
 -1       395 2.88546E+00-1.87853E+00 0.00000E+00
 -1       396 2.99315E+00-1.53485E+00 0.00000E+00
 -1       397 2.75505E+00-1.69176E+00 0.00000E+00
 -1       398 2.62525E+00-1.49505E+00 0.00000E+00
 -1       399 4.09085E+00-2.07923E+00 0.00000E+00
 -1       400 3.93923E+00-1.93212E+00 0.00000E+00
 -1       401 4.27604E+00-1.94034E+00 0.00000E+00
 -1       402 4.29282E+00-1.65845E+00 0.00000E+00
 -1       403 4.12441E+00-1.79323E+00 0.00000E+00
 -1       404 3.98957E+00-1.64202E+00 0.00000E+00
 -1       405 3.03737E+00-9.63703E-01 0.00000E+00
 -1       406 3.16821E+00-1.16729E+00 0.00000E+00
 -1       407 2.75442E+00-1.12761E+00 0.00000E+00
 -1       408 2.88526E+00-1.33120E+00 0.00000E+00
 -1       409 3.94289E+00-9.67609E-01 0.00000E+00
 -1       410 4.05943E+00-8.05196E-01 0.00000E+00
 -1       411 4.09482E+00-1.18168E+00 0.00000E+00
 -1       412 4.16072E+00-1.04051E+00 0.00000E+00
 -1       413 4.32790E+00-1.13463E+00 0.00000E+00
 -1       414 4.27726E+00-8.78092E-01 0.00000E+00
 -1       415 4.31036E+00-1.39654E+00 0.00000E+00
 -1       416 4.15873E+00-1.52722E+00 0.00000E+00
 -1       417 4.19382E+00-1.28118E+00 0.00000E+00
 -1       418 4.04219E+00-1.41185E+00 0.00000E+00
 -1       419 1.40154E+00 1.00851E+00 0.00000E+00
 -1       420 3.70685E+00 6.69947E-01 0.00000E+00
 -1       421 6.98476E-01 1.33527E+00 0.00000E+00
 -1       422 3.90790E+00 1.37429E+00 0.00000E+00
 -1       423 2.51944E+00 1.54911E+00 0.00000E+00
 -1       424 2.95046E+00 7.38118E-01 0.00000E+00
 -1       425 3.27703E+00 1.47532E+00 0.00000E+00
 -1       426 1.72043E+00 1.70396E+00 0.00000E+00
 -1       427 2.17352E+00 8.11804E-01 0.00000E+00
 -1       428 4.17617E+00 1.79825E+00 0.00000E+00
 -1       429 4.17617E+00 1.52048E+00 0.00000E+00
 -1       430 4.17617E+00 1.24270E+00 0.00000E+00
 -1       431 1.97133E+00 1.96309E+00 0.00000E+00
 -1       432 1.60096E+00 1.96309E+00 0.00000E+00
 -1       433 1.23058E+00 1.96309E+00 0.00000E+00
 -1       434 3.80738E+00 1.02212E+00 0.00000E+00
 -1       435 4.07565E+00 6.12751E-01 0.00000E+00
 -1       436 4.12591E+00 9.27725E-01 0.00000E+00
 -1       437 3.64509E+00 3.34974E-01 0.00000E+00
 -1       438 4.04477E+00 3.06376E-01 0.00000E+00
 -1       439 7.19608E-01 1.77875E+00 0.00000E+00
 -1       440 3.49238E-01 1.47319E+00 0.00000E+00
 -1       441 3.59804E-01 1.84771E+00 0.00000E+00
 -1       442 1.56098E+00 1.35623E+00 0.00000E+00
 -1       443 1.05001E+00 1.17189E+00 0.00000E+00
 -1       444 1.14030E+00 1.56749E+00 0.00000E+00
 -1       445 7.02791E-01 1.02119E+00 0.00000E+00
 -1       446 1.20077E+00 5.04255E-01 0.00000E+00
 -1       447 9.86944E-01 7.77286E-01 0.00000E+00
 -1       448 2.01732E+00 4.05902E-01 0.00000E+00
 -1       449 1.78753E+00 9.10157E-01 0.00000E+00
 -1       450 1.60904E+00 4.55078E-01 0.00000E+00
 -1       451 3.65961E-01 1.19853E+00 0.00000E+00
 -1       452 3.32866E+00 7.04032E-01 0.00000E+00
 -1       453 2.83634E+00 3.69059E-01 0.00000E+00
 -1       454 3.24072E+00 3.52016E-01 0.00000E+00
 -1       455 3.59246E+00 1.42480E+00 0.00000E+00
 -1       456 3.11374E+00 1.10672E+00 0.00000E+00
 -1       457 3.46056E+00 1.06442E+00 0.00000E+00
 -1       458 2.89823E+00 1.51221E+00 0.00000E+00
 -1       459 3.49037E+00 1.84877E+00 0.00000E+00
 -1       460 2.74120E+00 1.88567E+00 0.00000E+00
 -1       461 3.11578E+00 1.86722E+00 0.00000E+00
 -1       462 2.56199E+00 7.74961E-01 0.00000E+00
 -1       463 2.42683E+00 3.87480E-01 0.00000E+00
 -1       464 2.11993E+00 1.62653E+00 0.00000E+00
 -1       465 2.35626E+00 1.92438E+00 0.00000E+00
 -1       466 2.34648E+00 1.18046E+00 0.00000E+00
 -1       467 2.73011E+00 1.14359E+00 0.00000E+00
 -1       468 1.95373E+00 1.26834E+00 0.00000E+00
 -1       469 3.83327E+00 1.82351E+00 0.00000E+00
 -1       470 4.26560E+00 1.75439E+00 0.00000E+00
 -1       471 4.26560E+00 1.38402E+00 0.00000E+00
 -1       472 1.80804E+00 2.04947E+00 0.00000E+00
 -1       473 1.31422E+00 2.04947E+00 0.00000E+00
 -1       474 4.28518E+00 8.80529E-01 0.00000E+00
 -1       475 4.10078E+00 7.70238E-01 0.00000E+00
 -1       476 4.26005E+00 5.84153E-01 0.00000E+00
 -1       477 4.31031E+00 1.17691E+00 0.00000E+00
 -1       478 4.15104E+00 1.08521E+00 0.00000E+00
 -1       479 4.04204E+00 1.30849E+00 0.00000E+00
 -1       480 3.85764E+00 1.19820E+00 0.00000E+00
 -1       481 3.96664E+00 9.74921E-01 0.00000E+00
 -1       482 3.75711E+00 8.46032E-01 0.00000E+00
 -1       483 3.89125E+00 6.41349E-01 0.00000E+00
 -1       484 4.24461E+00 2.92077E-01 0.00000E+00
 -1       485 4.02933E+00 1.53188E-01 0.00000E+00
 -1       486 4.06021E+00 4.59563E-01 0.00000E+00
 -1       487 3.67597E+00 5.02460E-01 0.00000E+00
 -1       488 3.84493E+00 3.20675E-01 0.00000E+00
 -1       489 3.61421E+00 1.67487E-01 0.00000E+00
 -1       490 7.09042E-01 1.55701E+00 0.00000E+00
 -1       491 5.39706E-01 1.81323E+00 0.00000E+00
 -1       492 3.54521E-01 1.66045E+00 0.00000E+00
 -1       493 5.23857E-01 1.40423E+00 0.00000E+00
 -1       494 7.30175E-01 2.00048E+00 0.00000E+00
 -1       495 3.65087E-01 2.03496E+00 0.00000E+00
 -1       496 1.79902E-01 1.88219E+00 0.00000E+00
 -1       497 1.74619E-01 1.54215E+00 0.00000E+00
 -1       498 1.48126E+00 1.18237E+00 0.00000E+00
 -1       499 1.35064E+00 1.46186E+00 0.00000E+00
 -1       500 1.09515E+00 1.36969E+00 0.00000E+00
 -1       501 1.22577E+00 1.09020E+00 0.00000E+00
 -1       502 1.64071E+00 1.53009E+00 0.00000E+00
 -1       503 1.47551E+00 1.83352E+00 0.00000E+00
 -1       504 1.18544E+00 1.76529E+00 0.00000E+00
 -1       505 9.85662E-01 2.09266E+00 0.00000E+00
 -1       506 9.29952E-01 1.67312E+00 0.00000E+00
 -1       507 8.74242E-01 1.25358E+00 0.00000E+00
 -1       508 7.00634E-01 1.17823E+00 0.00000E+00
 -1       509 8.44868E-01 8.99237E-01 0.00000E+00
 -1       510 1.01848E+00 9.74588E-01 0.00000E+00
 -1       511 7.04949E-01 8.64147E-01 0.00000E+00
 -1       512 9.55412E-01 5.79985E-01 0.00000E+00
 -1       513 1.10038E+00 2.52127E-01 0.00000E+00
 -1       514 1.09386E+00 6.40770E-01 0.00000E+00
 -1       515 1.30115E+00 7.56382E-01 0.00000E+00
 -1       516 1.51980E+00 2.27539E-01 0.00000E+00
 -1       517 1.40491E+00 4.79667E-01 0.00000E+00
 -1       518 1.93921E+00 2.02951E-01 0.00000E+00
 -1       519 1.81318E+00 4.30490E-01 0.00000E+00
 -1       520 2.09542E+00 6.08853E-01 0.00000E+00
 -1       521 1.98053E+00 8.60980E-01 0.00000E+00
 -1       522 1.69829E+00 6.82617E-01 0.00000E+00
 -1       523 1.59454E+00 9.59333E-01 0.00000E+00
 -1       524 5.34376E-01 1.10986E+00 0.00000E+00
 -1       525 3.74322E-01 1.06121E+00 0.00000E+00
 -1       526 3.57599E-01 1.33586E+00 0.00000E+00
 -1       527 1.82980E-01 1.25205E+00 0.00000E+00
 -1       528 3.51776E+00 6.86990E-01 0.00000E+00
 -1       529 3.28469E+00 5.28024E-01 0.00000E+00
 -1       530 3.44290E+00 3.43495E-01 0.00000E+00
 -1       531 3.13956E+00 7.21075E-01 0.00000E+00
 -1       532 2.89340E+00 5.53588E-01 0.00000E+00
 -1       533 3.03853E+00 3.60538E-01 0.00000E+00
 -1       534 2.77928E+00 1.84529E-01 0.00000E+00
 -1       535 3.19675E+00 1.76008E-01 0.00000E+00
 -1       536 3.39461E+00 8.84225E-01 0.00000E+00
 -1       537 3.28715E+00 1.08557E+00 0.00000E+00
 -1       538 3.03210E+00 9.22418E-01 0.00000E+00
 -1       539 3.63397E+00 1.04327E+00 0.00000E+00
 -1       540 3.75018E+00 1.39954E+00 0.00000E+00
 -1       541 3.52651E+00 1.24461E+00 0.00000E+00
 -1       542 3.43475E+00 1.45006E+00 0.00000E+00
 -1       543 3.19539E+00 1.29102E+00 0.00000E+00
 -1       544 2.70884E+00 1.53066E+00 0.00000E+00
 -1       545 3.00701E+00 1.68972E+00 0.00000E+00
 -1       546 2.92849E+00 1.87644E+00 0.00000E+00
 -1       547 2.63032E+00 1.71739E+00 0.00000E+00
 -1       548 3.08763E+00 1.49377E+00 0.00000E+00
 -1       549 3.38370E+00 1.66205E+00 0.00000E+00
 -1       550 3.30307E+00 1.85799E+00 0.00000E+00
 -1       551 3.59703E+00 2.03550E+00 0.00000E+00
 -1       552 3.22456E+00 2.04472E+00 0.00000E+00
 -1       553 2.85208E+00 2.05394E+00 0.00000E+00
 -1       554 2.35925E+00 1.93740E-01 0.00000E+00
 -1       555 2.22207E+00 3.96691E-01 0.00000E+00
 -1       556 2.63159E+00 3.78270E-01 0.00000E+00
 -1       557 2.75623E+00 7.56539E-01 0.00000E+00
 -1       558 2.49441E+00 5.81221E-01 0.00000E+00
 -1       559 2.36776E+00 7.93382E-01 0.00000E+00
 -1       560 2.47443E+00 2.07330E+00 0.00000E+00
 -1       561 2.54873E+00 1.90502E+00 0.00000E+00
 -1       562 2.09677E+00 2.09266E+00 0.00000E+00
 -1       563 2.16379E+00 1.94373E+00 0.00000E+00
 -1       564 1.84588E+00 1.83352E+00 0.00000E+00
 -1       565 1.92018E+00 1.66525E+00 0.00000E+00
 -1       566 2.23810E+00 1.77546E+00 0.00000E+00
 -1       567 2.31969E+00 1.58782E+00 0.00000E+00
 -1       568 2.81417E+00 1.32790E+00 0.00000E+00
 -1       569 2.92193E+00 1.12515E+00 0.00000E+00
 -1       570 2.43296E+00 1.36478E+00 0.00000E+00
 -1       571 2.53830E+00 1.16202E+00 0.00000E+00
 -1       572 2.26000E+00 9.96130E-01 0.00000E+00
 -1       573 2.64605E+00 9.59274E-01 0.00000E+00
 -1       574 1.75736E+00 1.31229E+00 0.00000E+00
 -1       575 2.03683E+00 1.44744E+00 0.00000E+00
 -1       576 1.87063E+00 1.08925E+00 0.00000E+00
 -1       577 2.15011E+00 1.22440E+00 0.00000E+00
 -1       578 3.95367E+00 2.02287E+00 0.00000E+00
 -1       579 4.00472E+00 1.81088E+00 0.00000E+00
 -1       580 4.31031E+00 2.01024E+00 0.00000E+00
 -1       581 3.66182E+00 1.83614E+00 0.00000E+00
 -1       582 3.71287E+00 1.62416E+00 0.00000E+00
 -1       583 4.04204E+00 1.58627E+00 0.00000E+00
 -1       584 4.35502E+00 1.84942E+00 0.00000E+00
 -1       585 4.22088E+00 1.63743E+00 0.00000E+00
 -1       586 4.31031E+00 1.59357E+00 0.00000E+00
 -1       587 4.22088E+00 1.77632E+00 0.00000E+00
 -1       588 4.04204E+00 1.44738E+00 0.00000E+00
 -1       589 4.22088E+00 1.31336E+00 0.00000E+00
 -1       590 4.22088E+00 1.45225E+00 0.00000E+00
 -1       591 4.35502E+00 1.38646E+00 0.00000E+00
 -1       592 1.88968E+00 2.00628E+00 0.00000E+00
 -1       593 1.70450E+00 2.00628E+00 0.00000E+00
 -1       594 1.66069E+00 1.83352E+00 0.00000E+00
 -1       595 1.82995E+00 2.13584E+00 0.00000E+00
 -1       596 1.54122E+00 2.09266E+00 0.00000E+00
 -1       597 1.21266E+00 2.13584E+00 0.00000E+00
 -1       598 1.45759E+00 2.00628E+00 0.00000E+00
 -1       599 1.27240E+00 2.00628E+00 0.00000E+00
 -1       600-2.39584E+00-1.28814E+00 0.00000E+00
 -1       601-3.18378E+00-1.52578E+00 0.00000E+00
 -1       602-3.97175E+00-1.20642E+00 0.00000E+00
 -1       603-7.39796E-01-1.51335E+00 0.00000E+00
 -1       604-3.59330E+00-8.07316E-01 0.00000E+00
 -1       605-2.91680E+00-7.17213E-01 0.00000E+00
 -1       606-3.83533E+00-1.63339E+00 0.00000E+00
 -1       607-1.59760E+00-7.10779E-01 0.00000E+00
 -1       608-1.51320E+00-1.44546E+00 0.00000E+00
 -1       609-2.18135E+00-6.87364E-01 0.00000E+00
 -1       610-4.01887E+00-6.81436E-01 0.00000E+00
 -1       611-3.58832E+00-4.03658E-01 0.00000E+00
 -1       612-4.01638E+00-3.40718E-01 0.00000E+00
 -1       613-1.55540E+00-1.07812E+00 0.00000E+00
 -1       614-1.12650E+00-1.47941E+00 0.00000E+00
 -1       615-7.23451E-01-1.11023E+00 0.00000E+00
 -1       616-1.15235E+00-7.08943E-01 0.00000E+00
 -1       617-1.13943E+00-1.09417E+00 0.00000E+00
 -1       618-3.38854E+00-1.16655E+00 0.00000E+00
 -1       619-3.78253E+00-1.00687E+00 0.00000E+00
 -1       620-3.90354E+00-1.41991E+00 0.00000E+00
 -1       621-3.50956E+00-1.57959E+00 0.00000E+00
 -1       622-3.64604E+00-1.29323E+00 0.00000E+00
 -1       623-3.69898E-01-1.56223E+00 0.00000E+00
 -1       624-3.76291E-01-1.24305E+00 0.00000E+00
 -1       625-2.81951E+00-3.58606E-01 0.00000E+00
 -1       626-3.25505E+00-7.62264E-01 0.00000E+00
 -1       627-3.20391E+00-3.81132E-01 0.00000E+00
 -1       628-1.95452E+00-1.36680E+00 0.00000E+00
 -1       629-1.88947E+00-6.99071E-01 0.00000E+00
 -1       630-2.28860E+00-9.87753E-01 0.00000E+00
 -1       631-1.92200E+00-1.03294E+00 0.00000E+00
 -1       632-3.76952E+00-1.92781E+00 0.00000E+00
 -1       633-4.13989E+00-1.65003E+00 0.00000E+00
 -1       634-4.10698E+00-1.93613E+00 0.00000E+00
 -1       635-7.40268E-01-1.86779E+00 0.00000E+00
 -1       636-3.70134E-01-1.89223E+00 0.00000E+00
 -1       637-3.07337E+00-1.87400E+00 0.00000E+00
 -1       638-3.42144E+00-1.90091E+00 0.00000E+00
 -1       639-2.30903E+00-1.75518E+00 0.00000E+00
 -1       640-1.49734E+00-1.83384E+00 0.00000E+00
 -1       641-1.90319E+00-1.79451E+00 0.00000E+00
 -1       642-2.78981E+00-1.40696E+00 0.00000E+00
 -1       643-2.69120E+00-1.81459E+00 0.00000E+00
 -1       644-2.65632E+00-1.00268E+00 0.00000E+00
 -1       645-3.02243E+00-1.08461E+00 0.00000E+00
 -1       646-1.11881E+00-1.85081E+00 0.00000E+00
 -1       647-2.45179E+00-3.43682E-01 0.00000E+00
 -1       648-2.55405E+00-6.73179E-01 0.00000E+00
 -1       649-1.72936E+00-3.55389E-01 0.00000E+00
 -1       650-1.32662E+00-3.69036E-01 0.00000E+00
 -1       651-4.20810E+00-1.15877E+00 0.00000E+00
 -1       652-4.17399E+00-1.40440E+00 0.00000E+00
 -1       653-4.11348E+00-9.20102E-01 0.00000E+00
 -1       654-2.09057E+00-3.49536E-01 0.00000E+00
 -1       655-4.23041E+00-3.09248E-01 0.00000E+00
 -1       656-4.01513E+00-1.70359E-01 0.00000E+00
 -1       657-4.23166E+00-6.18496E-01 0.00000E+00
 -1       658-4.01763E+00-5.11077E-01 0.00000E+00
 -1       659-3.80609E+00-7.44376E-01 0.00000E+00
 -1       660-3.59081E+00-6.05487E-01 0.00000E+00
 -1       661-3.80235E+00-3.72188E-01 0.00000E+00
 -1       662-3.58583E+00-2.01829E-01 0.00000E+00
 -1       663-1.57650E+00-8.94450E-01 0.00000E+00
 -1       664-1.34741E+00-1.08615E+00 0.00000E+00
 -1       665-1.14589E+00-9.01559E-01 0.00000E+00
 -1       666-1.37498E+00-7.09861E-01 0.00000E+00
 -1       667-1.53430E+00-1.26179E+00 0.00000E+00
 -1       668-1.31985E+00-1.46244E+00 0.00000E+00
 -1       669-1.13296E+00-1.28679E+00 0.00000E+00
 -1       670-9.33147E-01-1.49638E+00 0.00000E+00
 -1       671-7.31624E-01-1.31179E+00 0.00000E+00
 -1       672-9.31439E-01-1.10220E+00 0.00000E+00
 -1       673-7.15279E-01-9.08668E-01 0.00000E+00
 -1       674-9.29730E-01-7.08025E-01 0.00000E+00
 -1       675-3.28616E+00-1.34617E+00 0.00000E+00
 -1       676-3.51729E+00-1.22989E+00 0.00000E+00
 -1       677-3.57780E+00-1.43641E+00 0.00000E+00
 -1       678-3.34667E+00-1.55269E+00 0.00000E+00
 -1       679-3.49092E+00-9.86933E-01 0.00000E+00
 -1       680-3.68791E+00-9.07093E-01 0.00000E+00
 -1       681-3.71428E+00-1.15005E+00 0.00000E+00
 -1       682-3.87714E+00-1.10665E+00 0.00000E+00
 -1       683-3.93764E+00-1.31317E+00 0.00000E+00
 -1       684-3.77479E+00-1.35657E+00 0.00000E+00
 -1       685-3.86943E+00-1.52665E+00 0.00000E+00
 -1       686-3.67244E+00-1.60649E+00 0.00000E+00
 -1       687-5.49871E-01-1.17664E+00 0.00000E+00
 -1       688-3.79487E-01-1.08347E+00 0.00000E+00
 -1       689-5.54847E-01-1.53779E+00 0.00000E+00
 -1       690-3.73094E-01-1.40264E+00 0.00000E+00
 -1       691-1.84949E-01-1.58667E+00 0.00000E+00
 -1       692-1.88145E-01-1.27430E+00 0.00000E+00
 -1       693-2.86815E+00-5.37909E-01 0.00000E+00
 -1       694-3.01171E+00-3.69869E-01 0.00000E+00
 -1       695-3.22948E+00-5.71698E-01 0.00000E+00
 -1       696-3.08592E+00-7.39738E-01 0.00000E+00
 -1       697-2.77086E+00-1.79303E-01 0.00000E+00
 -1       698-3.17834E+00-1.90566E-01 0.00000E+00
 -1       699-3.39612E+00-3.92395E-01 0.00000E+00
 -1       700-3.42418E+00-7.84790E-01 0.00000E+00
 -1       701-2.17518E+00-1.32747E+00 0.00000E+00
 -1       702-1.93826E+00-1.19987E+00 0.00000E+00
 -1       703-2.10530E+00-1.01034E+00 0.00000E+00
 -1       704-2.34222E+00-1.13795E+00 0.00000E+00
 -1       705-1.73386E+00-1.40613E+00 0.00000E+00
 -1       706-1.73870E+00-1.05553E+00 0.00000E+00
 -1       707-1.74354E+00-7.04925E-01 0.00000E+00
 -1       708-1.90574E+00-8.66004E-01 0.00000E+00
 -1       709-2.03541E+00-6.93217E-01 0.00000E+00
 -1       710-2.23497E+00-8.37558E-01 0.00000E+00
 -1       711-3.73661E+00-2.07502E+00 0.00000E+00
 -1       712-3.93825E+00-1.93197E+00 0.00000E+00
 -1       713-4.09053E+00-2.07917E+00 0.00000E+00
 -1       714-3.80242E+00-1.78060E+00 0.00000E+00
 -1       715-3.98761E+00-1.64171E+00 0.00000E+00
 -1       716-4.12343E+00-1.79308E+00 0.00000E+00
 -1       717-4.29216E+00-1.65835E+00 0.00000E+00
 -1       718-4.27571E+00-1.94028E+00 0.00000E+00
 -1       719-3.70252E-01-2.05722E+00 0.00000E+00
 -1       720-5.55201E-01-1.88001E+00 0.00000E+00
 -1       721-7.40504E-01-2.04500E+00 0.00000E+00
 -1       722-1.85067E-01-1.90445E+00 0.00000E+00
 -1       723-3.70016E-01-1.72723E+00 0.00000E+00
 -1       724-7.40032E-01-1.69057E+00 0.00000E+00
 -1       725-3.59548E+00-1.91436E+00 0.00000E+00
 -1       726-3.46550E+00-1.74025E+00 0.00000E+00
 -1       727-3.37739E+00-2.06156E+00 0.00000E+00
 -1       728-3.01817E+00-2.04811E+00 0.00000E+00
 -1       729-3.24741E+00-1.88745E+00 0.00000E+00
 -1       730-3.12858E+00-1.69989E+00 0.00000E+00
 -1       731-1.92886E+00-1.58066E+00 0.00000E+00
 -1       732-1.70027E+00-1.81418E+00 0.00000E+00
 -1       733-1.50527E+00-1.63965E+00 0.00000E+00
 -1       734-2.35244E+00-1.52166E+00 0.00000E+00
 -1       735-2.10611E+00-1.77485E+00 0.00000E+00
 -1       736-2.26563E+00-1.98870E+00 0.00000E+00
 -1       737-1.87752E+00-2.00837E+00 0.00000E+00
 -1       738-1.48941E+00-2.02803E+00 0.00000E+00
 -1       739-2.88229E+00-1.84430E+00 0.00000E+00
 -1       740-2.74051E+00-1.61078E+00 0.00000E+00
 -1       741-2.98680E+00-1.46637E+00 0.00000E+00
 -1       742-2.64190E+00-2.01841E+00 0.00000E+00
 -1       743-2.50012E+00-1.78489E+00 0.00000E+00
 -1       744-2.59283E+00-1.34755E+00 0.00000E+00
 -1       745-3.20549E+00-1.12558E+00 0.00000E+00
 -1       746-3.13874E+00-9.23439E-01 0.00000E+00
 -1       747-2.90612E+00-1.24579E+00 0.00000E+00
 -1       748-2.52608E+00-1.14541E+00 0.00000E+00
 -1       749-2.83938E+00-1.04365E+00 0.00000E+00
 -1       750-2.78656E+00-8.59945E-01 0.00000E+00
 -1       751-1.11496E+00-2.03652E+00 0.00000E+00
 -1       752-1.30807E+00-1.84233E+00 0.00000E+00
 -1       753-9.29537E-01-1.85930E+00 0.00000E+00
 -1       754-1.12265E+00-1.66511E+00 0.00000E+00
 -1       755-2.68678E+00-5.15893E-01 0.00000E+00
 -1       756-2.50292E+00-5.08431E-01 0.00000E+00
 -1       757-2.58700E+00-1.71841E-01 0.00000E+00
 -1       758-2.60519E+00-8.37928E-01 0.00000E+00
 -1       759-2.42132E+00-8.30466E-01 0.00000E+00
 -1       760-2.31657E+00-5.15523E-01 0.00000E+00
 -1       761-1.79523E+00-1.77695E-01 0.00000E+00
 -1       762-1.52799E+00-3.62213E-01 0.00000E+00
 -1       763-1.37859E+00-1.84518E-01 0.00000E+00
 -1       764-1.66348E+00-5.33084E-01 0.00000E+00
 -1       765-1.23949E+00-5.38989E-01 0.00000E+00
 -1       766-1.12525E+00-3.75860E-01 0.00000E+00
 -1       767-4.03876E+00-1.41215E+00 0.00000E+00
 -1       768-4.15694E+00-1.52722E+00 0.00000E+00
 -1       769-4.08992E+00-1.18260E+00 0.00000E+00
 -1       770-4.19104E+00-1.28158E+00 0.00000E+00
 -1       771-4.32627E+00-1.13494E+00 0.00000E+00
 -1       772-4.30922E+00-1.39664E+00 0.00000E+00
 -1       773-4.06618E+00-8.00769E-01 0.00000E+00
 -1       774-3.94800E+00-9.63486E-01 0.00000E+00
 -1       775-4.27896E+00-8.76717E-01 0.00000E+00
 -1       776-4.16079E+00-1.03944E+00 0.00000E+00
 -1       777-2.27118E+00-3.46609E-01 0.00000E+00
 -1       778-2.19112E+00-1.74768E-01 0.00000E+00
 -1       779-1.99002E+00-5.24303E-01 0.00000E+00
 -1       780-1.90996E+00-3.52462E-01 0.00000E+00
 -1       781-1.67922E+00 7.45233E-01 0.00000E+00
 -1       782-2.56817E+00 7.59464E-01 0.00000E+00
 -1       783-7.57607E-01 1.51930E+00 0.00000E+00
 -1       784-2.38486E+00 1.50059E+00 0.00000E+00
 -1       785-3.82902E+00 1.63070E+00 0.00000E+00
 -1       786-3.55209E+00 8.18185E-01 0.00000E+00
 -1       787-3.15862E+00 1.55781E+00 0.00000E+00
 -1       788-1.56478E+00 1.49056E+00 0.00000E+00
 -1       789-3.96521E+00 1.20642E+00 0.00000E+00
 -1       790-3.06013E+00 7.88825E-01 0.00000E+00
 -1       791-2.47652E+00 1.13003E+00 0.00000E+00
 -1       792-2.77174E+00 1.52920E+00 0.00000E+00
 -1       793-3.35536E+00 1.18800E+00 0.00000E+00
 -1       794-2.91594E+00 1.15901E+00 0.00000E+00
 -1       795-3.78804E-01 1.56521E+00 0.00000E+00
 -1       796-7.49174E-01 1.87076E+00 0.00000E+00
 -1       797-3.74587E-01 1.89371E+00 0.00000E+00
 -1       798-1.16119E+00 1.50493E+00 0.00000E+00
 -1       799-1.62200E+00 1.11790E+00 0.00000E+00
 -1       800-1.19316E+00 7.26170E-01 0.00000E+00
 -1       801-7.32357E-01 1.11320E+00 0.00000E+00
 -1       802-1.17718E+00 1.11555E+00 0.00000E+00
 -1       803-3.56771E+00 4.09093E-01 0.00000E+00
 -1       804-3.99827E+00 6.86870E-01 0.00000E+00
 -1       805-4.00608E+00 3.43435E-01 0.00000E+00
 -1       806-1.77016E+00 3.72617E-01 0.00000E+00
 -1       807-1.34702E+00 3.77650E-01 0.00000E+00
 -1       808-2.64520E+00 3.79732E-01 0.00000E+00
 -1       809-3.10646E+00 3.94412E-01 0.00000E+00
 -1       810-3.80744E-01 1.24454E+00 0.00000E+00
 -1       811-3.49382E+00 1.59426E+00 0.00000E+00
 -1       812-3.89711E+00 1.41856E+00 0.00000E+00
 -1       813-3.75865E+00 1.01230E+00 0.00000E+00
 -1       814-3.62624E+00 1.30328E+00 0.00000E+00
 -1       815-3.06079E+00 1.89002E+00 0.00000E+00
 -1       816-3.76636E+00 1.92646E+00 0.00000E+00
 -1       817-3.41358E+00 1.90824E+00 0.00000E+00
 -1       818-4.20483E+00 1.15877E+00 0.00000E+00
 -1       819-4.10155E+00 9.22819E-01 0.00000E+00
 -1       820-1.52313E+00 1.85639E+00 0.00000E+00
 -1       821-1.13615E+00 1.86358E+00 0.00000E+00
 -1       822-2.30354E+00 1.86141E+00 0.00000E+00
 -1       823-2.68216E+00 1.87571E+00 0.00000E+00
 -1       824-1.97482E+00 1.49557E+00 0.00000E+00
 -1       825-1.91334E+00 1.85890E+00 0.00000E+00
 -1       826-4.13673E+00 1.64869E+00 0.00000E+00
 -1       827-4.10540E+00 1.93545E+00 0.00000E+00
 -1       828-4.17078E+00 1.40373E+00 0.00000E+00
 -1       829-2.12369E+00 7.52348E-01 0.00000E+00
 -1       830-2.20768E+00 3.76174E-01 0.00000E+00
 -1       831-2.04926E+00 1.12396E+00 0.00000E+00
 -1       832-3.30611E+00 8.03505E-01 0.00000E+00
 -1       833-2.98803E+00 9.73919E-01 0.00000E+00
 -1       834-3.13565E+00 1.17351E+00 0.00000E+00
 -1       835-3.45373E+00 1.00309E+00 0.00000E+00
 -1       836-2.81415E+00 7.74144E-01 0.00000E+00
 -1       837-2.52234E+00 9.44745E-01 0.00000E+00
 -1       838-2.69622E+00 1.14452E+00 0.00000E+00
 -1       839-2.43069E+00 1.31531E+00 0.00000E+00
 -1       840-2.57830E+00 1.51490E+00 0.00000E+00
 -1       841-2.84384E+00 1.34411E+00 0.00000E+00
 -1       842-2.96518E+00 1.54351E+00 0.00000E+00
 -1       843-3.25699E+00 1.37291E+00 0.00000E+00
 -1       844-5.68206E-01 1.54225E+00 0.00000E+00
 -1       845-3.76695E-01 1.72946E+00 0.00000E+00
 -1       846-5.61881E-01 1.88224E+00 0.00000E+00
 -1       847-7.53391E-01 1.69503E+00 0.00000E+00
 -1       848-1.89402E-01 1.58816E+00 0.00000E+00
 -1       849-1.87294E-01 1.90519E+00 0.00000E+00
 -1       850-3.72479E-01 2.05797E+00 0.00000E+00
 -1       851-7.44957E-01 2.04649E+00 0.00000E+00
 -1       852-9.59401E-01 1.51212E+00 0.00000E+00
 -1       853-1.16919E+00 1.31024E+00 0.00000E+00
 -1       854-9.54767E-01 1.11438E+00 0.00000E+00
 -1       855-7.44982E-01 1.31625E+00 0.00000E+00
 -1       856-1.36299E+00 1.49774E+00 0.00000E+00
 -1       857-1.59339E+00 1.30423E+00 0.00000E+00
 -1       858-1.39959E+00 1.11672E+00 0.00000E+00
 -1       859-1.65061E+00 9.31564E-01 0.00000E+00
 -1       860-1.43619E+00 7.35702E-01 0.00000E+00
 -1       861-1.18517E+00 9.20860E-01 0.00000E+00
 -1       862-9.50134E-01 7.16638E-01 0.00000E+00
 -1       863-7.19732E-01 9.10156E-01 0.00000E+00
 -1       864-3.57552E+00 2.04546E-01 0.00000E+00
 -1       865-3.78690E+00 3.76264E-01 0.00000E+00
 -1       866-4.00998E+00 1.71718E-01 0.00000E+00
 -1       867-3.55990E+00 6.13639E-01 0.00000E+00
 -1       868-3.77518E+00 7.52528E-01 0.00000E+00
 -1       869-4.00217E+00 5.15153E-01 0.00000E+00
 -1       870-4.22136E+00 6.21213E-01 0.00000E+00
 -1       871-4.22526E+00 3.10606E-01 0.00000E+00
 -1       872-1.27009E+00 5.51910E-01 0.00000E+00
 -1       873-1.13545E+00 3.80167E-01 0.00000E+00
 -1       874-1.72469E+00 5.58925E-01 0.00000E+00
 -1       875-1.55859E+00 3.75133E-01 0.00000E+00
 -1       876-1.81564E+00 1.86308E-01 0.00000E+00
 -1       877-1.38879E+00 1.88825E-01 0.00000E+00
 -1       878-3.33708E+00 4.01752E-01 0.00000E+00
 -1       879-3.08329E+00 5.91618E-01 0.00000E+00
 -1       880-3.12962E+00 1.97206E-01 0.00000E+00
 -1       881-2.68371E+00 1.89866E-01 0.00000E+00
 -1       882-2.87582E+00 3.87072E-01 0.00000E+00
 -1       883-2.60668E+00 5.69598E-01 0.00000E+00
 -1       884-3.81713E-01 1.08421E+00 0.00000E+00
 -1       885-5.56550E-01 1.17887E+00 0.00000E+00
 -1       886-1.90372E-01 1.27505E+00 0.00000E+00
 -1       887-3.79774E-01 1.40488E+00 0.00000E+00
 -1       888-3.49079E+00 1.24564E+00 0.00000E+00
 -1       889-3.69244E+00 1.15779E+00 0.00000E+00
 -1       890-3.65537E+00 9.15245E-01 0.00000E+00
 -1       891-3.32622E+00 1.57604E+00 0.00000E+00
 -1       892-3.56003E+00 1.44877E+00 0.00000E+00
 -1       893-3.66142E+00 1.61248E+00 0.00000E+00
 -1       894-3.86307E+00 1.52463E+00 0.00000E+00
 -1       895-3.76167E+00 1.36092E+00 0.00000E+00
 -1       896-3.93116E+00 1.31249E+00 0.00000E+00
 -1       897-3.86193E+00 1.10936E+00 0.00000E+00
 -1       898-3.45370E+00 1.75125E+00 0.00000E+00
 -1       899-3.58997E+00 1.91735E+00 0.00000E+00
 -1       900-3.79769E+00 1.77858E+00 0.00000E+00
 -1       901-3.10970E+00 1.72392E+00 0.00000E+00
 -1       902-3.23718E+00 1.89913E+00 0.00000E+00
 -1       903-3.01188E+00 2.05612E+00 0.00000E+00
 -1       904-3.37345E+00 2.06523E+00 0.00000E+00
 -1       905-3.73503E+00 2.07434E+00 0.00000E+00
 -1       906-4.27300E+00 8.78076E-01 0.00000E+00
 -1       907-4.15319E+00 1.04079E+00 0.00000E+00
 -1       908-4.32464E+00 1.13494E+00 0.00000E+00
 -1       909-4.04991E+00 8.04845E-01 0.00000E+00
 -1       910-3.93010E+00 9.67561E-01 0.00000E+00
 -1       911-4.08502E+00 1.18260E+00 0.00000E+00
 -1       912-9.42663E-01 1.86717E+00 0.00000E+00
 -1       913-1.14867E+00 1.68425E+00 0.00000E+00
 -1       914-1.12363E+00 2.04290E+00 0.00000E+00
 -1       915-1.50231E+00 2.03931E+00 0.00000E+00
 -1       916-1.32964E+00 1.85998E+00 0.00000E+00
 -1       917-1.54395E+00 1.67347E+00 0.00000E+00
 -1       918-2.72695E+00 1.70246E+00 0.00000E+00
 -1       919-2.87148E+00 1.88286E+00 0.00000E+00
 -1       920-2.34420E+00 1.68100E+00 0.00000E+00
 -1       921-2.49285E+00 1.86856E+00 0.00000E+00
 -1       922-2.26288E+00 2.04181E+00 0.00000E+00
 -1       923-2.63738E+00 2.04897E+00 0.00000E+00
 -1       924-1.71823E+00 1.85764E+00 0.00000E+00
 -1       925-1.94408E+00 1.67724E+00 0.00000E+00
 -1       926-1.76980E+00 1.49307E+00 0.00000E+00
 -1       927-1.88259E+00 2.04056E+00 0.00000E+00
 -1       928-2.10844E+00 1.86015E+00 0.00000E+00
 -1       929-2.17984E+00 1.49808E+00 0.00000E+00
 -1       930-4.08974E+00 2.07884E+00 0.00000E+00
 -1       931-3.93588E+00 1.93096E+00 0.00000E+00
 -1       932-4.27492E+00 1.93995E+00 0.00000E+00
 -1       933-4.29059E+00 1.65768E+00 0.00000E+00
 -1       934-4.12107E+00 1.79207E+00 0.00000E+00
 -1       935-3.98288E+00 1.63970E+00 0.00000E+00
 -1       936-4.03395E+00 1.41114E+00 0.00000E+00
 -1       937-4.18780E+00 1.28125E+00 0.00000E+00
 -1       938-4.15376E+00 1.52621E+00 0.00000E+00
 -1       939-4.30761E+00 1.39631E+00 0.00000E+00
 -1       940-2.24967E+00 1.88087E-01 0.00000E+00
 -1       941-2.42644E+00 3.77953E-01 0.00000E+00
 -1       942-1.98892E+00 3.74395E-01 0.00000E+00
 -1       943-1.90146E+00 7.48791E-01 0.00000E+00
 -1       944-2.16569E+00 5.64261E-01 0.00000E+00
 -1       945-2.34593E+00 7.55906E-01 0.00000E+00
 -1       946-2.01204E+00 1.30977E+00 0.00000E+00
 -1       947-1.83563E+00 1.12093E+00 0.00000E+00
 -1       948-2.26289E+00 1.12699E+00 0.00000E+00
 -1       949-2.08647E+00 9.38155E-01 0.00000E+00
 -3
    3C                           284                                     1
 -1         1   10    0    1
 -2       240       248       252       251       293       294       295       296
 -1         2   10    0    1
 -2       248       244       249       252       297       298       299       294
 -1         3   10    0    1
 -2       252       249       245       250       299       300       301       302
 -1         4   10    0    1
 -2       251       252       250       238       295       302       303       304
 -1         5   10    0    1
 -2       246       253       257       256       305       306       307       308
 -1         6   10    0    1
 -2       253        98       254       257       309       310       311       306
 -1         7   10    0    1
 -2       257       254       241       255       311       312       313       314
 -1         8   10    0    1
 -2       256       257       255       247       307       314       315       316
 -1         9   10    0    1
 -2       164       258       260       163       317       318       319       171
 -1        10   10    0    1
 -2       258       245       259       260       320       321       322       318
 -1        11   10    0    1
 -2       260       259        19        20       322       323        27       324
 -1        12   10    0    1
 -2       163       260        20        11       319       324        28       170
 -1        13   10    0    1
 -2        98        99       262       254       102       325       326       310
 -1        14   10    0    1
 -2        99         8       201       262       103       204       327       325
 -1        15   10    0    1
 -2       262       201       202       261       327       205       328       329
 -1        16   10    0    1
 -2       254       262       261       241       326       329       330       312
 -1        17   10    0    1
 -2       243       263       267       266       331       332       333       334
 -1        18   10    0    1
 -2       263       242       264       267       335       336       337       332
 -1        19   10    0    1
 -2       267       264       247       265       337       338       339       340
 -1        20   10    0    1
 -2       266       267       265       239       333       340       341       342
 -1        21   10    0    1
 -2       168       268       270       269       343       344       345       346
 -1        22   10    0    1
 -2       268       246       256       270       347       308       348       344
 -1        23   10    0    1
 -2       270       256       247       264       348       316       338       349
 -1        24   10    0    1
 -2       269       270       264       242       345       349       336       350
 -1        25   10    0    1
 -2       243       271       272       263       351       352       353       331
 -1        26   10    0    1
 -2       271       166       167       272       354       174       355       352
 -1        27   10    0    1
 -2       272       167       168       269       355       175       346       356
 -1        28   10    0    1
 -2       263       272       269       242       353       356       350       335
 -1        29   10    0    1
 -2       179       273       274       178       357       358       359       190
 -1        30   10    0    1
 -2       273       241       261       274       360       330       361       358
 -1        31   10    0    1
 -2       274       261       202       203       361       328       206       362
 -1        32   10    0    1
 -2       178       274       203        12       359       362       207       189
 -1        33   10    0    1
 -2       245       258       276       275       320       363       364       365
 -1        34   10    0    1
 -2       258       164       165       276       317       172       366       363
 -1        35   10    0    1
 -2       276       165       166       271       366       173       354       367
 -1        36   10    0    1
 -2       275       276       271       243       364       367       351       368
 -1        37   10    0    1
 -2       240       251       279       278       296       369       370       371
 -1        38   10    0    1
 -2       251       238       277       279       304       372       373       369
 -1        39   10    0    1
 -2       279       277       185       186       373       374       197       375
 -1        40   10    0    1
 -2       278       279       186       187       370       375       198       376
 -1        41   10    0    1
 -2       247       280       282       265       377       378       379       339
 -1        42   10    0    1
 -2       280       181       182       282       380       193       381       378
 -1        43   10    0    1
 -2       282       182       183       281       381       194       382       383
 -1        44   10    0    1
 -2       265       282       281       239       379       383       384       341
 -1        45   10    0    1
 -2       181       280       283       180       380       385       386       192
 -1        46   10    0    1
 -2       280       247       255       283       377       315       387       385
 -1        47   10    0    1
 -2       283       255       241       273       387       313       360       388
 -1        48   10    0    1
 -2       180       283       273       179       386       388       357       191
 -1        49   10    0    1
 -2       168       169       284       268       176       389       390       343
 -1        50   10    0    1
 -2       169         7        97       284       177       100       391       389
 -1        51   10    0    1
 -2       284        97        98       253       391       101       309       392
 -1        52   10    0    1
 -2       268       284       253       246       390       392       305       347
 -1        53   10    0    1
 -2       183       184       286       281       195       393       394       382
 -1        54   10    0    1
 -2       184       185       277       286       196       374       395       393
 -1        55   10    0    1
 -2       286       277       238       285       395       372       396       397
 -1        56   10    0    1
 -2       281       286       285       239       394       397       398       384
 -1        57   10    0    1
 -2       187       188       288       278       199       399       400       376
 -1        58   10    0    1
 -2       188         1        14       288       200        21       401       399
 -1        59   10    0    1
 -2       288        14        15       287       401        22       402       403
 -1        60   10    0    1
 -2       278       288       287       240       400       403       404       371
 -1        61   10    0    1
 -2       245       275       289       250       365       405       406       301
 -1        62   10    0    1
 -2       275       243       266       289       368       334       407       405
 -1        63   10    0    1
 -2       289       266       239       285       407       342       398       408
 -1        64   10    0    1
 -2       250       289       285       238       406       408       396       303
 -1        65   10    0    1
 -2       245       249       291       259       300       409       410       321
 -1        66   10    0    1
 -2       249       244       290       291       298       411       412       409
 -1        67   10    0    1
 -2       291       290        17        18       412       413        25       414
 -1        68   10    0    1
 -2       259       291        18        19       410       414        26       323
 -1        69   10    0    1
 -2        15        16       292       287        23       415       416       402
 -1        70   10    0    1
 -2        16        17       290       292        24       413       417       415
 -1        71   10    0    1
 -2       292       290       244       248       417       411       297       418
 -1        72   10    0    1
 -2       287       292       248       240       416       418       293       404
 -1        73   10    0    1
 -2       149       150       436       435       157       474       475       476
 -1        74   10    0    1
 -2       150       151       430       436       158       477       478       474
 -1        75   10    0    1
 -2       436       430       422       434       478       479       480       481
 -1        76   10    0    1
 -2       435       436       434       420       475       481       482       483
 -1        77   10    0    1
 -2        11       148       438       163       155       484       485       170
 -1        78   10    0    1
 -2       148       149       435       438       156       476       486       484
 -1        79   10    0    1
 -2       438       435       420       437       486       483       487       488
 -1        80   10    0    1
 -2       163       438       437       164       485       488       489       171
 -1        81   10    0    1
 -2       421       439       441       440       490       491       492       493
 -1        82   10    0    1
 -2       439        38        39       441       494        50       495       491
 -1        83   10    0    1
 -2       441        39        10       141       495        51       144       496
 -1        84   10    0    1
 -2       440       441       141       142       492       496       145       497
 -1        85   10    0    1
 -2       419       442       444       443       498       499       500       501
 -1        86   10    0    1
 -2       442       426       433       444       502       503       504       499
 -1        87   10    0    1
 -2       444       433        38       439       504       505       494       506
 -1        88   10    0    1
 -2       443       444       439       421       500       506       490       507
 -1        89   10    0    1
 -2       421       445       447       443       508       509       510       507
 -1        90   10    0    1
 -2       445        91        92       447       511        95       512       509
 -1        91   10    0    1
 -2       447        92         7       446       512        96       513       514
 -1        92   10    0    1
 -2       443       447       446       419       510       514       515       501
 -1        93   10    0    1
 -2         7       169       450       446       177       516       517       513
 -1        94   10    0    1
 -2       169       168       448       450       176       518       519       516
 -1        95   10    0    1
 -2       450       448       427       449       519       520       521       522
 -1        96   10    0    1
 -2       446       450       449       419       517       522       523       515
 -1        97   10    0    1
 -2        91       445       451        90       511       524       525        94
 -1        98   10    0    1
 -2       445       421       440       451       508       493       526       524
 -1        99   10    0    1
 -2       451       440       142       143       526       497       146       527
 -1       100   10    0    1
 -2        90       451       143         5       525       527       147        93
 -1       101   10    0    1
 -2       420       452       454       437       528       529       530       487
 -1       102   10    0    1
 -2       452       424       453       454       531       532       533       529
 -1       103   10    0    1
 -2       454       453       166       165       533       534       173       535
 -1       104   10    0    1
 -2       437       454       165       164       530       535       172       489
 -1       105   10    0    1
 -2       424       452       457       456       531       536       537       538
 -1       106   10    0    1
 -2       452       420       434       457       528       482       539       536
 -1       107   10    0    1
 -2       457       434       422       455       539       480       540       541
 -1       108   10    0    1
 -2       456       457       455       425       537       541       542       543
 -1       109   10    0    1
 -2       423       458       461       460       544       545       546       547
 -1       110   10    0    1
 -2       458       425       459       461       548       549       550       545
 -1       111   10    0    1
 -2       461       459        30        31       550       551        42       552
 -1       112   10    0    1
 -2       460       461        31        32       546       552        43       553
 -1       113   10    0    1
 -2       168       167       463       448       175       554       555       518
 -1       114   10    0    1
 -2       167       166       453       463       174       534       556       554
 -1       115   10    0    1
 -2       463       453       424       462       556       532       557       558
 -1       116   10    0    1
 -2       448       463       462       427       555       558       559       520
 -1       117   10    0    1
 -2        32        33       465       460        44       560       561       553
 -1       118   10    0    1
 -2        33        34       431       465        45       562       563       560
 -1       119   10    0    1
 -2       465       431       426       464       563       564       565       566
 -1       120   10    0    1
 -2       460       465       464       423       561       566       567       547
 -1       121   10    0    1
 -2       425       458       467       456       548       568       569       543
 -1       122   10    0    1
 -2       458       423       466       467       544       570       571       568
 -1       123   10    0    1
 -2       467       466       427       462       571       572       559       573
 -1       124   10    0    1
 -2       456       467       462       424       569       573       557       538
 -1       125   10    0    1
 -2       426       442       468       464       502       574       575       565
 -1       126   10    0    1
 -2       442       419       449       468       498       523       576       574
 -1       127   10    0    1
 -2       468       449       427       466       576       521       572       577
 -1       128   10    0    1
 -2       464       468       466       423       575       577       570       567
 -1       129   10    0    1
 -2         2        29       469       428        40       578       579       580
 -1       130   10    0    1
 -2        29        30       459       469        41       551       581       578
 -1       131   10    0    1
 -2       469       459       425       455       581       549       542       582
 -1       132   10    0    1
 -2       428       469       455       422       579       582       540       583
 -1       133   10    0    1
 -2       153       154       470       429       161       584       585       586
 -1       134   10    0    1
 -2       154         2       428       470       162       580       587       584
 -1       135   10    0    1
 -2       429       470       428       422       585       587       583       588
 -1       136   10    0    1
 -2       422       430       471       429       479       589       590       588
 -1       137   10    0    1
 -2       430       151       152       471       477       159       591       589
 -1       138   10    0    1
 -2       429       471       152       153       590       591       160       586
 -1       139   10    0    1
 -2       426       431       472       432       564       592       593       594
 -1       140   10    0    1
 -2       431        34        35       472       562        46       595       592
 -1       141   10    0    1
 -2       432       472        35        36       593       595        47       596
 -1       142   10    0    1
 -2        36        37       473       432        48       597       598       596
 -1       143   10    0    1
 -2        37        38       433       473        49       505       599       597
 -1       144   10    0    1
 -2       432       473       433       426       598       599       503       594
 -1       145   10    0    1
 -2        13       208       612       229       215       655       656       237
 -1       146   10    0    1
 -2       208       209       610       612       216       657       658       655
 -1       147   10    0    1
 -2       612       610       604       611       658       659       660       661
 -1       148   10    0    1
 -2       229       612       611       228       656       661       662       236
 -1       149   10    0    1
 -2       607       613       617       616       663       664       665       666
 -1       150   10    0    1
 -2       613       608       614       617       667       668       669       664
 -1       151   10    0    1
 -2       617       614       603       615       669       670       671       672
 -1       152   10    0    1
 -2       616       617       615       105       665       672       673       674
 -1       153   10    0    1
 -2       601       618       622       621       675       676       677       678
 -1       154   10    0    1
 -2       618       604       619       622       679       680       681       676
 -1       155   10    0    1
 -2       622       619       602       620       681       682       683       684
 -1       156   10    0    1
 -2       621       622       620       606       677       684       685       686
 -1       157   10    0    1
 -2       105       615       624       104       673       687       688       108
 -1       158   10    0    1
 -2       615       603       623       624       671       689       690       687
 -1       159   10    0    1
 -2       624       623       202       201       690       691       205       692
 -1       160   10    0    1
 -2       104       624       201         8       688       692       204       107
 -1       161   10    0    1
 -2       605       625       627       626       693       694       695       696
 -1       162   10    0    1
 -2       625       226       227       627       697       234       698       694
 -1       163   10    0    1
 -2       627       227       228       611       698       235       662       699
 -1       164   10    0    1
 -2       626       627       611       604       695       699       660       700
 -1       165   10    0    1
 -2       600       628       631       630       701       702       703       704
 -1       166   10    0    1
 -2       628       608       613       631       705       667       706       702
 -1       167   10    0    1
 -2       631       613       607       629       706       663       707       708
 -1       168   10    0    1
 -2       630       631       629       609       703       708       709       710
 -1       169   10    0    1
 -2        68       632       634        67       711       712       713        79
 -1       170   10    0    1
 -2       632       606       633       634       714       715       716       712
 -1       171   10    0    1
 -2       634       633       213       214       716       717       221       718
 -1       172   10    0    1
 -2        67       634       214         4       713       718       222        78
 -1       173   10    0    1
 -2        76        77       636       635        88       719       720       721
 -1       174   10    0    1
 -2        77        12       203       636        89       207       722       719
 -1       175   10    0    1
 -2       636       203       202       623       722       206       691       723
 -1       176   10    0    1
 -2       635       636       623       603       720       723       689       724
 -1       177   10    0    1
 -2       606       632       638       621       714       725       726       686
 -1       178   10    0    1
 -2       632        68        69       638       711        80       727       725
 -1       179   10    0    1
 -2       638        69        70       637       727        81       728       729
 -1       180   10    0    1
 -2       621       638       637       601       726       729       730       678
 -1       181   10    0    1
 -2       608       628       641       640       705       731       732       733
 -1       182   10    0    1
 -2       628       600       639       641       701       734       735       731
 -1       183   10    0    1
 -2       641       639        72        73       735       736        84       737
 -1       184   10    0    1
 -2       640       641        73        74       732       737        85       738
 -1       185   10    0    1
 -2       601       637       643       642       730       739       740       741
 -1       186   10    0    1
 -2       637        70        71       643       728        82       742       739
 -1       187   10    0    1
 -2       643        71        72       639       742        83       736       743
 -1       188   10    0    1
 -2       642       643       639       600       740       743       734       744
 -1       189   10    0    1
 -2       604       618       645       626       679       745       746       700
 -1       190   10    0    1
 -2       618       601       642       645       675       741       747       745
 -1       191   10    0    1
 -2       645       642       600       644       747       744       748       749
 -1       192   10    0    1
 -2       626       645       644       605       746       749       750       696
 -1       193   10    0    1
 -2        74        75       646       640        86       751       752       738
 -1       194   10    0    1
 -2        75        76       635       646        87       721       753       751
 -1       195   10    0    1
 -2       646       635       603       614       753       724       670       754
 -1       196   10    0    1
 -2       640       646       614       608       752       754       668       733
 -1       197   10    0    1
 -2       226       625       648       647       697       755       756       757
 -1       198   10    0    1
 -2       625       605       644       648       693       750       758       755
 -1       199   10    0    1
 -2       648       644       600       630       758       748       704       759
 -1       200   10    0    1
 -2       647       648       630       609       756       759       710       760
 -1       201   10    0    1
 -2       224       649       650       223       761       762       763       231
 -1       202   10    0    1
 -2       649       607       616       650       764       666       765       762
 -1       203   10    0    1
 -2       650       616       105       106       765       674       109       766
 -1       204   10    0    1
 -2       223       650       106         9       763       766       110       230
 -1       205   10    0    1
 -2       606       620       652       633       685       767       768       715
 -1       206   10    0    1
 -2       620       602       651       652       683       769       770       767
 -1       207   10    0    1
 -2       652       651       211       212       770       771       219       772
 -1       208   10    0    1
 -2       633       652       212       213       768       772       220       717
 -1       209   10    0    1
 -2       604       610       653       619       659       773       774       680
 -1       210   10    0    1
 -2       610       209       210       653       657       217       775       773
 -1       211   10    0    1
 -2       653       210       211       651       775       218       771       776
 -1       212   10    0    1
 -2       619       653       651       602       774       776       769       682
 -1       213   10    0    1
 -2       226       647       654       225       757       777       778       233
 -1       214   10    0    1
 -2       647       609       629       654       760       709       779       777
 -1       215   10    0    1
 -2       654       629       607       649       779       707       764       780
 -1       216   10    0    1
 -2       225       654       649       224       778       780       761       232
 -1       217   10    0    1
 -2       786       790       794       793       832       833       834       835
 -1       218   10    0    1
 -2       790       782       791       794       836       837       838       833
 -1       219   10    0    1
 -2       794       791       784       792       838       839       840       841
 -1       220   10    0    1
 -2       793       794       792       787       834       841       842       843
 -1       221   10    0    1
 -2       783       795       797       796       844       845       846       847
 -1       222   10    0    1
 -2       795       142       141       797       848       145       849       845
 -1       223   10    0    1
 -2       797       141        10       118       849       144       129       850
 -1       224   10    0    1
 -2       796       797       118       119       846       850       130       851
 -1       225   10    0    1
 -2       783       798       802       801       852       853       854       855
 -1       226   10    0    1
 -2       798       788       799       802       856       857       858       853
 -1       227   10    0    1
 -2       802       799       781       800       858       859       860       861
 -1       228   10    0    1
 -2       801       802       800       112       854       861       862       863
 -1       229   10    0    1
 -2       228       803       805       229       864       865       866       236
 -1       230   10    0    1
 -2       803       786       804       805       867       868       869       865
 -1       231   10    0    1
 -2       805       804        57        58       869       870        65       871
 -1       232   10    0    1
 -2       229       805        58        13       866       871        66       237
 -1       233   10    0    1
 -2       112       800       807       111       862       872       873       115
 -1       234   10    0    1
 -2       800       781       806       807       860       874       875       872
 -1       235   10    0    1
 -2       807       806       224       223       875       876       231       877
 -1       236   10    0    1
 -2       111       807       223         9       873       877       230       114
 -1       237   10    0    1
 -2       786       803       809       790       867       878       879       832
 -1       238   10    0    1
 -2       803       228       227       809       864       235       880       878
 -1       239   10    0    1
 -2       809       227       226       808       880       234       881       882
 -1       240   10    0    1
 -2       790       809       808       782       879       882       883       836
 -1       241   10    0    1
 -2       112       113       810       801       116       884       885       863
 -1       242   10    0    1
 -2       113         5       143       810       117       147       886       884
 -1       243   10    0    1
 -2       810       143       142       795       886       146       848       887
 -1       244   10    0    1
 -2       801       810       795       783       885       887       844       855
 -1       245   10    0    1
 -2       786       793       814       813       835       888       889       890
 -1       246   10    0    1
 -2       793       787       811       814       843       891       892       888
 -1       247   10    0    1
 -2       814       811       785       812       892       893       894       895
 -1       248   10    0    1
 -2       813       814       812       789       889       895       896       897
 -1       249   10    0    1
 -2       785       811       817       816       893       898       899       900
 -1       250   10    0    1
 -2       811       787       815       817       891       901       902       898
 -1       251   10    0    1
 -2       817       815       125       126       902       903       137       904
 -1       252   10    0    1
 -2       816       817       126       127       899       904       138       905
 -1       253   10    0    1
 -2        55        56       819       818        63       906       907       908
 -1       254   10    0    1
 -2        56        57       804       819        64       870       909       906
 -1       255   10    0    1
 -2       819       804       786       813       909       868       890       910
 -1       256   10    0    1
 -2       818       819       813       789       907       910       897       911
 -1       257   10    0    1
 -2       783       796       821       798       847       912       913       852
 -1       258   10    0    1
 -2       796       119       120       821       851       131       914       912
 -1       259   10    0    1
 -2       821       120       121       820       914       132       915       916
 -1       260   10    0    1
 -2       798       821       820       788       913       916       917       856
 -1       261   10    0    1
 -2       787       792       823       815       842       918       919       901
 -1       262   10    0    1
 -2       792       784       822       823       840       920       921       918
 -1       263   10    0    1
 -2       823       822       123       124       921       922       135       923
 -1       264   10    0    1
 -2       815       823       124       125       919       923       136       903
 -1       265   10    0    1
 -2       788       820       825       824       917       924       925       926
 -1       266   10    0    1
 -2       820       121       122       825       915       133       927       924
 -1       267   10    0    1
 -2       825       122       123       822       927       134       922       928
 -1       268   10    0    1
 -2       824       825       822       784       925       928       920       929
 -1       269   10    0    1
 -2       127       128       827       816       139       930       931       905
 -1       270   10    0    1
 -2       128         3        52       827       140        59       932       930
 -1       271   10    0    1
 -2       827        52        53       826       932        60       933       934
 -1       272   10    0    1
 -2       816       827       826       785       931       934       935       900
 -1       273   10    0    1
 -2       789       812       828       818       896       936       937       911
 -1       274   10    0    1
 -2       812       785       826       828       894       935       938       936
 -1       275   10    0    1
 -2       828       826        53        54       938       933        61       939
 -1       276   10    0    1
 -2       818       828        54        55       937       939        62       908
 -1       277   10    0    1
 -2       226       225       830       808       233       940       941       881
 -1       278   10    0    1
 -2       225       224       806       830       232       876       942       940
 -1       279   10    0    1
 -2       830       806       781       829       942       874       943       944
 -1       280   10    0    1
 -2       808       830       829       782       941       944       945       883
 -1       281   10    0    1
 -2       788       824       831       799       926       946       947       857
 -1       282   10    0    1
 -2       824       784       791       831       929       839       948       946
 -1       283   10    0    1
 -2       831       791       782       829       948       837       945       949
 -1       284   10    0    1
 -2       799       831       829       781       947       949       943       859
 -3
    1PSTEP                         1           1           1          
  100CL  101 1.000000000         948                     0    1           1
 -4  DISP        4    1
 -5  D1          1    2    1    0
 -5  D2          1    2    2    0
 -5  D3          1    2    3    0
 -5  ALL         1    2    0    0    1ALL
 -1         1 2.66599E-08 1.91907E-09-1.73191E-24
 -1         2 2.66470E-08-1.88743E-09 1.65436E-24
 -1         3-2.66642E-08-1.91100E-09-1.13737E-24
 -1         4-2.66534E-08 1.89239E-09-5.16988E-26
 -1         5 0.00000E+00-8.81393E-09-1.55096E-25
 -1         7 1.81054E-08 0.00000E+00-1.39587E-24
 -1         8 0.00000E+00 8.82028E-09-5.68687E-25
 -1         9-1.80684E-08 0.00000E+00-1.53804E-24
 -1        10-1.01981E-11-1.09184E-08-4.65289E-25
 -1        11 2.83931E-08 1.67352E-11-1.86116E-24
 -1        12 3.01346E-12 1.09208E-08 3.10193E-25
 -1        13-2.84015E-08-9.21729E-12-2.06795E-25
 -1        14 2.68574E-08 1.52027E-09-2.06795E-25
 -1        15 2.70914E-08 1.12913E-09 1.39587E-24
 -1        16 2.73697E-08 7.80634E-10-2.45569E-24
 -1        17 2.76691E-08 4.98648E-10 1.26662E-24
 -1        18 2.79535E-08 2.92619E-10-1.03398E-24
 -1        19 2.81868E-08 1.55820E-10 3.61892E-25
 -1        20 2.83405E-08 7.19300E-11-1.13737E-24
 -1        21 2.67573E-08 1.71989E-09-3.15363E-24
 -1        22 2.69680E-08 1.32172E-09 1.65436E-24
 -1        23 2.72259E-08 9.48230E-10-1.39587E-24
 -1        24 2.75187E-08 6.30965E-10-4.08420E-24
 -1        25 2.78155E-08 3.86772E-10 5.16988E-25
 -1        26 2.80786E-08 2.17369E-10-1.55096E-24
 -1        27 2.82753E-08 1.08773E-10-1.91286E-24
 -1        28 2.83801E-08 4.24981E-11-5.06648E-24
 -1        29 2.48847E-08-2.12881E-09-7.23783E-25
 -1        30 2.30891E-08-2.29547E-09 9.56428E-25
 -1        31 2.11798E-08-2.39144E-09-1.08567E-24
 -1        32 1.90955E-08-2.48105E-09-5.16988E-26
 -1        33 1.67909E-08-2.65863E-09 8.78879E-25
 -1        34 1.42422E-08-3.04587E-09 9.04729E-25
 -1        35 1.14708E-08-3.77898E-09-9.30578E-25
 -1        36 8.56382E-09-4.99519E-09 8.27181E-25
 -1        37 5.74376E-09-6.69479E-09 1.18907E-24
 -1        38 3.30345E-09-8.64093E-09 1.11152E-24
 -1        39 1.41758E-09-1.02626E-08-1.03398E-24
 -1        40 2.57668E-08-2.01499E-09 2.37814E-24
 -1        41 2.39969E-08-2.22402E-09-3.61892E-25
 -1        42 2.21529E-08-2.34909E-09-4.65289E-25
 -1        43 2.01625E-08-2.43137E-09-1.86116E-24
 -1        44 1.79727E-08-2.55127E-09 1.49926E-24
 -1        45 1.55467E-08-2.81606E-09 3.20532E-24
 -1        46 1.28804E-08-3.36319E-09-4.13590E-25
 -1        47 1.00197E-08-4.32283E-09 0.00000E+00
 -1        48 7.13022E-09-5.79057E-09 3.10193E-24
 -1        49 4.47760E-09-7.64755E-09 3.72231E-24
 -1        50 2.29460E-09-9.53133E-09-1.03398E-25
 -1        51 6.69393E-10-1.07489E-08-2.63664E-24
 -1        52-2.68622E-08-1.51220E-09 3.10193E-25
 -1        53-2.70967E-08-1.12107E-09 7.23783E-25
 -1        54-2.73755E-08-7.72580E-10-2.19720E-24
 -1        55-2.76754E-08-4.90625E-10-2.63664E-24
 -1        56-2.79604E-08-2.84719E-10-8.27181E-25
 -1        57-2.81942E-08-1.48028E-10-1.29247E-25
 -1        58-2.83483E-08-6.42905E-11 9.30578E-25
 -1        59-2.67618E-08-1.71181E-09-1.34417E-24
 -1        60-2.69730E-08-1.31364E-09 1.13737E-24
 -1        61-2.72314E-08-9.40178E-10-3.05023E-24
 -1        62-2.75247E-08-6.22938E-10-6.97934E-24
 -1        63-2.78220E-08-3.78817E-10-5.11818E-24
 -1        64-2.80857E-08-2.09549E-10-1.70606E-24
 -1        65-2.82828E-08-1.01007E-10 1.34417E-24
 -1        66-2.83882E-08-3.48673E-11 8.78879E-25
 -1        67-2.48942E-08 2.13628E-09-3.87741E-25
 -1        68-2.30990E-08 2.30166E-09 1.37002E-24
 -1        69-2.11894E-08 2.39669E-09 6.46235E-25
 -1        70-1.91047E-08 2.48581E-09-1.24077E-24
 -1        71-1.67994E-08 2.66304E-09-1.29247E-25
 -1        72-1.42492E-08 3.05170E-09-8.01331E-25
 -1        73-1.14755E-08 3.78992E-09 1.52511E-24
 -1        74-8.57393E-09 5.00148E-09-5.42837E-25
 -1        75-5.75647E-09 6.69850E-09 7.75482E-25
 -1        76-3.30828E-09 8.64048E-09-2.84343E-25
 -1        77-1.42716E-09 1.02703E-08 1.62851E-24
 -1        78-2.57745E-08 2.02069E-09 7.23783E-25
 -1        79-2.40061E-08 2.23078E-09 7.23783E-25
 -1        80-2.21624E-08 2.35531E-09 2.94683E-24
 -1        81-2.01715E-08 2.43743E-09-1.49926E-24
 -1        82-1.79815E-08 2.55690E-09-2.58494E-24
 -1        83-1.55535E-08 2.82232E-09-2.17135E-24
 -1        84-1.28851E-08 3.36777E-09 1.34417E-24
 -1        85-1.00292E-08 4.33041E-09 1.34417E-24
 -1        86-7.13844E-09 5.79500E-09 5.16988E-25
 -1        87-4.47387E-09 7.66523E-09 6.20385E-25
 -1        88-2.30203E-09 9.53864E-09 2.63664E-24
 -1        89-6.80717E-10 1.07542E-08 2.74004E-24
 -1        90 7.22499E-09-7.91795E-09-1.55096E-25
 -1        91 1.30695E-08-5.62356E-09 1.29247E-25
 -1        92 1.67471E-08-2.79315E-09 1.23431E-24
 -1        93 3.65419E-09-8.62607E-09 2.06795E-25
 -1        94 1.03606E-08-6.86584E-09 3.10193E-25
 -1        95 1.52210E-08-4.22510E-09 2.17135E-24
 -1        96 1.77248E-08-1.37433E-09 5.42837E-25
 -1        97 1.68403E-08 2.85464E-09-1.42172E-25
 -1        98 1.30774E-08 5.64935E-09 1.29247E-26
 -1        99 7.21252E-09 7.91819E-09 7.23783E-25
 -1       100 1.78015E-08 1.37003E-09-2.32645E-24
 -1       101 1.52447E-08 4.24721E-09 5.42837E-25
 -1       102 1.03304E-08 6.87734E-09 1.86116E-24
 -1       103 3.66777E-09 8.63243E-09 4.13590E-25
 -1       104-7.21638E-09 7.91717E-09-1.75776E-24
 -1       105-1.30726E-08 5.63239E-09-3.87741E-26
 -1       106-1.68375E-08 2.86948E-09-5.16988E-25
 -1       107-3.67158E-09 8.63271E-09-2.89513E-24
 -1       108-1.03287E-08 6.86931E-09-2.89513E-24
 -1       109-1.52340E-08 4.23060E-09-7.36708E-25
 -1       110-1.77972E-08 1.40637E-09-3.30872E-24
 -1       111-1.68327E-08-2.87215E-09-6.13923E-25
 -1       112-1.30734E-08-5.62359E-09-7.75482E-26
 -1       113-7.22180E-09-7.91488E-09 6.72084E-25
 -1       114-1.77992E-08-1.41414E-09-3.10193E-24
 -1       115-1.52302E-08-4.22638E-09-8.65955E-25
 -1       116-1.03330E-08-6.86525E-09 7.23783E-25
 -1       117-3.67519E-09-8.63160E-09 1.03398E-24
 -1       118-1.43927E-09-1.02688E-08 3.87741E-25
 -1       119-3.32026E-09-8.64077E-09-9.56428E-25
 -1       120-5.76789E-09-6.70078E-09 4.65289E-25
 -1       121-8.58538E-09-5.00580E-09-4.91138E-25
 -1       122-1.14865E-08-3.79528E-09-4.13590E-25
 -1       123-1.42613E-08-3.05863E-09 5.94536E-25
 -1       124-1.68105E-08-2.67297E-09-6.20385E-25
 -1       125-1.91152E-08-2.49732E-09-5.68687E-25
 -1       126-2.12001E-08-2.40982E-09 3.10193E-25
 -1       127-2.31097E-08-2.31659E-09-1.52511E-24
 -1       128-2.49050E-08-2.15305E-09 1.13737E-24
 -1       129-6.93282E-10-1.07518E-08 5.16988E-26
 -1       130-2.31383E-09-9.53778E-09-7.23783E-25
 -1       131-4.48490E-09-7.66632E-09-1.24077E-24
 -1       132-7.14910E-09-5.79788E-09-1.03398E-25
 -1       133-1.00392E-08-4.33497E-09-1.75776E-24
 -1       134-1.28966E-08-3.37389E-09 5.16988E-25
 -1       135-1.55655E-08-2.83132E-09-2.06795E-25
 -1       136-1.79920E-08-2.56777E-09-1.49926E-24
 -1       137-2.01822E-08-2.44967E-09-8.78879E-25
 -1       138-2.21731E-08-2.36935E-09-1.60266E-24
 -1       139-2.40169E-08-2.24665E-09-3.10193E-25
 -1       140-2.57853E-08-2.03839E-09-8.27181E-25
 -1       141-8.27216E-12-1.05457E-08 4.13590E-25
 -1       142-7.02965E-12-1.01570E-08-7.75482E-26
 -1       143-1.77940E-12-9.79084E-09 5.68687E-25
 -1       144-9.84844E-12-1.07504E-08-1.03398E-25
 -1       145-6.64793E-12-1.03415E-08 7.23783E-25
 -1       146-4.74385E-12-9.98675E-09 6.20385E-25
 -1       147-7.33597E-12-9.51463E-09 6.20385E-25
 -1       148 2.83383E-08-3.86899E-11-2.58494E-25
 -1       149 2.81832E-08-1.22504E-10-2.06795E-24
 -1       150 2.79473E-08-2.59319E-10-3.61892E-25
 -1       151 2.76609E-08-4.65939E-10-2.17135E-24
 -1       152 2.73595E-08-7.46839E-10-3.87741E-25
 -1       153 2.70803E-08-1.09690E-09-1.11152E-24
 -1       154 2.68438E-08-1.48773E-09-7.23783E-25
 -1       155 2.83791E-08-9.55342E-12-3.61892E-24
 -1       156 2.82725E-08-7.57815E-11-3.46382E-24
 -1       157 2.80737E-08-1.83468E-10-3.72231E-24
 -1       158 2.78083E-08-3.53599E-10-5.11818E-24
 -1       159 2.75099E-08-5.97938E-10-4.08420E-24
 -1       160 2.72151E-08-9.15803E-10-1.65436E-24
 -1       161 2.69559E-08-1.28817E-09-2.63664E-24
 -1       162 2.67414E-08-1.68750E-09 1.29247E-24
 -1       163 2.64951E-08 1.51718E-11 8.78879E-25
 -1       164 2.46393E-08 1.35447E-11-1.80946E-25
 -1       165 2.29062E-08 1.21987E-11-5.68687E-25
 -1       166 2.13564E-08 1.10008E-11 5.55762E-25
 -1       167 2.00526E-08 9.61044E-12-1.68021E-25
 -1       168 1.90791E-08 1.22455E-11 3.42504E-25
 -1       169 1.85423E-08-1.48167E-11 1.29247E-25
 -1       170 2.74459E-08 1.58733E-11-2.48154E-24
 -1       171 2.55554E-08 1.43665E-11 1.86116E-24
 -1       172 2.37531E-08 1.29587E-11-6.20385E-25
 -1       173 2.21041E-08 1.17039E-11-4.65289E-25
 -1       174 2.06681E-08 1.03255E-11 1.34417E-24
 -1       175 1.95162E-08 1.02073E-11 2.84343E-25
 -1       176 1.87485E-08 8.03874E-12 8.53030E-25
 -1       177 1.83912E-08 1.97746E-11-2.79173E-24
 -1       178 1.43299E-09 1.02724E-08 2.58494E-26
 -1       179 3.31351E-09 8.64362E-09-4.91138E-25
 -1       180 5.76392E-09 6.70349E-09 2.32645E-25
 -1       181 8.58148E-09 5.01194E-09-7.75482E-26
 -1       182 1.14807E-08 3.80000E-09 4.65289E-25
 -1       183 1.42572E-08 3.06192E-09 3.10193E-25
 -1       184 1.68065E-08 2.67764E-09-7.75482E-25
 -1       185 1.91111E-08 2.50281E-09 4.13590E-25
 -1       186 2.11959E-08 2.41599E-09-2.32645E-25
 -1       187 2.31055E-08 2.32338E-09-3.10193E-25
 -1       188 2.49007E-08 2.16047E-09-6.72084E-25
 -1       189 6.86320E-10 1.07553E-08-1.55096E-25
 -1       190 2.30775E-09 9.54157E-09-1.03398E-24
 -1       191 4.48153E-09 7.66839E-09-5.16988E-25
 -1       192 7.14693E-09 5.80262E-09 5.16988E-25
 -1       193 1.00315E-08 4.33975E-09 1.24077E-24
 -1       194 1.28908E-08 3.37741E-09 1.03398E-24
 -1       195 1.55614E-08 2.83565E-09-1.24077E-24
 -1       196 1.79879E-08 2.57291E-09-1.65436E-24
 -1       197 2.01780E-08 2.45552E-09 2.58494E-25
 -1       198 2.21688E-08 2.37583E-09-9.82277E-25
 -1       199 2.40126E-08 2.25375E-09-2.58494E-24
 -1       200 2.57810E-08 2.04613E-09-3.20532E-24
 -1       201 9.55875E-13 9.79319E-09-3.10193E-25
 -1       202 1.52433E-12 1.01599E-08-3.61892E-25
 -1       203 2.15008E-12 1.05494E-08-3.87741E-25
 -1       204-3.50848E-13 9.52180E-09-1.44757E-24
 -1       205 9.69672E-13 9.98919E-09-1.13737E-24
 -1       206 1.82521E-12 1.03454E-08-1.24077E-24
 -1       207 2.49136E-12 1.07533E-08 0.00000E+00
 -1       208-2.83470E-08 4.58257E-11-9.82277E-25
 -1       209-2.81916E-08 1.29440E-10-4.91138E-25
 -1       210-2.79564E-08 2.66081E-10-1.60266E-24
 -1       211-2.76700E-08 4.72064E-10-1.60266E-24
 -1       212-2.73688E-08 7.53986E-10-2.14550E-24
 -1       213-2.70886E-08 1.10246E-09 4.39440E-25
 -1       214-2.68527E-08 1.49359E-09-1.03398E-25
 -1       215-2.83876E-08 1.65443E-11-1.49926E-24
 -1       216-2.82810E-08 8.25712E-11-3.15363E-24
 -1       217-2.80825E-08 1.90846E-10-4.08420E-24
 -1       218-2.78174E-08 3.60204E-10-5.27328E-24
 -1       219-2.75187E-08 6.04344E-10-6.20385E-24
 -1       220-2.72240E-08 9.21567E-10-3.15363E-24
 -1       221-2.69642E-08 1.29504E-09 2.06795E-25
 -1       222-2.67517E-08 1.69321E-09-1.18907E-24
 -1       223-1.85433E-08-1.53528E-12 1.74483E-24
 -1       224-1.90913E-08-2.10242E-12 1.09860E-25
 -1       225-2.00651E-08-4.44649E-12-1.68021E-25
 -1       226-2.13650E-08-4.01475E-12 1.68021E-25
 -1       227-2.29148E-08-6.14483E-12-1.03398E-25
 -1       228-2.46478E-08-7.11137E-12-5.16988E-25
 -1       229-2.65036E-08-8.20953E-12 1.29247E-24
 -1       230-1.84345E-08-2.36830E-12 5.16988E-26
 -1       231-1.87595E-08-1.94008E-12 3.72231E-24
 -1       232-1.95279E-08-3.73297E-12-3.61892E-25
 -1       233-2.06779E-08-4.61337E-12 5.16988E-26
 -1       234-2.21129E-08-5.53672E-12 2.06795E-25
 -1       235-2.37618E-08-6.66633E-12-1.39587E-24
 -1       236-2.55637E-08-7.66449E-12 1.24077E-24
 -1       237-2.74542E-08-8.72539E-12 1.80946E-24
 -1       238 2.10377E-08 1.40132E-09-4.91138E-25
 -1       239 1.73292E-08 1.41354E-09 1.29247E-25
 -1       240 2.42277E-08 1.44423E-09-9.82277E-25
 -1       241 5.97094E-09 7.08776E-09-6.20385E-25
 -1       242 1.81260E-08 4.81729E-10-1.42172E-25
 -1       243 2.02607E-08 4.40173E-10 5.16988E-26
 -1       244 2.54051E-08 8.99240E-10-9.82277E-25
 -1       245 2.40341E-08 5.92024E-10-8.27181E-25
 -1       246 1.54646E-08 1.38150E-09-3.03730E-25
 -1       247 1.33615E-08 2.21417E-09 7.49632E-25
 -1       248 2.48135E-08 1.15819E-09 1.55096E-25
 -1       249 2.47082E-08 7.56223E-10 4.91138E-25
 -1       250 2.26052E-08 9.46782E-10 3.87741E-25
 -1       251 2.26486E-08 1.44826E-09 7.75482E-26
 -1       252 2.36953E-08 1.07532E-09-5.68687E-25
 -1       253 1.41205E-08 2.78106E-09 6.20385E-25
 -1       254 8.15826E-09 6.04696E-09 2.06795E-25
 -1       255 9.85657E-09 4.20472E-09 2.06795E-25
 -1       256 1.41686E-08 1.78806E-09 5.94536E-25
 -1       257 1.14632E-08 3.44610E-09 1.29247E-25
 -1       258 2.44679E-08 2.76965E-10 1.08567E-24
 -1       259 2.61262E-08 4.36527E-10 3.61892E-25
 -1       260 2.63936E-08 2.09970E-10 4.13590E-25
 -1       261 2.85941E-09 9.25014E-09 0.00000E+00
 -1       262 4.00406E-09 8.65258E-09 1.55096E-25
 -1       263 1.91663E-08 4.30980E-10 5.29913E-25
 -1       264 1.59981E-08 1.10401E-09 1.03398E-25
 -1       265 1.53614E-08 1.61856E-09-6.20385E-25
 -1       266 1.88948E-08 8.36536E-10-3.10193E-25
 -1       267 1.74322E-08 8.83657E-10 8.14256E-25
 -1       268 1.80621E-08 3.25560E-10 1.29247E-25
 -1       269 1.88577E-08 1.87998E-10 1.29247E-25
 -1       270 1.70137E-08 6.60183E-10 3.87741E-25
 -1       271 2.10165E-08 1.85406E-10 1.93870E-25
 -1       272 1.98465E-08 1.64527E-10 3.87741E-26
 -1       273 4.73286E-09 7.95098E-09-2.06795E-25
 -1       274 2.23725E-09 9.79059E-09-5.68687E-25
 -1       275 2.20847E-08 5.20459E-10-4.39440E-25
 -1       276 2.26545E-08 2.36603E-10 6.20385E-25
 -1       277 1.99888E-08 1.91191E-09-1.80946E-25
 -1       278 2.36125E-08 1.86931E-09 3.61892E-25
 -1       279 2.18463E-08 1.90845E-09-1.55096E-25
 -1       280 1.08624E-08 3.64165E-09 5.16988E-26
 -1       281 1.57166E-08 2.16552E-09-7.75482E-26
 -1       282 1.33369E-08 2.65400E-09-1.03398E-25
 -1       283 7.78197E-09 5.57584E-09-2.58494E-25
 -1       284 1.73997E-08 8.76034E-10 2.32645E-25
 -1       285 1.92028E-08 1.36026E-09 2.32645E-25
 -1       286 1.79161E-08 1.96030E-09-2.06795E-25
 -1       287 2.56684E-08 1.33506E-09-4.65289E-25
 -1       288 2.52525E-08 1.73678E-09-2.58494E-25
 -1       289 2.07344E-08 8.71239E-10 2.32645E-25
 -1       290 2.65423E-08 7.38970E-10 0.00000E+00
 -1       291 2.63429E-08 5.83961E-10-3.36042E-25
 -1       292 2.60973E-08 1.01814E-09-6.72084E-25
 -1       293 2.45186E-08 1.29793E-09-6.20385E-25
 -1       294 2.42514E-08 1.12407E-09-1.24077E-24
 -1       295 2.31727E-08 1.25508E-09-5.16988E-25
 -1       296 2.34420E-08 1.45560E-09-1.49926E-24
 -1       297 2.51095E-08 1.02532E-09-1.03398E-24
 -1       298 2.50534E-08 8.31418E-10-1.18907E-24
 -1       299 2.42080E-08 9.09404E-10 3.10193E-25
 -1       300 2.43679E-08 6.75795E-10-1.08567E-24
 -1       301 2.33411E-08 7.59237E-10-6.72084E-25
 -1       302 2.31444E-08 1.01541E-09-3.10193E-25
 -1       303 2.18329E-08 1.15993E-09 6.72084E-25
 -1       304 2.18463E-08 1.42827E-09-1.03398E-25
 -1       305 1.48054E-08 1.95038E-09 4.65289E-25
 -1       306 1.26735E-08 3.08785E-09 1.44757E-24
 -1       307 1.28934E-08 2.48838E-09 1.29247E-24
 -1       308 1.47542E-08 1.57404E-09 2.06795E-25
 -1       309 1.35153E-08 4.03013E-09 1.18907E-24
 -1       310 1.02202E-08 5.63577E-09 8.27181E-25
 -1       311 9.91640E-09 4.66657E-09 3.10193E-25
 -1       312 6.84406E-09 6.58324E-09-5.16988E-25
 -1       313 7.92428E-09 5.58957E-09-3.10193E-25
 -1       314 1.05530E-08 3.83072E-09 3.10193E-25
 -1       315 1.16789E-08 3.07582E-09 1.55096E-24
 -1       316 1.37081E-08 2.00734E-09 2.22305E-24
 -1       317 2.45903E-08 1.41979E-10 1.49926E-24
 -1       318 2.54228E-08 2.51100E-10 1.75776E-24
 -1       319 2.64666E-08 1.10575E-10 1.70606E-24
 -1       320 2.42779E-08 4.25533E-10 6.72084E-25
 -1       321 2.50827E-08 5.26866E-10-1.03398E-24
 -1       322 2.62778E-08 3.17856E-10 1.96455E-24
 -1       323 2.71638E-08 3.15103E-10 1.49926E-24
 -1       324 2.73702E-08 1.50862E-10-2.27475E-24
 -1       325 5.12634E-09 8.28536E-09 1.55096E-24
 -1       326 6.07484E-09 7.44871E-09 9.30578E-25
 -1       327 1.94979E-09 9.47877E-09 0.00000E+00
 -1       328 1.39794E-09 9.90800E-09-8.27181E-25
 -1       329 3.30102E-09 8.96844E-09 4.13590E-25
 -1       330 4.39169E-09 8.25683E-09-8.27181E-25
 -1       331 1.97067E-08 4.30248E-10 2.06795E-24
 -1       332 1.83513E-08 6.25132E-10 2.01625E-24
 -1       333 1.81578E-08 8.43952E-10 1.55096E-25
 -1       334 1.96141E-08 6.16622E-10-6.72084E-25
 -1       335 1.86406E-08 4.47215E-10-5.16988E-26
 -1       336 1.71345E-08 7.39590E-10 1.03398E-25
 -1       337 1.67120E-08 9.67283E-10 1.34417E-24
 -1       338 1.47265E-08 1.59428E-09 9.82277E-25
 -1       339 1.43742E-08 1.85650E-09 5.16988E-25
 -1       340 1.64266E-08 1.21665E-09 5.16988E-25
 -1       341 1.63455E-08 1.47822E-09-1.39587E-24
 -1       342 1.81253E-08 1.10329E-09 4.65289E-25
 -1       343 1.87376E-08 1.16420E-10 1.80946E-25
 -1       344 1.75626E-08 4.77667E-10 1.00813E-24
 -1       345 1.80610E-08 3.62675E-10-1.80946E-25
 -1       346 1.90664E-08 8.96084E-11 9.56428E-25
 -1       347 1.69809E-08 7.23673E-10 0.00000E+00
 -1       348 1.57016E-08 1.12674E-09 1.70606E-24
 -1       349 1.64793E-08 8.72223E-10 1.24077E-24
 -1       350 1.85239E-08 3.14403E-10-1.03398E-25
 -1       351 2.06843E-08 2.98297E-10 6.20385E-25
 -1       352 2.04113E-08 1.71314E-10 7.75482E-25
 -1       353 1.95514E-08 2.79916E-10 4.65289E-25
 -1       354 2.12424E-08 9.33055E-11 2.27475E-24
 -1       355 2.00227E-08 7.96784E-11-2.58494E-25
 -1       356 1.93280E-08 1.67282E-10 0.00000E+00
 -1       357 4.11241E-09 8.31745E-09-1.03398E-24
 -1       358 3.45339E-09 8.95854E-09-6.20385E-25
 -1       359 1.89991E-09 1.00509E-08-6.72084E-25
 -1       360 5.30949E-09 7.54689E-09-1.75776E-24
 -1       361 2.53348E-09 9.52104E-09-4.13590E-25
 -1       362 1.09416E-09 1.03405E-08-1.75776E-24
 -1       363 2.35425E-08 2.60675E-10 1.96455E-24
 -1       364 2.24032E-08 3.67944E-10-1.03398E-25
 -1       365 2.30463E-08 5.62459E-10-1.13737E-24
 -1       366 2.28239E-08 1.20748E-10 5.16988E-26
 -1       367 2.18095E-08 2.10190E-10 1.65436E-24
 -1       368 2.11543E-08 4.75901E-10-1.13737E-24
 -1       369 2.22351E-08 1.67124E-09-2.06795E-25
 -1       370 2.27395E-08 1.89688E-09 1.55096E-25
 -1       371 2.39102E-08 1.65153E-09-1.60266E-24
 -1       372 2.05011E-08 1.64596E-09-1.03398E-24
 -1       373 2.09298E-08 1.91037E-09-8.27181E-25
 -1       374 1.95178E-08 2.19805E-09 3.10193E-25
 -1       375 2.14942E-08 2.15802E-09 0.00000E+00
 -1       376 2.33410E-08 2.09505E-09-8.27181E-25
 -1       377 1.20589E-08 2.93081E-09 1.34417E-24
 -1       378 1.21135E-08 3.07502E-09 0.00000E+00
 -1       379 1.43311E-08 2.11911E-09-8.78879E-25
 -1       380 9.73326E-09 4.32548E-09-3.10193E-25
 -1       381 1.23884E-08 3.20565E-09-2.06795E-25
 -1       382 1.49575E-08 2.59285E-09 7.23783E-25
 -1       383 1.45384E-08 2.35660E-09 1.03398E-25
 -1       384 1.65142E-08 1.77078E-09 3.10193E-25
 -1       385 9.33287E-09 4.52728E-09-5.16988E-25
 -1       386 6.83331E-09 6.15819E-09-2.06795E-25
 -1       387 8.74862E-09 4.93160E-09 1.03398E-25
 -1       388 6.23667E-09 6.74756E-09-6.20385E-25
 -1       389 1.82387E-08 3.23368E-10 5.68687E-25
 -1       390 1.77188E-08 5.05702E-10 1.06306E-24
 -1       391 1.70986E-08 1.50498E-09-3.87741E-25
 -1       392 1.60245E-08 1.68132E-09 3.19886E-25
 -1       393 1.73268E-08 2.30363E-09-1.70606E-24
 -1       394 1.68320E-08 2.03454E-09-4.13590E-25
 -1       395 1.89676E-08 1.92418E-09-8.27181E-25
 -1       396 2.01249E-08 1.37509E-09-1.24077E-24
 -1       397 1.85484E-08 1.64532E-09 5.16988E-26
 -1       398 1.82718E-08 1.36858E-09 6.20385E-25
 -1       399 2.50690E-08 1.94772E-09-1.55096E-24
 -1       400 2.44391E-08 1.81410E-09 2.06795E-25
 -1       401 2.60569E-08 1.63654E-09-6.72084E-25
 -1       402 2.63801E-08 1.24530E-09 1.39587E-24
 -1       403 2.54528E-08 1.53166E-09-1.03398E-24
 -1       404 2.49516E-08 1.40070E-09-2.17135E-24
 -1       405 2.14395E-08 6.81136E-10-2.06795E-25
 -1       406 2.16665E-08 9.10021E-10 8.27181E-25
 -1       407 1.98113E-08 8.42324E-10-1.55096E-25
 -1       408 1.99837E-08 1.09667E-09-2.06795E-25
 -1       409 2.55284E-08 6.81634E-10 6.72084E-25
 -1       410 2.62384E-08 5.10034E-10 4.65289E-25
 -1       411 2.59752E-08 8.26981E-10-1.80946E-24
 -1       412 2.64434E-08 6.60320E-10-1.03398E-25
 -1       413 2.71069E-08 6.31054E-10 1.34417E-24
 -1       414 2.71525E-08 4.57150E-10-2.17135E-24
 -1       415 2.67340E-08 9.14496E-10-3.92911E-24
 -1       416 2.58794E-08 1.17251E-09-1.91286E-24
 -1       417 2.63195E-08 8.73600E-10-6.72084E-25
 -1       418 2.54575E-08 1.09817E-09-7.75482E-25
 -1       419 1.35727E-08-2.06014E-09 5.16988E-25
 -1       420 2.47914E-08-4.38289E-10 8.27181E-25
 -1       421 6.34491E-09-6.90361E-09 2.06795E-25
 -1       422 2.48573E-08-1.07641E-09-4.65289E-25
 -1       423 1.75511E-08-1.47610E-09 1.29247E-25
 -1       424 2.14629E-08-4.42542E-10-4.65289E-25
 -1       425 2.16585E-08-1.26959E-09 2.06795E-25
 -1       426 1.22002E-08-2.96375E-09 1.03398E-25
 -1       427 1.81475E-08-5.52158E-10-4.65289E-25
 -1       428 2.56830E-08-1.47620E-09 2.32645E-25
 -1       429 2.59575E-08-1.12296E-09-1.08567E-24
 -1       430 2.62730E-08-8.13546E-10-2.84343E-25
 -1       431 1.30366E-08-2.92133E-09-3.87741E-25
 -1       432 1.04243E-08-3.94012E-09 4.13590E-25
 -1       433 7.75763E-09-5.51036E-09-3.61892E-25
 -1       434 2.48333E-08-7.31971E-10 1.03398E-24
 -1       435 2.64889E-08-3.35000E-10 4.13590E-25
 -1       436 2.64031E-08-5.49951E-10-1.62851E-24
 -1       437 2.47990E-08-1.99217E-10 1.31832E-24
 -1       438 2.65574E-08-1.52878E-10 1.80946E-25
 -1       439 4.83020E-09-7.88191E-09-2.06795E-25
 -1       440 2.87317E-09-9.20425E-09 4.91138E-25
 -1       441 2.23247E-09-9.75858E-09-1.03398E-25
 -1       442 1.26244E-08-2.56995E-09-1.29247E-25
 -1       443 1.01595E-08-4.16047E-09 1.55096E-25
 -1       444 8.70392E-09-4.94654E-09 3.87741E-25
 -1       445 8.75395E-09-5.98175E-09 2.32645E-25
 -1       446 1.63859E-08-1.41960E-09 7.52056E-25
 -1       447 1.31702E-08-3.25041E-09-2.84343E-25
 -1       448 1.88579E-08-1.97621E-10-1.55096E-25
 -1       449 1.61002E-08-1.00477E-09 2.71419E-25
 -1       450 1.76330E-08-4.37832E-10 3.55429E-25
 -1       451 4.12051E-09-8.62034E-09 3.61892E-25
 -1       452 2.31052E-08-4.55830E-10 1.55096E-24
 -1       453 2.15443E-08-1.74565E-10-1.16322E-25
 -1       454 2.31100E-08-1.96407E-10-2.84343E-25
 -1       455 2.32823E-08-1.19660E-09-3.87741E-25
 -1       456 2.15136E-08-8.14254E-10-7.23783E-25
 -1       457 2.31819E-08-7.93735E-10-2.58494E-25
 -1       458 1.96642E-08-1.32537E-09 2.58494E-25
 -1       459 2.22524E-08-1.78432E-09-6.20385E-25
 -1       460 1.81117E-08-1.95437E-09 5.16988E-26
 -1       461 2.02520E-08-1.84925E-09 9.56428E-25
 -1       462 1.98087E-08-4.48763E-10 4.39440E-25
 -1       463 2.01119E-08-1.60783E-10-2.97268E-25
 -1       464 1.50172E-08-1.96958E-09-2.32645E-25
 -1       465 1.56902E-08-2.26805E-09 1.03398E-25
 -1       466 1.77099E-08-9.81038E-10 2.32645E-25
 -1       467 1.96502E-08-8.41859E-10 5.16988E-26
 -1       468 1.53558E-08-1.49081E-09-5.16988E-26
 -1       469 2.39990E-08-1.67245E-09 8.27181E-25
 -1       470 2.61495E-08-1.35919E-09 5.42837E-25
 -1       471 2.65287E-08-9.03231E-10 6.46235E-25
 -1       472 1.16290E-08-3.50143E-09-3.10193E-25
 -1       473 8.00342E-09-5.30725E-09 3.61892E-25
 -1       474 2.71795E-08-4.21607E-10-3.10193E-24
 -1       475 2.64553E-08-4.37819E-10-2.48154E-24
 -1       476 2.73396E-08-2.45844E-10-2.63664E-24
 -1       477 2.69701E-08-6.53192E-10-2.74004E-24
 -1       478 2.63400E-08-6.74990E-10-3.46382E-24
 -1       479 2.55690E-08-9.52456E-10-1.03398E-24
 -1       480 2.48425E-08-8.97909E-10 1.08567E-24
 -1       481 2.56216E-08-6.51664E-10-6.72084E-25
 -1       482 2.48205E-08-5.79334E-10 2.84343E-24
 -1       483 2.56384E-08-3.97334E-10 1.34417E-24
 -1       484 2.74505E-08-1.06363E-10 5.16988E-26
 -1       485 2.65439E-08-6.87482E-11 2.22305E-24
 -1       486 2.65377E-08-2.41163E-10 1.55096E-25
 -1       487 2.48128E-08-3.14424E-10 4.49779E-24
 -1       488 2.56709E-08-1.82663E-10 8.27181E-25
 -1       489 2.47427E-08-9.11047E-11 1.18907E-24
 -1       490 5.46898E-09-7.42796E-09 3.10193E-25
 -1       491 3.49301E-09-8.91338E-09-6.20385E-25
 -1       492 2.52194E-09-9.47996E-09 5.16988E-25
 -1       493 4.55363E-09-8.16454E-09 9.30578E-25
 -1       494 4.17732E-09-8.28493E-09 1.65436E-24
 -1       495 1.90360E-09-1.00330E-08-1.86116E-24
 -1       496 1.07302E-09-1.03175E-08 1.03398E-25
 -1       497 1.35955E-09-9.87862E-09 9.30578E-25
 -1       498 1.30175E-08-2.32792E-09 7.23783E-25
 -1       499 1.07003E-08-3.63722E-09 5.68687E-25
 -1       500 9.31283E-09-4.57686E-09 1.03398E-24
 -1       501 1.19364E-08-2.99415E-09 9.82277E-25
 -1       502 1.23594E-08-2.77933E-09-6.72084E-25
 -1       503 1.00125E-08-4.10821E-09 2.06795E-25
 -1       504 8.21279E-09-5.25642E-09 3.10193E-25
 -1       505 5.49032E-09-7.07067E-09 1.55096E-24
 -1       506 6.70615E-09-6.41565E-09 0.00000E+00
 -1       507 8.25489E-09-5.50049E-09 1.13737E-24
 -1       508 7.33645E-09-6.43628E-09 1.13737E-24
 -1       509 1.10730E-08-4.57936E-09-2.06795E-25
 -1       510 1.14622E-08-3.66339E-09-1.13737E-24
 -1       511 1.06986E-08-5.62857E-09 6.20385E-25
 -1       512 1.51619E-08-3.02519E-09 1.58974E-24
 -1       513 1.77012E-08-1.03637E-09-2.32645E-25
 -1       514 1.49558E-08-2.24220E-09 6.07461E-25
 -1       515 1.48186E-08-1.67383E-09 2.11965E-24
 -1       516 1.82942E-08-2.19123E-10 1.40556E-24
 -1       517 1.70103E-08-7.43584E-10 2.83051E-24
 -1       518 1.90722E-08-8.48066E-11 1.00813E-24
 -1       519 1.82423E-08-2.78174E-10-7.75482E-26
 -1       520 1.85221E-08-3.52290E-10-1.24077E-24
 -1       521 1.71727E-08-7.22633E-10-1.55096E-24
 -1       522 1.68539E-08-7.04117E-10 1.05983E-24
 -1       523 1.49266E-08-1.43922E-09 1.08567E-24
 -1       524 6.41412E-09-7.40451E-09 7.23783E-25
 -1       525 5.25787E-09-8.26021E-09 0.00000E+00
 -1       526 3.36391E-09-8.93342E-09 9.30578E-25
 -1       527 1.94713E-09-9.45473E-09 1.75776E-24
 -1       528 2.39432E-08-4.53509E-10 4.08420E-24
 -1       529 2.31278E-08-3.18428E-10 2.68834E-24
 -1       530 2.39410E-08-2.01623E-10 1.96455E-24
 -1       531 2.22788E-08-4.50298E-10 8.27181E-25
 -1       532 2.15264E-08-2.96454E-10-1.18907E-24
 -1       533 2.23095E-08-1.86298E-10-1.49926E-24
 -1       534 2.14943E-08-7.46029E-11 1.03398E-25
 -1       535 2.30394E-08-8.77384E-11-1.03398E-24
 -1       536 2.31476E-08-6.16144E-10 2.11965E-24
 -1       537 2.23511E-08-8.06022E-10-1.91286E-24
 -1       538 2.14847E-08-6.16492E-10-8.27181E-25
 -1       539 2.40094E-08-7.71009E-10 1.34417E-24
 -1       540 2.40750E-08-1.14517E-09-9.30578E-25
 -1       541 2.32230E-08-9.87752E-10-1.18907E-24
 -1       542 2.24776E-08-1.23641E-09-1.08567E-24
 -1       543 2.15674E-08-1.03276E-09-1.39587E-24
 -1       544 1.86251E-08-1.38091E-09 8.27181E-25
 -1       545 1.99164E-08-1.58152E-09 2.32645E-24
 -1       546 1.92012E-08-1.89018E-09 1.91286E-24
 -1       547 1.77812E-08-1.70768E-09 1.13737E-24
 -1       548 2.06736E-08-1.29273E-09 1.80946E-24
 -1       549 2.19241E-08-1.52345E-09-1.39587E-24
 -1       550 2.12674E-08-1.81800E-09 1.55096E-25
 -1       551 2.26439E-08-2.04555E-09 1.55096E-24
 -1       552 2.06739E-08-2.12283E-09-1.55096E-25
 -1       553 1.85483E-08-2.21498E-09-2.06795E-25
 -1       554 2.01496E-08-6.55476E-11-1.49926E-24
 -1       555 1.94618E-08-1.68096E-10-8.78879E-25
 -1       556 2.08068E-08-1.64501E-10-5.68687E-25
 -1       557 2.06335E-08-4.39178E-10 5.16988E-26
 -1       558 1.99854E-08-2.87756E-10 6.72084E-25
 -1       559 1.89851E-08-4.81009E-10 3.61892E-25
 -1       560 1.61819E-08-2.45261E-09 1.96455E-24
 -1       561 1.69278E-08-2.07977E-09 9.30578E-25
 -1       562 1.35854E-08-2.96286E-09 4.13590E-25
 -1       563 1.43922E-08-2.54170E-09-4.13590E-25
 -1       564 1.25822E-08-2.92324E-09-4.13590E-25
 -1       565 1.36437E-08-2.39101E-09-3.10193E-25
 -1       566 1.53040E-08-2.10886E-09-2.06795E-25
 -1       567 1.63168E-08-1.67459E-09-6.72084E-25
 -1       568 1.96281E-08-1.07340E-09 1.44757E-24
 -1       569 2.05884E-08-8.20896E-10-1.39587E-24
 -1       570 1.75892E-08-1.22092E-09 3.10193E-25
 -1       571 1.86938E-08-8.89519E-10 4.65289E-25
 -1       572 1.79007E-08-7.56244E-10 5.16988E-26
 -1       573 1.97168E-08-6.32069E-10 1.39587E-24
 -1       574 1.40398E-08-1.94144E-09 1.03398E-25
 -1       575 1.51353E-08-1.73186E-09-9.30578E-25
 -1       576 1.56755E-08-1.24523E-09 8.78879E-25
 -1       577 1.65712E-08-1.18328E-09 1.03398E-25
 -1       578 2.44286E-08-1.90742E-09-8.27181E-25
 -1       579 2.48479E-08-1.58708E-09 8.27181E-25
 -1       580 2.61544E-08-1.67951E-09 2.58494E-24
 -1       581 2.31353E-08-1.73672E-09 1.08567E-24
 -1       582 2.36160E-08-1.43383E-09 1.80946E-24
 -1       583 2.52507E-08-1.27640E-09-1.13737E-24
 -1       584 2.64932E-08-1.42178E-09 0.00000E+00
 -1       585 2.60484E-08-1.23741E-09-9.30578E-25
 -1       586 2.65154E-08-1.11717E-09-3.25702E-24
 -1       587 2.59169E-08-1.41797E-09 1.03398E-24
 -1       588 2.54059E-08-1.10874E-09-2.11965E-24
 -1       589 2.63993E-08-8.58370E-10 3.10193E-25
 -1       590 2.62432E-08-1.01273E-09-8.78879E-25
 -1       591 2.69438E-08-8.32799E-10 1.55096E-25
 -1       592 1.23437E-08-3.19673E-09-8.27181E-25
 -1       593 1.10198E-08-3.70160E-09 2.06795E-25
 -1       594 1.13093E-08-3.44979E-09 7.23783E-25
 -1       595 1.15351E-08-3.63705E-09-1.55096E-24
 -1       596 9.51718E-09-4.45511E-09 1.86116E-24
 -1       597 6.89946E-09-5.99385E-09 2.37814E-24
 -1       598 9.22796E-09-4.58424E-09 1.24077E-24
 -1       599 7.88551E-09-5.40786E-09-1.03398E-25
 -1       600-1.76330E-08 1.12631E-09-2.32645E-25
 -1       601-2.11167E-08 1.34267E-09-7.75482E-26
 -1       602-2.53735E-08 8.79232E-10 7.49632E-25
 -1       603-5.88463E-09 7.13766E-09 2.58494E-25
 -1       604-2.41419E-08 5.60336E-10 5.68687E-25
 -1       605-2.13701E-08 4.26987E-10-5.16988E-26
 -1       606-2.42128E-08 1.42181E-09-5.16988E-26
 -1       607-1.63445E-08 8.81820E-10-1.29247E-25
 -1       608-1.18973E-08 2.97288E-09-1.80946E-25
 -1       609-1.85911E-08 4.14287E-10-8.78879E-25
 -1       610-2.61812E-08 4.05743E-10 4.65289E-25
 -1       611-2.45210E-08 2.51916E-10-4.91138E-25
 -1       612-2.64237E-08 1.83936E-10-8.01331E-25
 -1       613-1.40404E-08 1.83778E-09 5.68687E-25
 -1       614-9.00568E-09 4.76372E-09-7.75482E-25
 -1       615-8.05612E-09 6.06454E-09 7.75482E-26
 -1       616-1.45463E-08 2.11261E-09 9.11191E-25
 -1       617-1.13381E-08 3.42480E-09-2.06795E-25
 -1       618-2.27011E-08 9.04854E-10 1.65436E-24
 -1       619-2.47481E-08 7.27713E-10 1.57681E-24
 -1       620-2.47901E-08 1.13700E-09 2.58494E-25
 -1       621-2.26757E-08 1.40787E-09 3.36042E-25
 -1       622-2.37299E-08 1.04193E-09-1.18907E-24
 -1       623-2.83677E-09 9.26414E-09-1.29247E-25
 -1       624-3.97623E-09 8.66186E-09 6.72084E-25
 -1       625-2.15041E-08 1.73064E-10 8.65955E-25
 -1       626-2.27199E-08 5.02756E-10 8.53030E-25
 -1       627-2.29486E-08 2.18157E-10-2.06795E-25
 -1       628-1.49714E-08 1.69966E-09 2.06795E-25
 -1       629-1.74832E-08 5.56937E-10-2.58494E-26
 -1       630-1.80668E-08 7.37721E-10-4.13590E-25
 -1       631-1.61912E-08 1.07662E-09-6.20385E-25
 -1       632-2.36016E-08 1.84721E-09-6.97934E-25
 -1       633-2.56597E-08 1.31092E-09 5.16988E-26
 -1       634-2.52449E-08 1.71259E-09-6.72084E-25
 -1       635-4.69508E-09 7.96767E-09-1.29247E-25
 -1       636-2.22433E-09 9.79620E-09-2.84343E-25
 -1       637-2.00202E-08 1.87057E-09-1.11152E-24
 -1       638-2.18540E-08 1.87727E-09 4.91138E-25
 -1       639-1.58038E-08 1.99832E-09-5.68687E-25
 -1       640-1.01751E-08 4.02960E-09 3.10193E-25
 -1       641-1.31024E-08 2.71226E-09-5.42837E-25
 -1       642-1.93358E-08 1.18964E-09-3.10193E-25
 -1       643-1.79497E-08 1.85517E-09-1.03398E-25
 -1       644-1.96657E-08 6.84652E-10-5.16988E-26
 -1       645-2.11437E-08 7.87692E-10-1.65436E-24
 -1       646-7.40850E-09 5.82265E-09-3.87741E-25
 -1       647-2.02659E-08 1.43496E-10 2.58494E-25
 -1       648-2.00201E-08 3.64958E-10 6.20385E-25
 -1       649-1.83052E-08 2.51017E-10 9.04729E-26
 -1       650-1.74901E-08 7.22663E-10-7.58518E-25
 -1       651-2.65272E-08 7.16586E-10-1.83531E-24
 -1       652-2.60854E-08 9.94915E-10-6.46235E-25
 -1       653-2.63638E-08 5.55807E-10 3.61892E-25
 -1       654-1.91947E-08 1.55420E-10-4.26515E-25
 -1       655-2.73885E-08 1.24712E-10-2.63664E-24
 -1       656-2.64855E-08 8.61193E-11 6.20385E-25
 -1       657-2.71934E-08 2.85963E-10-5.68687E-25
 -1       658-2.63200E-08 2.89710E-10-5.16988E-26
 -1       659-2.51637E-08 4.95336E-10 1.91286E-24
 -1       660-2.43576E-08 3.97676E-10-5.16988E-25
 -1       661-2.54647E-08 2.25434E-10-2.32645E-24
 -1       662-2.46200E-08 1.19302E-10-1.70606E-24
 -1       663-1.52061E-08 1.31693E-09 1.13737E-24
 -1       664-1.27575E-08 2.49963E-09-1.03398E-25
 -1       665-1.28909E-08 2.76416E-09 9.82277E-25
 -1       666-1.54749E-08 1.33584E-09 1.52511E-24
 -1       667-1.29306E-08 2.39821E-09 3.10193E-25
 -1       668-1.04904E-08 3.77947E-09-2.01625E-24
 -1       669-1.00558E-08 4.10978E-09-1.49926E-24
 -1       670-7.45499E-09 5.91310E-09-7.23783E-25
 -1       671-6.75117E-09 6.62467E-09 3.10193E-25
 -1       672-9.80558E-09 4.64908E-09-3.61892E-25
 -1       673-1.01568E-08 5.64675E-09-2.06795E-25
 -1       674-1.36920E-08 3.51300E-09 2.09380E-24
 -1       675-2.19218E-08 1.11033E-09 2.27475E-24
 -1       676-2.32093E-08 9.77387E-10 7.23783E-25
 -1       677-2.32040E-08 1.21838E-09-2.58494E-25
 -1       678-2.18977E-08 1.37900E-09 1.03398E-25
 -1       679-2.34428E-08 7.23184E-10 3.36042E-24
 -1       680-2.44425E-08 6.45197E-10 3.72231E-24
 -1       681-2.42454E-08 8.78704E-10 1.55096E-25
 -1       682-2.50578E-08 8.06323E-10 3.41212E-24
 -1       683-2.50820E-08 1.00470E-09 1.60266E-24
 -1       684-2.42566E-08 1.09622E-09-7.75482E-25
 -1       685-2.44994E-08 1.27611E-09 4.13590E-25
 -1       686-2.34471E-08 1.42410E-09-2.58494E-25
 -1       687-6.01013E-09 7.46142E-09 8.27181E-25
 -1       688-5.10169E-09 8.28892E-09-1.44757E-24
 -1       689-4.34116E-09 8.28491E-09 6.20385E-25
 -1       690-3.27490E-09 8.97850E-09 6.20385E-25
 -1       691-1.39083E-09 9.91370E-09-6.20385E-25
 -1       692-1.94295E-09 9.48273E-09 8.27181E-25
 -1       693-2.14610E-08 2.87842E-10 1.80946E-24
 -1       694-2.22080E-08 1.95464E-10 4.13590E-25
 -1       695-2.28603E-08 3.50788E-10 8.27181E-25
 -1       696-2.20345E-08 4.65049E-10 1.24077E-24
 -1       697-2.14782E-08 7.71139E-11 2.11965E-24
 -1       698-2.29706E-08 1.01624E-10-5.68687E-25
 -1       699-2.37213E-08 2.38204E-10-5.68687E-25
 -1       700-2.34235E-08 5.36003E-10 2.37814E-24
 -1       701-1.63468E-08 1.34660E-09-1.55096E-25
 -1       702-1.55610E-08 1.38138E-09-3.61892E-25
 -1       703-1.71536E-08 8.69894E-10-1.91286E-24
 -1       704-1.78330E-08 9.25772E-10-8.78879E-25
 -1       705-1.34923E-08 2.22818E-09-6.72084E-25
 -1       706-1.51625E-08 1.38766E-09-2.06795E-25
 -1       707-1.69224E-08 6.88340E-10-3.87741E-25
 -1       708-1.68413E-08 8.00724E-10-1.08567E-24
 -1       709-1.80388E-08 4.70149E-10-1.44757E-24
 -1       710-1.83248E-08 5.66308E-10-2.22305E-24
 -1       711-2.33323E-08 2.07317E-09 1.44757E-24
 -1       712-2.44299E-08 1.79100E-09-2.06795E-24
 -1       713-2.50619E-08 1.92352E-09-1.34417E-24
 -1       714-2.38973E-08 1.62928E-09-1.49926E-24
 -1       715-2.49398E-08 1.37750E-09-5.16988E-25
 -1       716-2.54446E-08 1.50748E-09-1.49926E-24
 -1       717-2.63744E-08 1.22001E-09 9.30578E-25
 -1       718-2.60507E-08 1.61115E-09-6.72084E-25
 -1       719-1.88905E-09 1.00523E-08 1.96455E-24
 -1       720-3.42907E-09 8.96929E-09-4.13590E-25
 -1       721-4.08800E-09 8.32259E-09-4.13590E-25
 -1       722-1.08798E-09 1.03433E-08-1.13737E-24
 -1       723-2.51761E-09 9.53118E-09-1.44757E-24
 -1       724-5.25771E-09 7.57729E-09 2.06795E-25
 -1       725-2.27375E-08 1.87028E-09 1.55096E-25
 -1       726-2.22523E-08 1.63507E-09 1.18907E-24
 -1       727-2.14937E-08 2.13259E-09 2.06795E-24
 -1       728-1.95281E-08 2.16826E-09-4.23930E-24
 -1       729-2.09485E-08 1.87433E-09-5.68687E-25
 -1       730-2.05565E-08 1.59498E-09-1.80946E-24
 -1       731-1.40079E-08 2.19689E-09-8.27181E-25
 -1       732-1.16616E-08 3.28645E-09 0.00000E+00
 -1       733-1.09987E-08 3.51736E-09 1.55096E-25
 -1       734-1.67034E-08 1.53622E-09-1.13737E-24
 -1       735-1.44825E-08 2.29241E-09-1.70606E-24
 -1       736-1.49724E-08 2.50014E-09-2.68834E-24
 -1       737-1.22582E-08 3.23657E-09 1.86116E-24
 -1       738-9.38210E-09 4.51429E-09-4.13590E-25
 -1       739-1.89950E-08 1.85103E-09-1.86116E-24
 -1       740-1.86301E-08 1.50391E-09-1.80946E-24
 -1       741-2.02189E-08 1.26149E-09-1.03398E-24
 -1       742-1.73270E-08 2.24106E-09-1.08567E-24
 -1       743-1.68853E-08 1.89755E-09-3.61892E-25
 -1       744-1.84732E-08 1.14129E-09-1.29247E-24
 -1       745-2.19145E-08 8.48264E-10-1.55096E-25
 -1       746-2.19618E-08 6.34637E-10-1.65436E-24
 -1       747-2.02673E-08 9.70449E-10-3.15363E-24
 -1       748-1.86903E-08 8.76083E-10-7.75482E-25
 -1       749-2.03929E-08 7.31347E-10-2.53324E-24
 -1       750-2.05563E-08 5.40699E-10-1.03398E-24
 -1       751-6.63883E-09 6.27104E-09 3.10193E-25
 -1       752-8.79508E-09 4.85901E-09-2.06795E-25
 -1       753-6.03643E-09 6.88361E-09-6.20385E-25
 -1       754-8.16768E-09 5.32582E-09-1.86116E-24
 -1       755-2.08131E-08 2.57318E-10 1.80946E-24
 -1       756-2.01687E-08 2.41290E-10 1.96455E-24
 -1       757-2.08717E-08 6.66206E-11 3.10193E-25
 -1       758-1.98461E-08 5.12654E-10 7.23783E-25
 -1       759-1.91069E-08 5.17294E-10 5.16988E-26
 -1       760-1.95193E-08 2.46658E-10-7.75482E-25
 -1       761-1.88415E-08 1.00023E-10 1.16322E-24
 -1       762-1.78700E-08 3.96198E-10-1.22785E-24
 -1       763-1.82703E-08 2.89055E-10 9.17653E-25
 -1       764-1.74549E-08 5.04916E-10 0.00000E+00
 -1       765-1.62242E-08 1.30882E-09 1.30539E-24
 -1       766-1.71230E-08 1.35676E-09-1.60266E-24
 -1       767-2.54399E-08 1.07609E-09-8.27181E-25
 -1       768-2.58690E-08 1.14883E-09-1.49926E-24
 -1       769-2.59519E-08 8.05970E-10-2.11965E-24
 -1       770-2.63059E-08 8.50825E-10-3.82571E-24
 -1       771-2.70999E-08 6.06892E-10-5.58347E-24
 -1       772-2.67276E-08 8.89797E-10-3.92911E-24
 -1       773-2.62767E-08 4.80223E-10 1.44757E-24
 -1       774-2.55587E-08 6.53224E-10 2.99853E-24
 -1       775-2.71642E-08 4.29591E-10-2.22305E-24
 -1       776-2.64465E-08 6.34625E-10-2.22305E-24
 -1       777-1.97082E-08 1.43231E-10-5.16988E-25
 -1       778-1.97168E-08 6.33624E-11-8.53030E-25
 -1       779-1.84543E-08 3.08090E-10-1.00813E-24
 -1       780-1.87257E-08 1.86145E-10-5.16988E-26
 -1       781-1.64814E-08-8.39513E-10 1.29247E-25
 -1       782-1.98839E-08-4.49160E-10 1.03398E-25
 -1       783-6.00798E-09-7.04347E-09-2.58494E-26
 -1       784-1.69522E-08-1.48615E-09-3.10193E-25
 -1       785-2.41930E-08-1.43576E-09 4.65289E-25
 -1       786-2.39491E-08-5.83980E-10 9.82277E-25
 -1       787-2.09434E-08-1.39970E-09-2.32645E-25
 -1       788-1.20435E-08-2.92635E-09 6.97934E-25
 -1       789-2.53488E-08-8.97789E-10 3.61892E-25
 -1       790-2.18508E-08-5.15487E-10-2.84343E-25
 -1       791-1.85033E-08-8.76268E-10 7.23783E-25
 -1       792-1.89796E-08-1.38186E-09 6.72084E-25
 -1       793-2.25170E-08-9.40407E-10 3.10193E-25
 -1       794-2.05034E-08-8.76689E-10 1.18907E-24
 -1       795-2.90653E-09-9.22865E-09-6.20385E-25
 -1       796-4.75578E-09-7.92454E-09-1.03398E-25
 -1       797-2.25908E-09-9.78075E-09-3.10193E-25
 -1       798-9.15125E-09-4.66192E-09-3.36042E-25
 -1       799-1.42070E-08-1.78366E-09-3.87741E-25
 -1       800-1.45720E-08-1.98329E-09-2.52032E-25
 -1       801-8.10609E-09-6.00672E-09-5.16988E-25
 -1       802-1.14539E-08-3.31522E-09 7.75482E-26
 -1       803-2.44314E-08-2.69664E-10-3.36042E-25
 -1       804-2.60867E-08-4.31525E-10-7.75482E-25
 -1       805-2.63783E-08-2.03440E-10-3.87741E-25
 -1       806-1.83438E-08-2.54059E-10 3.55429E-25
 -1       807-1.74805E-08-7.00355E-10-1.60751E-25
 -1       808-2.08644E-08-1.81238E-10 3.23117E-25
 -1       809-2.25538E-08-2.30753E-10 3.61892E-25
 -1       810-4.01789E-09-8.64035E-09 3.10193E-25
 -1       811-2.25857E-08-1.44272E-09 9.56428E-25
 -1       812-2.47681E-08-1.15340E-09-1.00813E-24
 -1       813-2.46365E-08-7.51465E-10-9.30578E-25
 -1       814-2.36281E-08-1.06986E-09 1.24077E-24
 -1       815-1.99407E-08-1.90980E-09-7.75482E-26
 -1       816-2.35963E-08-1.86150E-09-5.16988E-26
 -1       817-2.18153E-08-1.90291E-09-4.65289E-25
 -1       818-2.65176E-08-7.36136E-10 2.01625E-24
 -1       819-2.63107E-08-5.80288E-10 4.13590E-25
 -1       820-1.02801E-08-3.98884E-09 4.13590E-25
 -1       821-7.49217E-09-5.76417E-09-3.87741E-25
 -1       822-1.55141E-08-2.21454E-09-8.53030E-25
 -1       823-1.77985E-08-1.97516E-09 9.82277E-25
 -1       824-1.46066E-08-1.94070E-09 1.29247E-25
 -1       825-1.29717E-08-2.83503E-09 9.56428E-25
 -1       826-2.56540E-08-1.32815E-09-1.88701E-24
 -1       827-2.52471E-08-1.72949E-09-8.78879E-25
 -1       828-2.60778E-08-1.01340E-09-4.65289E-25
 -1       829-1.81670E-08-5.11364E-10-2.06795E-25
 -1       830-1.94726E-08-1.70010E-10-7.23783E-25
 -1       831-1.64493E-08-1.11371E-09 4.39440E-25
 -1       832-2.28859E-08-5.55869E-10 1.18907E-24
 -1       833-2.12075E-08-6.80375E-10 1.91286E-24
 -1       834-2.15084E-08-9.08367E-10 2.58494E-24
 -1       835-2.32551E-08-7.51740E-10 1.18907E-24
 -1       836-2.08487E-08-4.75077E-10-7.23783E-25
 -1       837-1.92283E-08-6.39454E-10 1.70606E-24
 -1       838-1.95036E-08-8.60179E-10 2.89513E-24
 -1       839-1.77369E-08-1.15952E-09 9.30578E-25
 -1       840-1.79755E-08-1.41059E-09 1.65436E-24
 -1       841-1.97554E-08-1.10979E-09 2.42984E-24
 -1       842-1.99688E-08-1.38316E-09 4.65289E-25
 -1       843-2.17419E-08-1.15550E-09 2.17135E-24
 -1       844-4.43890E-09-8.21832E-09-1.24077E-24
 -1       845-2.56833E-09-9.50685E-09-1.13737E-24
 -1       846-3.47638E-09-8.93974E-09-8.27181E-25
 -1       847-5.34963E-09-7.51027E-09-3.10193E-25
 -1       848-1.42995E-09-9.90307E-09-1.34417E-24
 -1       849-1.11092E-09-1.03378E-08 5.16988E-25
 -1       850-1.91033E-09-1.00440E-08 0.00000E+00
 -1       851-4.12099E-09-8.30185E-09-1.96455E-24
 -1       852-7.59520E-09-5.80632E-09-6.20385E-25
 -1       853-1.01938E-08-4.00568E-09-1.55096E-25
 -1       854-9.89294E-09-4.54468E-09-1.80946E-24
 -1       855-6.84411E-09-6.54912E-09-6.20385E-25
 -1       856-1.06366E-08-3.70037E-09 4.13590E-25
 -1       857-1.30948E-08-2.34425E-09 1.18907E-24
 -1       858-1.28974E-08-2.41243E-09-3.10193E-25
 -1       859-1.53634E-08-1.26466E-09-4.13590E-25
 -1       860-1.55530E-08-1.24963E-09 1.29247E-25
 -1       861-1.29683E-08-2.64799E-09-2.58494E-25
 -1       862-1.36751E-08-3.37891E-09-6.20385E-25
 -1       863-1.01753E-08-5.61538E-09-4.13590E-25
 -1       864-2.45764E-08-1.35095E-10-1.39587E-24
 -1       865-2.53966E-08-2.44319E-10-1.75776E-24
 -1       866-2.64632E-08-1.03626E-10 2.63664E-24
 -1       867-2.42177E-08-4.17835E-10 5.16988E-25
 -1       868-2.50202E-08-5.20761E-10-2.06795E-25
 -1       869-2.62505E-08-3.11946E-10-1.86116E-24
 -1       870-2.71478E-08-3.09815E-10-1.08567E-24
 -1       871-2.73664E-08-1.44086E-10 1.39587E-24
 -1       872-1.62162E-08-1.24077E-09-1.05983E-24
 -1       873-1.71129E-08-1.32493E-09-1.86116E-24
 -1       874-1.75223E-08-4.95051E-10 3.10193E-25
 -1       875-1.78772E-08-3.88438E-10 1.02105E-24
 -1       876-1.88657E-08-1.06240E-10 2.84343E-25
 -1       877-1.82687E-08-2.89808E-10 3.11485E-24
 -1       878-2.34724E-08-2.54313E-10 7.23783E-25
 -1       879-2.22394E-08-3.62033E-10-3.10193E-25
 -1       880-2.27798E-08-1.15123E-10 6.20385E-25
 -1       881-2.11762E-08-8.80899E-11 6.20385E-25
 -1       882-2.16810E-08-2.04817E-10 7.75482E-25
 -1       883-2.04285E-08-2.98491E-10 1.08567E-24
 -1       884-5.12354E-09-8.27816E-09 1.44757E-24
 -1       885-6.05847E-09-7.42039E-09-2.06795E-25
 -1       886-1.96927E-09-9.47499E-09 1.13737E-24
 -1       887-3.33166E-09-8.94840E-09-4.13590E-25
 -1       888-2.30665E-08-1.00948E-09 2.53324E-24
 -1       889-2.41387E-08-9.04231E-10 7.23783E-25
 -1       890-2.42893E-08-6.69331E-10 2.58494E-25
 -1       891-2.17682E-08-1.42440E-09 1.18907E-24
 -1       892-2.31076E-08-1.24954E-09 2.68834E-24
 -1       893-2.33935E-08-1.44865E-09 2.68834E-24
 -1       894-2.44786E-08-1.29134E-09-7.23783E-25
 -1       895-2.41951E-08-1.11906E-09 1.03398E-25
 -1       896-2.50586E-08-1.02225E-09-1.03398E-24
 -1       897-2.49892E-08-8.28383E-10-9.30578E-25
 -1       898-2.21877E-08-1.66573E-09 2.58494E-25
 -1       899-2.27162E-08-1.89018E-09-1.29247E-24
 -1       900-2.38845E-08-1.64332E-09 8.78879E-25
 -1       901-2.04291E-08-1.64431E-09-7.75482E-25
 -1       902-2.08906E-08-1.90627E-09-6.72084E-25
 -1       903-1.94953E-08-2.19465E-09-6.20385E-25
 -1       904-2.14805E-08-2.15228E-09-4.65289E-25
 -1       905-2.33349E-08-2.08774E-09-2.48154E-24
 -1       906-2.71399E-08-4.52302E-10-4.13590E-25
 -1       907-2.64150E-08-6.57148E-10 3.82571E-24
 -1       908-2.70978E-08-6.26257E-10-1.08567E-24
 -1       909-2.62026E-08-5.05746E-10-1.49926E-24
 -1       910-2.54766E-08-6.77821E-10-4.65289E-25
 -1       911-2.59348E-08-8.25156E-10 3.36042E-24
 -1       912-6.10898E-09-6.82921E-09-7.23783E-25
 -1       913-8.28822E-09-5.24246E-09-1.44757E-24
 -1       914-6.68352E-09-6.24227E-09 1.03398E-25
 -1       915-9.44436E-09-4.49347E-09 1.03398E-25
 -1       916-8.88899E-09-4.80573E-09 6.20385E-25
 -1       917-1.11356E-08-3.46643E-09 1.65436E-24
 -1       918-1.83755E-08-1.66496E-09 2.27475E-24
 -1       919-1.88865E-08-1.92913E-09 1.08567E-24
 -1       920-1.62189E-08-1.83533E-09-1.86116E-24
 -1       921-1.66741E-08-2.06368E-09 2.06795E-25
 -1       922-1.48549E-08-2.61949E-09-2.06795E-25
 -1       923-1.72686E-08-2.31039E-09 6.20385E-25
 -1       924-1.16410E-08-3.33653E-09 2.27475E-24
 -1       925-1.37705E-08-2.38007E-09 1.60266E-24
 -1       926-1.33582E-08-2.35337E-09 1.75776E-24
 -1       927-1.22106E-08-3.30092E-09 8.27181E-25
 -1       928-1.42632E-08-2.46853E-09 3.10193E-25
 -1       929-1.58025E-08-1.66131E-09 1.55096E-25
 -1       930-2.50684E-08-1.94036E-09 7.75482E-25
 -1       931-2.44285E-08-1.80671E-09-3.61892E-25
 -1       932-2.60566E-08-1.62900E-09-4.13590E-25
 -1       933-2.63755E-08-1.23818E-09-2.48154E-24
 -1       934-2.54428E-08-1.52451E-09-4.54949E-24
 -1       935-2.49271E-08-1.39330E-09-1.60266E-24
 -1       936-2.54251E-08-1.09373E-09-2.32645E-24
 -1       937-2.62973E-08-8.69875E-10 2.42984E-24
 -1       938-2.58624E-08-1.16671E-09-4.13590E-24
 -1       939-2.67272E-08-9.08664E-10-3.92911E-24
 -1       940-1.98598E-08-7.62058E-11-1.91286E-24
 -1       941-2.01373E-08-1.69172E-10-3.10193E-25
 -1       942-1.88708E-08-1.91874E-10-1.21492E-24
 -1       943-1.73279E-08-6.25355E-10-3.61892E-25
 -1       944-1.88995E-08-3.09702E-10-7.75482E-25
 -1       945-1.90170E-08-4.59505E-10-5.16988E-26
 -1       946-1.55265E-08-1.50495E-09 4.65289E-25
 -1       947-1.53660E-08-1.37530E-09 1.55096E-25
 -1       948-1.74909E-08-9.57083E-10 1.96455E-24
 -1       949-1.73451E-08-7.80265E-10 1.03398E-25
 -3
    1PSTEP                         2           1           1          
  100CL  101 1.000000000         948                     0    1           1
 -4  STRESS      6    1
 -5  SXX         1    4    1    1
 -5  SYY         1    4    2    2
 -5  SZZ         1    4    3    3
 -5  SXY         1    4    1    2
 -5  SYZ         1    4    2    3
 -5  SZX         1    4    3    1
 -1         1 9.92224E+02-5.16216E+00-6.74402E+00-2.36994E+00 1.19932E-13 9.64950E-13
 -1         2 9.97370E+02-5.92162E+00-5.12119E+00 6.05149E+00 7.73298E-13-6.53554E-13
 -1         3 9.92189E+02-5.21244E+00-6.76903E+00-2.37504E+00-2.87881E-13-1.41766E-12
 -1         4 9.92219E+02-5.16596E+00-6.74715E+00 2.37266E+00-1.16543E-12 1.60878E-12
 -1         5 4.08025E+03 6.25987E+01 3.42670E+02-4.20814E+00 1.97176E-13 3.13916E-14
 -1         7-1.70342E+02-1.45477E+03-2.47155E+02 7.79093E+01 5.99520E-13-4.19220E-13
 -1         8 4.10270E+03 6.45305E+01 3.49766E+02 2.17114E-01 3.42837E-13 2.36602E-13
 -1         9-6.11712E+01-1.57732E+03-2.54122E+02 1.73785E-01 1.51379E-13-7.58504E-13
 -1        10 6.82367E+02-4.14592E+01-1.35516E+02 5.22918E-01-2.18936E-13-4.24660E-13
 -1        11 1.00969E+03 2.71650E+02 1.99715E+01 8.13323E-02 1.92589E-13 4.06675E-13
 -1        12 6.87762E+02-3.88433E+01-1.33376E+02-7.13937E-02-4.00568E-13-4.31358E-13
 -1        13 1.01039E+03 2.72622E+02 2.03840E+01 1.58093E-03 1.74977E-14 3.72480E-13
 -1        14 9.94749E+02-7.61373E+00-8.72703E+00-2.66752E+00 4.74065E-13 6.09679E-13
 -1        15 9.96325E+02 1.11672E+01-8.64041E+00 6.27911E-01-6.93889E-14 2.26930E-13
 -1        16 9.97659E+02 5.65485E+01-4.35987E+00 1.87629E+00-1.33960E-12-2.19341E-12
 -1        17 1.00030E+03 1.16068E+02 2.39156E+00 1.76490E+00 1.69598E-12 9.56478E-13
 -1        18 1.00268E+03 1.77086E+02 9.31619E+00 2.23335E+00-4.42757E-13-9.30478E-13
 -1        19 1.00493E+03 2.24626E+02 1.38516E+01 1.46284E+00-1.30118E-13 6.02851E-13
 -1        20 1.00941E+03 2.60357E+02 1.88627E+01 6.71735E-01-1.40110E-13 1.32028E-12
 -1        21 9.98875E+02-3.27154E+00-4.80584E+00-2.53537E+00 1.27642E-12-4.99378E-13
 -1        22 9.95991E+02 5.91325E-01-8.39908E+00-3.80337E-02 1.26299E-12 1.41875E-12
 -1        23 9.97509E+02 3.38799E+01-5.99051E+00 1.30934E+00-3.41727E-12-4.84002E-13
 -1        24 9.99581E+02 8.64543E+01-6.52226E-01 1.42515E+00 3.24185E-12-3.57984E-13
 -1        25 1.00132E+03 1.46365E+02 5.67478E+00 1.53475E+00-1.96643E-12 2.29050E-12
 -1        26 1.00430E+03 2.01451E+02 1.16192E+01 2.01984E+00 1.18350E-12-1.41176E-12
 -1        27 1.00678E+03 2.42900E+02 1.58548E+01 6.70860E-01-1.31539E-12-7.83817E-13
 -1        28 1.00794E+03 2.65604E+02 1.82095E+01 1.05827E-01-6.95555E-13-1.24700E-12
 -1        29 9.94420E+02-3.79816E+00-9.34406E+00 4.95137E+00-9.82547E-15 5.18918E-13
 -1        30 1.03675E+03-4.77008E+00-8.73228E+00 1.46761E+00-3.43781E-13-2.01839E-13
 -1        31 1.12307E+03-3.64511E+00-2.66507E+00-2.28677E-01-5.37875E-13-7.90479E-13
 -1        32 1.24106E+03-6.78337E-01 6.82347E+00-1.74090E+00 3.92747E-13-1.21858E-12
 -1        33 1.38239E+03 3.84671E+00 1.96149E+01-3.71775E+00-1.33893E-13-4.44089E-14
 -1        34 1.52732E+03 7.21965E+00 3.35461E+01-4.61315E+00 3.77365E-13 4.70290E-13
 -1        35 1.65794E+03 2.40300E+01 5.38263E+01 1.92464E-01-7.00440E-13 1.37668E-14
 -1        36 1.66742E+03 6.28260E+00 4.57933E+01 6.23484E+00 9.48130E-14 1.99563E-13
 -1        37 1.52055E+03-1.80706E+00 1.77147E+01-8.10344E+00 2.41640E-13-8.70415E-14
 -1        38 1.26991E+03 4.06931E+00-1.27211E+01 4.58831E+01 1.36557E-13 6.57252E-14
 -1        39 8.69523E+02-2.03661E+01-9.34912E+01 2.94280E+01-4.48530E-14 1.85629E-13
 -1        40 9.97610E+02-6.78756E-01-4.69408E+00 4.61833E+00-1.32228E-13 1.36180E-12
 -1        41 1.01369E+03-5.69275E+00-9.00219E+00 3.11797E+00 3.23075E-13-1.59028E-12
 -1        42 1.07879E+03-7.16171E+00-5.97918E+00 1.52199E+00-1.44595E-12 1.37224E-12
 -1        43 1.18011E+03-6.98104E+00 7.90932E-01 7.52230E-01-3.75810E-13-7.64722E-13
 -1        44 1.30761E+03-7.44496E+00 9.68225E+00-1.37370E-01 3.83638E-13-7.60281E-13
 -1        45 1.45049E+03-4.62778E+00 2.18342E+01-1.69203E+00 1.11755E-12 3.37508E-13
 -1        46 1.57754E+03-1.01163E+01 3.04859E+01-2.60071E-01-4.62075E-13 1.53921E-12
 -1        47 1.66058E+03-3.97297E+00 4.11745E+01-4.14892E+00-7.12319E-13-1.08846E-12
 -1        48 1.61075E+03-1.89122E-01 3.31541E+01 9.27238E+00 1.11022E-13-5.86198E-13
 -1        49 1.36595E+03-2.80862E+01-1.66101E+01 1.23824E+01 1.29941E-12 2.38032E-13
 -1        50 1.05008E+03-7.71812E+00-5.64922E+01 2.63655E+01 4.08562E-13 1.50990E-12
 -1        51 7.69068E+02-2.41448E+01-1.09752E+02 5.26063E+00 3.55271E-14-4.69846E-13
 -1        52 9.94669E+02-7.65054E+00-8.76021E+00-2.69119E+00-1.34115E-13-5.99049E-13
 -1        53 9.96271E+02 1.11853E+01-8.65053E+00 6.25254E-01 6.17062E-13-9.76524E-13
 -1        54 9.97639E+02 5.65615E+01-4.36689E+00 1.92237E+00-1.19016E-13 5.69322E-13
 -1        55 1.00031E+03 1.16122E+02 2.39866E+00 1.84367E+00-4.39648E-14 1.85685E-12
 -1        56 1.00276E+03 1.77239E+02 9.35639E+00 2.35838E+00-2.04725E-13-7.25864E-13
 -1        57 1.00514E+03 2.24679E+02 1.38727E+01 1.57873E+00-4.39870E-13-1.13687E-13
 -1        58 1.00944E+03 2.60467E+02 1.88545E+01 7.38728E-01 1.54987E-13-1.52989E-13
 -1        59 9.98836E+02-3.28607E+00-4.82012E+00-2.55731E+00-1.33726E-12 5.51170E-13
 -1        60 9.95948E+02 5.86337E-01-8.41203E+00-7.36808E-02-3.33955E-13-9.89764E-13
 -1        61 9.97435E+02 3.38461E+01-6.02414E+00 1.33221E+00 2.58593E-12-7.19536E-13
 -1        62 9.99547E+02 8.64614E+01-6.67781E-01 1.50273E+00 5.28466E-13 2.02225E-12
 -1        63 1.00139E+03 1.46491E+02 5.71439E+00 1.63494E+00-1.60583E-12 2.96185E-12
 -1        64 1.00446E+03 2.01595E+02 1.16670E+01 2.15069E+00-4.80505E-13 1.21414E-12
 -1        65 1.00690E+03 2.43060E+02 1.58858E+01 6.95417E-01-9.13047E-13 3.33067E-14
 -1        66 1.00814E+03 2.65771E+02 1.82441E+01 1.00044E-01 1.05915E-12 2.81997E-13
 -1        67 9.93230E+02-4.66294E+00-1.00331E+01 7.08445E-01 2.21767E-14-7.54841E-13
 -1        68 1.03645E+03-4.41327E+00-8.85256E+00-2.76104E+00-3.38618E-14 3.36176E-13
 -1        69 1.12348E+03-3.42527E+00-2.52481E+00-4.46997E+00 1.81681E-13 1.19327E-12
 -1        70 1.24022E+03-2.06001E+00 6.16635E+00-6.27275E+00-7.47846E-13 6.08402E-13
 -1        71 1.38262E+03 9.54959E-01 1.85817E+01-8.12023E+00-4.94382E-13-2.06946E-13
 -1        72 1.52767E+03 5.08827E+00 3.20761E+01-7.99250E+00-2.96430E-13 2.26041E-13
 -1        73 1.64866E+03 1.60960E+01 4.80748E+01-1.45859E+00-2.16716E-13-8.69749E-13
 -1        74 1.68092E+03 2.66559E+01 5.48546E+01 8.39864E+00 7.79377E-14-3.02203E-13
 -1        75 1.54643E+03 2.50960E+01 3.38725E+01 2.28609E+01-4.77063E-13 2.01617E-13
 -1        76 1.23009E+03 5.65222E+00-2.36601E+01 3.23241E+01 1.63869E-13 4.95604E-13
 -1        77 8.64036E+02-2.33603E+01-9.60275E+01 2.41719E+01-4.15668E-13-2.21601E-13
 -1        78 9.95449E+02-1.08312E+00-5.64623E+00 1.58044E+00-8.40106E-13-4.06342E-14
 -1        79 1.01424E+03-3.63559E+00-8.35800E+00-1.04973E+00-2.02505E-13 1.52323E-12
 -1        80 1.08101E+03-1.97801E+00-3.93602E+00-1.90689E+00-5.85587E-13-5.27578E-13
 -1        81 1.18305E+03-2.47060E-01 3.54724E+00-3.09948E+00-2.42806E-13-3.36620E-13
 -1        82 1.31182E+03 2.06003E+00 1.35916E+01-3.95174E+00-1.15019E-13-5.25802E-13
 -1        83 1.45540E+03 5.79846E+00 2.58575E+01-5.76456E+00-2.08278E-13-1.52056E-12
 -1        84 1.58721E+03 1.04906E+01 3.82397E+01-3.36329E+00-2.22933E-13 1.73728E-12
 -1        85 1.66381E+03 1.62858E+01 4.69498E+01 2.35766E+00 4.35207E-14-1.62048E-12
 -1        86 1.61498E+03 1.89379E+01 3.94766E+01 9.72332E+00-3.22409E-13 8.20677E-13
 -1        87 1.39223E+03 1.07610E+01 2.97467E+00 1.75718E+01-3.80918E-13-9.75220E-13
 -1        88 1.04697E+03-7.57159E+00-5.80178E+01 1.83635E+01-6.98996E-13 1.20970E-12
 -1        89 7.70841E+02-2.41351E+01-1.09507E+02 6.00973E+00-1.67155E-12-8.29559E-13
 -1        90 2.69612E+03 4.18096E+02 2.24025E+02-1.00638E+03-2.40696E-13-2.02505E-13
 -1        91 3.01141E+02 3.34049E+02-9.63631E+01-4.51278E+02 3.01981E-13 1.56319E-13
 -1        92-4.27964E+02-8.58744E+02-3.01124E+02 3.83084E+02-2.27374E-13 3.74367E-13
 -1        93 3.79862E+03 3.11807E+02 3.82623E+02-5.78816E+02 9.04166E-13 2.62901E-13
 -1        94 1.34905E+03 3.91614E+02 1.26573E+01-9.01623E+02 4.26326E-14-2.98428E-13
 -1        95-3.70357E+02-3.05994E+02-2.82582E+02 8.35274E+00-5.96856E-13 8.02913E-13
 -1        96-3.47667E+02-1.36196E+03-3.22747E+02 3.92244E+02 9.66338E-13-3.55627E-12
 -1        97-1.27968E+02-9.45944E+02-2.32735E+02-2.65698E+02-2.94875E-13-4.53859E-13
 -1        98 4.52842E+02 3.21776E+02-5.41270E+01 4.34362E+02-2.52243E-13-9.94760E-14
 -1        99 2.66722E+03 3.89672E+02 2.07634E+02 9.68677E+02-3.73923E-13 7.60281E-13
 -1       100-2.94852E+02-1.56768E+03-3.53253E+02-1.13634E+02-7.67386E-13-2.98428E-13
 -1       101 1.39975E+02-1.66635E+02-8.90823E+01-5.23895E+01 1.70530E-13-2.55795E-13
 -1       102 1.42758E+03 3.72080E+02 3.01155E+01 8.81670E+02-7.10543E-15-2.13163E-13
 -1       103 3.79176E+03 3.39894E+02 3.88744E+02 5.89652E+02-2.32703E-13 5.11591E-13
 -1       104 2.66350E+03 3.91481E+02 2.06909E+02-9.64181E+02-9.21041E-13-5.32907E-13
 -1       105 5.06469E+02 2.80298E+02-5.10562E+01-4.27775E+02-8.52651E-14-5.40012E-13
 -1       106-1.30004E+02-9.05592E+02-2.21734E+02 2.34563E+02-2.30926E-13 1.55431E-14
 -1       107 3.79634E+03 3.49470E+02 3.92458E+02-5.91537E+02-8.91731E-13 2.91323E-13
 -1       108 1.43003E+03 3.45605E+02 2.34753E+01-8.74403E+02-7.03437E-13-1.25056E-12
 -1       109 1.57641E+02-2.22949E+02-9.98772E+01 1.60971E+01-1.02318E-12-1.47793E-12
 -1       110-2.31382E+02-1.53001E+03-3.28212E+02 1.55947E+02-8.10019E-13-6.00409E-13
 -1       111-1.15055E+02-8.96161E+02-2.14149E+02-2.24125E+02-3.55271E-15 9.20819E-13
 -1       112 5.29764E+02 2.57563E+02-5.06666E+01 4.27397E+02 1.24345E-13 0.00000E+00
 -1       113 2.66365E+03 3.91112E+02 2.06552E+02 9.63103E+02-1.13687E-13 2.98428E-13
 -1       114-2.38602E+02-1.53015E+03-3.30040E+02-1.58759E+02 7.31859E-13-2.00728E-12
 -1       115 1.67439E+02-2.40830E+02-1.02160E+02-5.75249E+00 2.41585E-13-2.55795E-13
 -1       116 1.43533E+03 3.38835E+02 2.32975E+01 8.69320E+02 3.62377E-13 9.94760E-14
 -1       117 3.80284E+03 3.59847E+02 3.97144E+02 5.91902E+02 5.48894E-13-6.18172E-13
 -1       118 8.63690E+02-2.30404E+01-9.59652E+01-2.38543E+01 5.37792E-13-2.79776E-14
 -1       119 1.22967E+03 6.40282E+00-2.34800E+01-3.24786E+01 1.10689E-13 2.97540E-13
 -1       120 1.54575E+03 2.42896E+01 3.35536E+01-2.31529E+01-6.09512E-14-3.71259E-13
 -1       121 1.67849E+03 2.19540E+01 5.30175E+01-9.36255E+00-2.04281E-13 1.49880E-15
 -1       122 1.64868E+03 1.18539E+01 4.72777E+01 6.65434E-01-2.75335E-13-4.07230E-13
 -1       123 1.52815E+03 4.04501E+00 3.24056E+01 5.32957E+00-1.21014E-13 6.51479E-13
 -1       124 1.38085E+03-3.44197E-01 1.78724E+01 6.34393E+00-4.65517E-13-7.09655E-13
 -1       125 1.24026E+03-2.58320E+00 6.02278E+00 5.75109E+00-5.85143E-13-5.76872E-13
 -1       126 1.12335E+03-3.56048E+00-2.61040E+00 4.34324E+00 3.70976E-13-4.18776E-13
 -1       127 1.03655E+03-4.47823E+00-8.84648E+00 2.72396E+00-4.46226E-13 6.14619E-13
 -1       128 9.93202E+02-4.67815E+00-1.00451E+01-7.29184E-01 5.96467E-14 1.01297E-12
 -1       129 7.70542E+02-2.35802E+01-1.09238E+02-5.88740E+00-1.22569E-13-5.36460E-13
 -1       130 1.04668E+03-8.16397E+00-5.81847E+01-1.80050E+01-3.64153E-14 9.02389E-13
 -1       131 1.39107E+03 8.97689E+00 2.15922E+00-1.67152E+01 1.90070E-13-1.01963E-12
 -1       132 1.61359E+03 1.57467E+01 3.83116E+01-9.23660E+00-1.34559E-13 9.49463E-13
 -1       133 1.66289E+03 1.38879E+01 4.63296E+01-1.67887E+00-1.13864E-12 7.63389E-13
 -1       134 1.58727E+03 8.54017E+00 3.81961E+01 2.00330E+00 2.19380E-13-1.55431E-13
 -1       135 1.45441E+03 4.40553E+00 2.54551E+01 3.43256E+00-2.89546E-13 5.89750E-13
 -1       136 1.31136E+03 1.73070E+00 1.33854E+01 3.20970E+00-7.04992E-13-7.24754E-13
 -1       137 1.18305E+03-4.66908E-01 3.47810E+00 2.78850E+00-7.44405E-14 2.78888E-13
 -1       138 1.08103E+03-1.99234E+00-3.94688E+00 1.90978E+00-1.25622E-13 1.73372E-12
 -1       139 1.01423E+03-3.70406E+00-8.38112E+00 1.00513E+00 1.92957E-13-2.25597E-13
 -1       140 9.95449E+02-1.08096E+00-5.64492E+00-1.58670E+00-3.31013E-13 8.01803E-13
 -1       141 1.22328E+03 5.90273E+01-2.67128E+01-1.84992E+00-1.56319E-13-2.92912E-13
 -1       142 1.63549E+03 2.66983E+02 1.44636E+01-2.99884E+00 3.87246E-13 4.37095E-13
 -1       143 2.33106E+03 5.49023E+02 1.20519E+02 5.36268E+00-4.47642E-13 2.09832E-13
 -1       144 1.01110E+03 3.48769E+01-4.16564E+01-4.84351E-01-8.17124E-13-5.02376E-13
 -1       145 1.41239E+03 1.54612E+02-8.81180E+00-2.13774E+00 5.68434E-14 1.38167E-13
 -1       146 1.85633E+03 3.07050E+02 6.66946E+00-3.97967E+00-1.91847E-13 3.19966E-13
 -1       147 2.88676E+03 2.19814E+02 9.53250E+01-1.99123E+00 7.03437E-13 4.72955E-14
 -1       148 1.00778E+03 2.60173E+02 1.85062E+01-1.20440E+00 1.40665E-13 1.34093E-12
 -1       149 1.00526E+03 2.26326E+02 1.45475E+01-1.97279E+00-1.08802E-13-9.76996E-14
 -1       150 1.00160E+03 1.75455E+02 8.51859E+00-2.06990E+00-7.43627E-13 8.80962E-14
 -1       151 9.99450E+02 1.15113E+02 1.84991E+00-2.20416E+00 6.57696E-13-1.16163E-12
 -1       152 9.99018E+02 5.62471E+01-4.03728E+00 1.75558E-01 6.31051E-13-2.45429E-13
 -1       153 9.99654E+02 1.51732E+01-6.51538E+00 5.52995E-03-2.75446E-13-4.51722E-13
 -1       154 9.97468E+02-8.12204E+00-8.03471E+00 1.64808E+00 2.44582E-13-9.70821E-13
 -1       155 1.00763E+03 2.65646E+02 1.82408E+01-8.14935E-01 1.43541E-12-5.63993E-13
 -1       156 1.00581E+03 2.42906E+02 1.57159E+01-1.41842E+00-1.54410E-12-1.34226E-12
 -1       157 1.00376E+03 2.00893E+02 1.13145E+01-1.57314E+00 1.50369E-12-5.94635E-13
 -1       158 1.00266E+03 1.46263E+02 6.01667E+00-1.22684E+00-1.55609E-12-1.84519E-12
 -1       159 9.99505E+02 8.76097E+01-2.82650E-01-1.32265E+00 1.71863E-12-1.65826E-12
 -1       160 9.99914E+02 3.32489E+01-5.53729E+00-9.39461E-01-5.90195E-13-8.56176E-13
 -1       161 9.98235E+02 1.27382E+00-7.55822E+00 2.51351E+00 5.95080E-14-1.24534E-12
 -1       162 1.00425E+03-1.22771E+00-2.51494E+00 1.90692E+00 2.20068E-12-4.14091E-12
 -1       163 9.84651E+02 1.82220E+02 4.32387E+00-5.45856E-02 4.28820E-13-1.81566E-12
 -1       164 9.28743E+02 1.50613E+02 2.21467E+00-1.47359E-01-2.05691E-13-5.30687E-14
 -1       165 8.51536E+02 1.42632E+02 2.55920E+00-6.54821E-01 2.77695E-14 4.64073E-13
 -1       166 7.47110E+02 1.36554E+02 3.65270E+00-1.73736E+00-7.20292E-13-4.17888E-13
 -1       167 6.03537E+02 1.11014E+02 5.47241E+00-2.51056E+00-3.75200E-13 5.12479E-13
 -1       168 3.76898E+02 3.58192E+01 3.96996E+00-1.28752E+01 2.82607E-13 5.57776E-13
 -1       169 4.59741E+01-2.09879E+02-1.07382E+01-2.35710E+01-1.05471E-14-2.84217E-13
 -1       170 9.90556E+02 2.12374E+02 3.64947E+00-4.11980E-03 6.10990E-13-4.23661E-13
 -1       171 9.53285E+02 1.59701E+02 4.33640E-01-1.03391E-01-1.56965E-13 5.66658E-13
 -1       172 8.88484E+02 1.43334E+02 5.03222E-01-1.65856E-01-7.94920E-14 5.32019E-13
 -1       173 7.97749E+02 1.38428E+02 8.69896E-01-8.05252E-01-5.18419E-13-2.26485E-13
 -1       174 6.73894E+02 1.24350E+02 1.32477E+00-1.33964E+00-7.03299E-13 5.32907E-15
 -1       175 4.99127E+02 7.72733E+01 2.45119E+00-3.98245E+00-1.24345E-13-1.06581E-14
 -1       176 2.53440E+02-4.20488E+01 9.97675E+00-1.62566E+01 2.02505E-13-2.27374E-13
 -1       177 1.75081E+01-6.22968E+02-3.39479E+01-2.06079E+01 1.97176E-13 1.37845E-12
 -1       178 8.64452E+02-2.33852E+01-9.58829E+01-2.46832E+01-6.43929E-14 1.66978E-13
 -1       179 1.23307E+03 8.77834E+00-2.20024E+01-3.44394E+01-5.20695E-13 6.12843E-14
 -1       180 1.55020E+03 3.45771E+01 3.72808E+01-2.91230E+01-3.66263E-13 9.10383E-14
 -1       181 1.67322E+03 2.55498E+01 5.18666E+01-1.46132E+01-3.50386E-13-7.54952E-14
 -1       182 1.65030E+03 1.03950E+01 4.69136E+01 3.25573E-01-6.12843E-13-3.53939E-13
 -1       183 1.52984E+03 4.86147E+00 3.30621E+01 4.98917E+00 2.74669E-13-3.93463E-13
 -1       184 1.38095E+03-4.88048E-02 1.79839E+01 6.24189E+00-1.68643E-13-7.08766E-13
 -1       185 1.24033E+03-2.42454E+00 6.09321E+00 5.73335E+00-3.94462E-13 9.61897E-13
 -1       186 1.12334E+03-3.51713E+00-2.59347E+00 4.38955E+00 6.30808E-13-3.45501E-13
 -1       187 1.03652E+03-4.43854E+00-8.83917E+00 2.75402E+00-8.59174E-13-8.13571E-13
 -1       188 9.93237E+02-4.62469E+00-1.00192E+01-7.01773E-01-1.15907E-13 1.76814E-12
 -1       189 7.70574E+02-2.44497E+01-1.09639E+02-5.81366E+00-3.71259E-13-2.22045E-13
 -1       190 1.04684E+03-6.99133E+00-5.78855E+01-1.96454E+01-2.59348E-13-3.16192E-13
 -1       191 1.39434E+03 1.34900E+01 4.24802E+00-2.23280E+01-4.02789E-13 5.64881E-13
 -1       192 1.61508E+03 2.02350E+01 3.95596E+01-1.62917E+01-2.93099E-13-1.64313E-13
 -1       193 1.66313E+03 1.81673E+01 4.69600E+01-2.20970E+00-5.85310E-13-5.08704E-13
 -1       194 1.58854E+03 9.31930E+00 3.85807E+01 2.40826E+00-1.74971E-13-2.66454E-14
 -1       195 1.45458E+03 4.76796E+00 2.55681E+01 3.51921E+00 5.26246E-13-6.51923E-13
 -1       196 1.31145E+03 2.00355E+00 1.34971E+01 3.31195E+00-9.63674E-14 5.22249E-13
 -1       197 1.18305E+03-3.07133E-01 3.53135E+00 2.82364E+00 7.64389E-14-7.19425E-13
 -1       198 1.08105E+03-1.89975E+00-3.90628E+00 1.93832E+00 2.13385E-13 4.11227E-13
 -1       199 1.01423E+03-3.65983E+00-8.36707E+00 1.05476E+00 4.23550E-13-3.81029E-13
 -1       200 9.95446E+02-1.07822E+00-5.64490E+00-1.57683E+00 4.57467E-13-9.37694E-13
 -1       201 2.33612E+03 5.57020E+02 1.24218E+02-7.50608E-01 3.62377E-13-1.12833E-13
 -1       202 1.63412E+03 2.64715E+02 1.33778E+01 1.21056E-01-1.35003E-13-1.00239E-13
 -1       203 1.22029E+03 5.88493E+01-2.78076E+01 1.39810E-01-2.94875E-13-2.19223E-13
 -1       204 2.87213E+03 2.15976E+02 9.04122E+01 1.82223E-01 1.84741E-13 1.22680E-13
 -1       205 1.85820E+03 3.07843E+02 7.53008E+00 3.11207E-01 1.70530E-13-1.94067E-13
 -1       206 1.41757E+03 1.55794E+02-7.09016E+00 2.15698E-01 1.63425E-13 5.38458E-14
 -1       207 1.00917E+03 3.49566E+01-4.23102E+01 2.38866E-02-1.05871E-12-3.63820E-13
 -1       208 1.00908E+03 2.60478E+02 1.87917E+01-7.28777E-01 7.07101E-13 1.80078E-13
 -1       209 1.00492E+03 2.24978E+02 1.39339E+01-1.43803E+00 6.30607E-14-1.36235E-12
 -1       210 1.00258E+03 1.77021E+02 9.24733E+00-2.21373E+00-5.90639E-14-1.28786E-13
 -1       211 1.00023E+03 1.16071E+02 2.35539E+00-1.80332E+00 3.90799E-14-7.95912E-13
 -1       212 9.97653E+02 5.65752E+01-4.36277E+00-1.90072E+00-2.63123E-13 7.42073E-13
 -1       213 9.96295E+02 1.11670E+01-8.65260E+00-6.29713E-01-4.27214E-13-7.12402E-13
 -1       214 9.94724E+02-7.62612E+00-8.73879E+00 2.67243E+00 4.27602E-13-6.17284E-13
 -1       215 1.00800E+03 2.65770E+02 1.82257E+01-2.36655E-01 7.41962E-13-2.83329E-13
 -1       216 1.00664E+03 2.43090E+02 1.58554E+01-7.09215E-01-4.74287E-13-1.97664E-12
 -1       217 1.00423E+03 2.01532E+02 1.15976E+01-1.96136E+00 9.46354E-13 2.33125E-12
 -1       218 1.00133E+03 1.46401E+02 5.66781E+00-1.52730E+00 1.95399E-14-4.78673E-13
 -1       219 9.99554E+02 8.64914E+01-6.60754E-01-1.45411E+00 4.60965E-13 3.62897E-13
 -1       220 9.97490E+02 3.38871E+01-5.99931E+00-1.31885E+00-2.33236E-12-5.62883E-14
 -1       221 9.95980E+02 5.93982E-01-8.40340E+00 4.62051E-02 5.68434E-13-5.11702E-13
 -1       222 9.98860E+02-3.27664E+00-4.81203E+00 2.54035E+00 5.25135E-14 5.83422E-13
 -1       223-3.40832E+01-2.85218E+02-5.40775E+01-9.13584E-02 6.13495E-13-4.93827E-13
 -1       224 3.87965E+02 2.57199E+01 4.43948E+00 2.31979E+00-5.01224E-13 7.86926E-13
 -1       225 6.04898E+02 1.16578E+02 7.74065E+00 2.85154E+00-3.49429E-13-1.53655E-13
 -1       226 7.41274E+02 1.36677E+02 2.01285E+00 7.19169E-01-1.91850E-13-2.10054E-13
 -1       227 8.51552E+02 1.42980E+02 2.63905E+00-5.54363E-01 1.25202E-13 8.41549E-13
 -1       228 9.28580E+02 1.51177E+02 2.31116E+00-2.03924E-02 5.62779E-14-1.49725E-12
 -1       229 9.84964E+02 1.82896E+02 4.56500E+00-1.23042E-02 7.11249E-13 8.06022E-14
 -1       230 4.18283E+01-6.15609E+02-2.48112E+01 8.91236E-01 3.01537E-13-2.05347E-12
 -1       231 2.60087E+02-3.93168E+01 1.37168E+01 2.06575E+00 3.23186E-13 2.91323E-13
 -1       232 5.01809E+02 8.30690E+01 4.88351E+00 2.50469E+00-5.17031E-13 7.31859E-13
 -1       233 6.74510E+02 1.30734E+02 3.36319E+00 2.56725E+00-5.49560E-14-8.52651E-13
 -1       234 7.98188E+02 1.39497E+02 1.32244E+00-7.64427E-01-1.04805E-13-3.36620E-13
 -1       235 8.88804E+02 1.44055E+02 7.94149E-01-2.66241E-01 2.10026E-13 3.52607E-13
 -1       236 9.53414E+02 1.60176E+02 5.73642E-01 1.04626E-02 4.13301E-13-7.95808E-13
 -1       237 9.90489E+02 2.12287E+02 3.57198E+00 1.21908E-02 7.80806E-13 1.49214E-13
 -1       238 1.08231E+03 2.96133E+01-4.75085E-01 1.34165E+02 6.90559E-14 1.18994E-12
 -1       239 1.14333E+03-5.31914E+00-1.23901E+00 1.85424E+02 5.81757E-14-3.20299E-14
 -1       240 1.03110E+03 3.48374E+01-7.58111E-01 6.68045E+01 8.63587E-13-5.39013E-13
 -1       241 1.67427E+03-6.46115E+01 1.12424E+01-2.12586E+02 4.20108E-13 1.06581E-13
 -1       242 7.69870E+02-1.28988E+01-1.51205E+00 2.55235E+02-4.61853E-14-9.90763E-13
 -1       243 8.62260E+02 7.94622E+01 1.17494E+00 1.79927E+02 4.77396E-13-1.46128E-12
 -1       244 1.00490E+03 8.52702E+01 3.40612E-01 7.09806E+01-4.39981E-13-1.62093E-14
 -1       245 9.68602E+02 1.09726E+02 8.14358E-01 1.03278E+02 2.68813E-13-4.52083E-13
 -1       246 7.22102E+02-3.15198E+02-9.61641E+00 3.55204E+02 1.54543E-13 2.40696E-13
 -1       247 1.24278E+03-1.83691E+02 1.08926E+00 1.78431E+02-5.77316E-14-5.10703E-14
 -1       248 1.01697E+03 5.90679E+01 6.61054E-02 7.28762E+01-3.27738E-13-4.14418E-13
 -1       249 9.94191E+02 9.91920E+01 8.48131E-01 9.23885E+01-3.10862E-15 1.99840E-15
 -1       250 1.00813E+03 6.85218E+01 6.76166E-02 1.34137E+02-3.27294E-13-9.16212E-14
 -1       251 1.05769E+03 3.33760E+01-6.60090E-02 1.01542E+02 2.50522E-13-5.04041E-14
 -1       252 1.02082E+03 6.52314E+01 9.75691E-01 1.04928E+02 2.52929E-13-4.02255E-13
 -1       253 7.35620E+02-4.20967E+02-4.15794E+01 3.01126E+02-5.22249E-13 3.18856E-13
 -1       254 1.75714E+03-1.62802E+02 5.65938E+00 1.01163E+02 3.09086E-13-6.03961E-14
 -1       255 1.49694E+03-2.37012E+02 5.29879E+00-3.29835E+00-1.39444E-13 5.24025E-14
 -1       256 1.07063E+03-2.60328E+02-2.53573E+00 2.82083E+02-2.89546E-13 6.85244E-13
 -1       257 1.28517E+03-3.45416E+02-1.79119E+01 1.83999E+02 2.78888E-13 4.55636E-13
 -1       258 9.38778E+02 1.39807E+02 1.87932E+00 6.10351E+01 6.36990E-15-1.25233E-13
 -1       259 9.89061E+02 1.45035E+02 2.01537E+00 5.64755E+01 2.59237E-13 3.29736E-13
 -1       260 9.85552E+02 1.72574E+02 3.76583E+00 3.17153E+01-4.51639E-13-1.33848E-12
 -1       261 1.69800E+03 1.75730E+02 1.42549E+01-2.08982E+02-2.66454E-14 9.59233E-14
 -1       262 2.26202E+03 2.57711E+02 8.18141E+01-7.52675E+01-1.59872E-14-2.13163E-14
 -1       263 8.17223E+02 4.72536E+01 4.76107E-01 2.13202E+02-4.64517E-13 1.34248E-12
 -1       264 9.81580E+02-1.16633E+02 4.63385E-01 2.75664E+02 2.21156E-13 1.30340E-13
 -1       265 1.16628E+03-7.01696E+01-2.85685E+00 1.97867E+02 2.54907E-13-2.80602E-13
 -1       266 9.91617E+02 2.87810E+01 2.85490E-01 2.10583E+02-5.08926E-13-2.86771E-13
 -1       267 9.78190E+02-2.45464E+01-2.90292E-01 2.41598E+02 1.86517E-13-6.39266E-13
 -1       268 3.37571E+02-1.42071E+02-1.51378E+01 2.44650E+02-1.10134E-13-8.66862E-13
 -1       269 5.17666E+02 1.73092E+01-5.39372E+00 1.86837E+02 2.76223E-13-3.73035E-14
 -1       270 6.93434E+02-1.26984E+02-5.65155E+00 3.14501E+02-3.01981E-13-1.01430E-12
 -1       271 7.71407E+02 1.19663E+02 2.44105E+00 1.04720E+02 4.62519E-13 8.59757E-13
 -1       272 6.70041E+02 9.21102E+01 2.97011E+00 1.37068E+02 1.13687E-13 5.86198E-13
 -1       273 1.44865E+03-5.34098E+00 5.60561E+00-2.27633E+02-4.63629E-13-1.84186E-13
 -1       274 1.31732E+03 4.63821E+01-1.42469E+01-1.74967E+02 1.58096E-13 3.52496E-13
 -1       275 9.26171E+02 1.00383E+02 1.67774E+00 1.39361E+02-2.47913E-13 3.98792E-13
 -1       276 8.69630E+02 1.31213E+02 2.46924E+00 8.08587E+01 1.44107E-13-6.53477E-13
 -1       277 1.15973E+03 6.00783E+00-1.50850E-01 9.22854E+01-5.01821E-14-5.57332E-14
 -1       278 1.04503E+03 7.21209E+00-2.90752E+00 4.33429E+01 1.94844E-14 8.32667E-14
 -1       279 1.09633E+03 6.86659E+00-1.54437E+00 6.92801E+01-2.64455E-13-5.32907E-15
 -1       280 1.44561E+03-7.34970E+01 8.04411E+00 1.39342E+01 1.50102E-13 2.09610E-13
 -1       281 1.31344E+03-7.13055E+00 2.89693E+00 1.15523E+02 3.15303E-14 1.37890E-13
 -1       282 1.37649E+03-3.32997E+01 3.23096E+00 9.40229E+01 3.07310E-13 1.46105E-13
 -1       283 1.50897E+03-5.72824E+01 1.46215E+01-1.32881E+02 3.51497E-13-2.38809E-13
 -1       284 1.50961E+02-5.26224E+02-7.17014E+01 2.74588E+02 1.13687E-13 9.94760E-14
 -1       285 1.11166E+03 1.96477E+01-6.83784E-01 1.64932E+02-1.34559E-13-5.25358E-13
 -1       286 1.23544E+03 2.83019E+00 1.49259E+00 1.10810E+02 3.29958E-13-1.10800E-13
 -1       287 1.00786E+03 3.38643E+01-2.39427E+00 3.48674E+01-3.03757E-13 1.70863E-13
 -1       288 1.01119E+03 8.33032E+00-3.65408E+00 1.67019E+01 3.00870E-14-2.78666E-14
 -1       289 1.00053E+03 5.80354E+01 2.76432E-01 1.73480E+02 3.33289E-13-1.28786E-13
 -1       290 1.00029E+03 9.91968E+01 3.04931E-01 4.25668E+01 1.47660E-13 2.15383E-13
 -1       291 9.97468E+02 1.27599E+02 1.80643E+00 5.46870E+01-8.50431E-14-8.71414E-13
 -1       292 1.00313E+03 6.26238E+01-1.56445E+00 4.29443E+01 4.84168E-13 8.06855E-14
 -1       293 1.02296E+03 4.65803E+01-6.19295E-01 7.00400E+01 1.18083E-12-4.56302E-13
 -1       294 1.01879E+03 6.28456E+01 2.16170E-01 8.90422E+01-2.51243E-13-5.90084E-14
 -1       295 1.03588E+03 4.78315E+01-3.90433E-01 1.04156E+02-1.83353E-13-4.37650E-13
 -1       296 1.04443E+03 3.51193E+01-1.39343E-01 8.36072E+01 4.85056E-13-1.05249E-13
 -1       297 1.00899E+03 7.12192E+01-4.38733E-01 7.23212E+01-1.23968E-12 2.31259E-13
 -1       298 1.00065E+03 9.35505E+01 6.56894E-01 8.22560E+01 9.52127E-13-3.09086E-13
 -1       299 1.00285E+03 8.03703E+01-3.74842E-01 9.93833E+01 7.95142E-13 2.65676E-13
 -1       300 9.82683E+02 1.05505E+02 9.19227E-01 9.78626E+01-8.93091E-13 1.31006E-13
 -1       301 9.83636E+02 8.68416E+01-3.16790E-01 1.19452E+02-5.24469E-13 1.37668E-14
 -1       302 1.01614E+03 6.88082E+01 1.01198E+00 1.19388E+02 4.59632E-14-2.02394E-13
 -1       303 1.04154E+03 4.69685E+01-4.70384E-01 1.35588E+02 3.90354E-13-1.36446E-13
 -1       304 1.07111E+03 3.36231E+01 5.54447E-01 1.16794E+02 1.71418E-13 6.41265E-13
 -1       305 7.34194E+02-3.74733E+02-1.43031E+01 3.35079E+02-1.63425E-13-8.68416E-13
 -1       306 1.14258E+03-3.19381E+02 1.26108E+01 2.87631E+02 2.84217E-13-6.53699E-13
 -1       307 1.18521E+03-3.23024E+02-2.31006E+00 2.44433E+02-2.13163E-14 3.99680E-13
 -1       308 9.48169E+02-2.64922E+02 9.38534E+00 3.27975E+02-5.75540E-13 3.64153E-14
 -1       309 5.59679E+02-1.83128E+02-7.16778E+01 3.15233E+02-5.25802E-13 4.40536E-13
 -1       310 1.36110E+03 1.33682E+02 3.36923E+01 3.27654E+02-1.70530E-13-2.84217E-13
 -1       311 1.47258E+03-3.26606E+02-2.44660E+01 1.38570E+02 3.94351E-13 1.42109E-13
 -1       312 1.75011E+03-8.67720E+01 1.34840E+01-7.54030E+01 3.29958E-13-1.56319E-13
 -1       313 1.57080E+03-1.79093E+02-1.94906E+00-9.97005E+01 3.49054E-13 3.62377E-13
 -1       314 1.43181E+03-2.79367E+02 1.92266E+00 8.66546E+01 1.88294E-13 1.91847E-13
 -1       315 1.34770E+03-2.34710E+02-4.08715E+00 1.01398E+02 1.35003E-13 3.82805E-13
 -1       316 1.18911E+03-2.09338E+02 8.68098E+00 2.30703E+02-4.97380E-14 1.52101E-13
 -1       317 9.30210E+02 1.44389E+02 9.33079E-01 3.06559E+01-8.01276E-13 3.96128E-13
 -1       318 9.59096E+02 1.50209E+02 4.46629E-01 4.57036E+01 6.28941E-14-5.48894E-13
 -1       319 9.83351E+02 1.77117E+02 2.99196E+00 1.57986E+01 3.42393E-13-5.51559E-13
 -1       320 9.50900E+02 1.23929E+02 4.50790E-01 8.32871E+01 1.12682E-12 5.86642E-13
 -1       321 9.75689E+02 1.22331E+02-2.25556E-01 7.91031E+01 5.21583E-13-1.16307E-12
 -1       322 9.86619E+02 1.58686E+02 2.27557E+00 4.43758E+01 5.01821E-14 2.27374E-13
 -1       323 9.93358E+02 1.74383E+02 2.51019E+00 2.98006E+01 1.48326E-13-8.89067E-13
 -1       324 9.91019E+02 2.01873E+02 3.18024E+00 1.66710E+01-7.72271E-13-1.32339E-12
 -1       325 2.41094E+03 2.83401E+02 9.04247E+01 3.68881E+02 2.09610E-13 3.41061E-13
 -1       326 1.92054E+03 6.58097E+00-6.41585E+00 4.97236E+01 2.48690E-13-1.63425E-13
 -1       327 2.27420E+03 3.97350E+02 6.93114E+01-2.85847E+01-4.26326E-14 2.02505E-13
 -1       328 1.66971E+03 2.45505E+02 1.23128E+01-1.05903E+02 1.77636E-13 2.87770E-13
 -1       329 1.90010E+03 1.97515E+02 1.85891E+01-1.23836E+02 1.42109E-13 1.98952E-13
 -1       330 1.68583E+03 5.12902E+01 7.49823E+00-2.05809E+02 1.06581E-14-3.69482E-13
 -1       331 8.41652E+02 6.83406E+01 2.03850E+00 1.94329E+02 2.46025E-13-7.30083E-13
 -1       332 8.86579E+02 5.04335E+00-2.47361E+00 2.31211E+02-3.17968E-13 3.65041E-13
 -1       333 9.85746E+02 9.80548E+00 1.34575E+00 2.24098E+02 3.14415E-13-2.81108E-13
 -1       334 9.18050E+02 4.95316E+01-1.47160E+00 1.98267E+02 3.47278E-13-4.36096E-13
 -1       335 7.97884E+02 2.62098E+01 2.46675E+00 2.30231E+02-4.08562E-13 3.57048E-13
 -1       336 8.51023E+02-7.53196E+01-7.20750E+00 2.70693E+02-1.24345E-13-4.67182E-13
 -1       337 9.81378E+02-5.65868E+01 3.40943E+00 2.55221E+02-2.98428E-13 1.09246E-13
 -1       338 1.09508E+03-1.67265E+02-6.76792E+00 2.37972E+02-1.63425E-13-5.17808E-13
 -1       339 1.20027E+03-1.21030E+02-7.57354E-02 1.89535E+02 4.58300E-13-9.32587E-13
 -1       340 1.06809E+03-5.43756E+01-3.20034E+00 2.24189E+02 1.12266E-12-5.32907E-13
 -1       341 1.15927E+03-2.82499E+01 7.56817E-01 1.90645E+02 3.37508E-14 7.46403E-13
 -1       342 1.06277E+03 7.72997E+00-1.68850E+00 2.00552E+02-3.67706E-13 3.28848E-13
 -1       343 3.05401E+02-7.40036E+01-1.86304E+01 1.26153E+02 1.95399E-13 6.39488E-14
 -1       344 5.52924E+02-1.09887E+02 5.81358E+00 2.85116E+02-3.12639E-13-6.39488E-13
 -1       345 5.71080E+02-5.98769E+01-1.09055E+01 2.53036E+02-6.39488E-14-6.03961E-13
 -1       346 4.36972E+02 2.45345E+01-4.36687E-01 9.74834E+01 1.83853E-13 2.02505E-13
 -1       347 4.76599E+02-2.60235E+02-2.09002E+01 3.18514E+02 1.98952E-13 7.10543E-13
 -1       348 8.48056E+02-2.15872E+02-1.32506E+01 3.14279E+02-3.12639E-13-5.86198E-13
 -1       349 8.74720E+02-1.10915E+02 8.26551E+00 2.95282E+02 0.00000E+00-5.54223E-13
 -1       350 6.59055E+02 8.81316E+00 3.27515E+00 2.22788E+02 1.52767E-13-3.80140E-13
 -1       351 8.09012E+02 9.65755E+01 2.09622E-01 1.44057E+02 1.56319E-13 1.12799E-13
 -1       352 7.21540E+02 1.08070E+02 1.80463E+00 1.18890E+02 1.53655E-13 1.25056E-12
 -1       353 7.36813E+02 6.60381E+01 3.20616E-01 1.77225E+02-2.97540E-13-6.75016E-13
 -1       354 7.47098E+02 1.24274E+02 1.08946E-01 5.28183E+01 2.60236E-13 2.27374E-13
 -1       355 6.17406E+02 9.55702E+01-2.69824E-01 6.97658E+01-8.17124E-14 1.18838E-12
 -1       356 6.04883E+02 6.23759E+01 1.44709E+00 1.58487E+02 1.97176E-13 8.70415E-14
 -1       357 1.32950E+03-4.35324E+00-7.62755E+00-1.32713E+02 2.85993E-13-1.42109E-14
 -1       358 1.37967E+03 1.82626E+01-6.84118E+00-1.96982E+02-5.68434E-14 3.63598E-13
 -1       359 1.12152E+03 2.50688E+01-2.92164E+01-1.01303E+02-9.23706E-14 1.52767E-13
 -1       360 1.55114E+03-3.25730E+01 4.48554E+00-2.13380E+02-3.49942E-13 1.33227E-13
 -1       361 1.49349E+03 1.07881E+02-1.87045E+00-1.82455E+02 1.13687E-13 2.20268E-13
 -1       362 1.26963E+03 6.78362E+01-1.67564E+01-8.60698E+01-3.26850E-13-5.02931E-14
 -1       363 9.03250E+02 1.33117E+02 7.03817E-01 7.00412E+01 1.29563E-13 2.70006E-13
 -1       364 8.91294E+02 1.13245E+02 2.37342E-01 1.11582E+02 6.70575E-13 1.88294E-13
 -1       365 9.47994E+02 1.05709E+02 9.69051E-01 1.19961E+02 1.29896E-13-2.61124E-13
 -1       366 8.52663E+02 1.34509E+02 4.38858E-01 4.06807E+01-7.43960E-13 1.05693E-13
 -1       367 8.20726E+02 1.26141E+02 1.22735E+00 9.10936E+01 2.73559E-13 5.41789E-14
 -1       368 8.95115E+02 9.32067E+01 1.22263E+00 1.57371E+02 2.38920E-13 6.03961E-14
 -1       369 1.07724E+03 1.96645E+01-6.86723E-01 8.58504E+01 1.62426E-13-8.86402E-13
 -1       370 1.07145E+03 9.05444E+00-9.59988E-01 5.50544E+01-2.90268E-13-8.31779E-13
 -1       371 1.03993E+03 2.19194E+01-9.45803E-01 5.51780E+01-1.09379E-12 8.37996E-13
 -1       372 1.11969E+03 1.65225E+01-6.28387E-01 1.13768E+02-2.11386E-13-1.31894E-13
 -1       373 1.12892E+03 9.18437E+00 4.93494E-01 7.88953E+01-1.85185E-13-2.48690E-14
 -1       374 1.19940E+03 2.47583E-01 1.31468E+00 5.02552E+01-5.50227E-13 9.76996E-14
 -1       375 1.11268E+03 1.92358E+00-1.21774E+00 3.75849E+01 2.14828E-14-6.76792E-13
 -1       376 1.04692E+03 3.38143E+00-3.00662E+00 2.31793E+01 6.07847E-13 1.51879E-13
 -1       377 1.35005E+03-1.33240E+02 1.43889E+00 9.26426E+01 3.76588E-13 3.37952E-13
 -1       378 1.40743E+03-5.22177E+01 4.52788E+00 5.83798E+01 1.72307E-13-6.08402E-14
 -1       379 1.27505E+03-5.59836E+01-6.99998E-02 1.43400E+02-2.30926E-13-3.93019E-13
 -1       380 1.52537E+03-3.32175E+01 9.87131E+00-4.76923E+00 8.88178E-14 2.63317E-13
 -1       381 1.48828E+03-1.71904E+01 9.59013E+00 4.60080E+01-3.53495E-13-1.52767E-13
 -1       382 1.40743E+03-6.79519E+00 7.84511E+00 6.16883E+01-3.01981E-13-7.21201E-13
 -1       383 1.34896E+03-1.28983E+01 5.28846E+00 1.04621E+02-1.24345E-13 7.72715E-14
 -1       384 1.22579E+03-9.32276E+00-8.24549E-02 1.50215E+02 1.54543E-13-2.27818E-13
 -1       385 1.46926E+03-8.21423E+01 3.27985E+00-4.93016E+01 2.39808E-13 1.81188E-13
 -1       386 1.48957E+03-2.78886E+01 6.68431E+00-8.42923E+01-3.51719E-13 1.13687E-13
 -1       387 1.51103E+03-1.43709E+02 6.92404E+00-7.32180E+01 2.23821E-13-2.41585E-13
 -1       388 1.47384E+03-4.92141E+01 2.11033E+00-1.72489E+02-1.96287E-13 4.57412E-14
 -1       389 3.51013E+01-4.21138E+02-5.53143E+01 1.44908E+02-3.90799E-13 1.08002E-12
 -1       390 2.99569E+02-2.09471E+02 6.72668E+00 2.29843E+02 1.63425E-13-1.91847E-13
 -1       391 8.53826E+01-5.87338E+02-6.15478E+01 4.89513E+01-5.96856E-13 5.82645E-13
 -1       392 4.10604E+02-4.29257E+02-2.52871E+01 2.89722E+02-3.69482E-13-1.20792E-13
 -1       393 1.30217E+03-2.22790E+00 4.39062E+00 6.02065E+01 5.52447E-13 2.17604E-13
 -1       394 1.27639E+03 2.96267E+00 3.86646E+00 1.11215E+02 2.45137E-13-3.75699E-13
 -1       395 1.19876E+03 8.30051E+00 2.15592E+00 9.93563E+01 8.34888E-14 1.42109E-14
 -1       396 1.09915E+03 2.97082E+01 1.19102E+00 1.47715E+02 4.22773E-13-3.57936E-13
 -1       397 1.17059E+03 9.00752E+00-4.78978E-01 1.38339E+02 4.24549E-13-3.84581E-13
 -1       398 1.13005E+03 1.41322E+01 1.20767E+00 1.73651E+02-5.86198E-14-1.51612E-12
 -1       399 1.00830E+03 4.30371E+00-3.75755E+00 7.74025E+00 3.99680E-13-1.80744E-13
 -1       400 1.02898E+03 9.62828E+00-2.04518E+00 2.98234E+01 2.71339E-13 4.88498E-15
 -1       401 1.00546E+03 5.96489E+00-3.08649E+00 6.65543E+00 8.20233E-13-1.96509E-13
 -1       402 1.00443E+03 2.89574E+01-2.44474E+00 1.76492E+01-6.05738E-13 1.54454E-12
 -1       403 1.01110E+03 2.16965E+01-2.19403E+00 2.60831E+01-1.87406E-13 1.48548E-12
 -1       404 1.02057E+03 3.66335E+01-5.75568E-01 5.02956E+01 2.24709E-13-3.03535E-13
 -1       405 9.55798E+02 7.51069E+01-9.75836E-01 1.58273E+02-5.76428E-13-8.10463E-13
 -1       406 1.00648E+03 6.74413E+01 1.43722E+00 1.51938E+02-1.11022E-14 7.19425E-14
 -1       407 9.96661E+02 4.89657E+01 1.11631E+00 1.89994E+02-2.89546E-13 9.04832E-13
 -1       408 1.05086E+03 3.52681E+01-1.29628E+00 1.71095E+02 1.46549E-13-4.24716E-13
 -1       409 9.93126E+02 1.08700E+02-4.39209E-01 7.28711E+01-2.93987E-13 3.87690E-13
 -1       410 9.94722E+02 1.36918E+02 2.04030E+00 5.60901E+01 6.60805E-13 6.29274E-13
 -1       411 1.00173E+03 9.10866E+01-1.79790E-01 5.65876E+01 1.92735E-13 6.68354E-13
 -1       412 1.00056E+03 1.14417E+02 1.42863E+00 4.87099E+01-2.68674E-13-8.12683E-14
 -1       413 9.99711E+02 1.06459E+02 6.95505E-01 2.25495E+01 1.15996E-12 2.23649E-12
 -1       414 9.97446E+02 1.45010E+02 2.00755E+00 2.92360E+01-1.84741E-13 5.23581E-13
 -1       415 1.00174E+03 6.30698E+01-1.35939E+00 2.26295E+01-4.88054E-13-6.51312E-13
 -1       416 1.00584E+03 4.84209E+01-1.60744E+00 3.88553E+01-2.42473E-13 3.01092E-13
 -1       417 1.00194E+03 8.06906E+01-4.42410E-01 4.24881E+01 7.79821E-13-7.30003E-13
 -1       418 1.00998E+03 6.21880E+01-3.53408E-01 5.74269E+01 2.60236E-13-5.24247E-13
 -1       419 1.14283E+03-2.91409E+02 1.90889E+00-2.74872E+02 1.42109E-14-2.84883E-13
 -1       420 9.66420E+02 1.27019E+02 8.64209E-01-8.11481E+01-4.98809E-13-8.24674E-13
 -1       421 1.80206E+03-5.79335E+01 2.54410E+01 1.52958E+02-1.19904E-14 1.91847E-13
 -1       422 1.01419E+03 6.52292E+01 2.68389E-01-7.47662E+01-3.65041E-13-3.51469E-13
 -1       423 1.16036E+03 6.41915E+00 8.86900E-01-1.71590E+02 3.05089E-13 8.99059E-13
 -1       424 8.94795E+02 9.58754E+01-2.98463E-01-1.50274E+02 5.49782E-13-4.00124E-13
 -1       425 1.05754E+03 3.90092E+01-7.66918E-01-1.31508E+02 4.32543E-13-1.11122E-12
 -1       426 1.39526E+03-6.96075E+01 5.94315E+00-7.15369E+01 2.18492E-13-4.15223E-14
 -1       427 8.31947E+02-6.04026E+00-5.02823E+00-2.49977E+02-1.24345E-14 1.73195E-12
 -1       428 1.01138E+03 2.08464E+01-1.23713E+00-1.99722E+01 2.26819E-13-6.40599E-14
 -1       429 1.00528E+03 5.04386E+01-1.24649E+00-3.65617E+01 1.16018E-13 2.57627E-13
 -1       430 1.00137E+03 8.72830E+01 1.53129E-01-4.68556E+01 2.54463E-13 6.07139E-13
 -1       431 1.44328E+03-1.19673E+01 7.35474E+00-6.55561E+01 1.06581E-13 1.12577E-13
 -1       432 1.50639E+03-1.11719E+01 1.46808E+01-1.01730E+00-1.40332E-13-4.60965E-13
 -1       433 1.52967E+03-3.48951E+01 1.52551E+01 9.08249E+01 2.07834E-13-1.51101E-13
 -1       434 9.93261E+02 9.89624E+01 5.41544E-02-9.06185E+01-1.92624E-14 2.78444E-13
 -1       435 9.92027E+02 1.58923E+02 2.93086E+00-4.66943E+01-1.34337E-13-9.79217E-14
 -1       436 9.96753E+02 1.27338E+02 1.34766E+00-5.31438E+01-2.60902E-14-5.72098E-13
 -1       437 9.43868E+02 1.45235E+02 1.77209E+00-4.80935E+01 1.02954E-12-8.52873E-13
 -1       438 9.87772E+02 1.78251E+02 3.99624E+00-2.72892E+01-8.00249E-13 3.04423E-13
 -1       439 1.51315E+03-6.61591E-01 1.43614E+01 2.51340E+02 2.73559E-13 9.14824E-14
 -1       440 1.82766E+03 2.28514E+02 3.12019E+01 1.89979E+02 1.66978E-13 2.84217E-14
 -1       441 1.36666E+03 6.12199E+01-8.90731E+00 1.81417E+02-3.73035E-14 4.50751E-14
 -1       442 1.30882E+03-1.75725E+02 5.11636E+00-1.36769E+02-3.91687E-13-4.21219E-13
 -1       443 1.49292E+03-3.04216E+02 3.37428E+00-7.97611E+01 4.55636E-13-2.77112E-13
 -1       444 1.55280E+03-1.51155E+02 1.78861E+01 9.29277E+01-2.03837E-13 1.07470E-13
 -1       445 1.67856E+03-1.26356E+02-2.56189E+00-2.49980E+02 1.97176E-13-1.35003E-13
 -1       446 3.02297E+02-3.64296E+02-3.49039E+01-2.95090E+02-1.88294E-13 6.59028E-13
 -1       447 7.79586E+02-3.34474E+02-6.15660E+01-3.30483E+02-6.07514E-13-8.70415E-14
 -1       448 5.81468E+02 3.29176E+01 2.68097E+00-1.99014E+02-4.73399E-13 9.76996E-15
 -1       449 8.95082E+02-1.35449E+02-1.03978E+01-2.90920E+02 3.15303E-13-2.37144E-13
 -1       450 4.77588E+02-1.26895E+02 2.35334E+00-3.21547E+02 8.88178E-14-9.00613E-13
 -1       451 2.40532E+03 2.84461E+02 1.11788E+02 9.51182E+00-1.59872E-14-4.08562E-13
 -1       452 9.32834E+02 1.11135E+02 2.58255E-01-1.13628E+02-4.42313E-13 2.69784E-13
 -1       453 8.05010E+02 1.24284E+02 1.70463E+00-9.59309E+01 8.55982E-14-2.17604E-14
 -1       454 8.83060E+02 1.33508E+02 1.52205E+00-6.89819E+01 3.50497E-13 7.58726E-13
 -1       455 1.03078E+03 5.07492E+01-7.38837E-01-1.05492E+02 4.17222E-13 3.68872E-13
 -1       456 9.89401E+02 6.74442E+01-6.39675E-01-1.58623E+02-4.98934E-13 4.55580E-13
 -1       457 9.89209E+02 8.25351E+01-4.35146E-01-1.25126E+02-5.38847E-13 9.32920E-13
 -1       458 1.09961E+03 2.64666E+01-2.65692E-01-1.58006E+02-3.16414E-13 3.55049E-13
 -1       459 1.08016E+03 1.07802E+01-1.95254E+00-7.07511E+01 5.93605E-13 2.40918E-13
 -1       460 1.23053E+03 6.45325E+00 2.24047E+00-1.02746E+02-4.56524E-13 2.86660E-13
 -1       461 1.14583E+03 8.22574E+00-5.29287E-01-9.08021E+01-9.92539E-14-6.19504E-13
 -1       462 8.56902E+02 6.43181E+01-1.52177E+00-1.95725E+02 1.88738E-13 5.12923E-13
 -1       463 7.04794E+02 9.78334E+01 1.54494E+00-1.36420E+02 5.40235E-13-4.88054E-13
 -1       464 1.26667E+03-2.65702E+01 3.56484E+00-1.49777E+02 3.16192E-13-2.85216E-13
 -1       465 1.34034E+03 3.75761E+00 7.21434E+00-9.55207E+01 6.03961E-14 4.69846E-13
 -1       466 1.02709E+03-1.77540E+00-6.90279E-01-2.20994E+02-2.70450E-13 3.41283E-13
 -1       467 9.97002E+02 4.33993E+01-9.90377E-01-1.93775E+02 2.05613E-13-5.01932E-13
 -1       468 1.13215E+03-8.29505E+01 1.22315E+00-2.15875E+02-4.26326E-13-4.19664E-14
 -1       469 1.03768E+03 1.67515E+01-1.80824E+00-4.71933E+01-5.26468E-13-7.68940E-13
 -1       470 1.00559E+03 2.21132E+01-2.08953E+00-1.56268E+01 2.71783E-13-4.65517E-13
 -1       471 1.00141E+03 6.74802E+01-7.67233E-01-3.04018E+01-3.91687E-13 3.10946E-13
 -1       472 1.52205E+03-7.41348E+00 1.42218E+01-3.12276E+01-6.12843E-14 8.88178E-15
 -1       473 1.53059E+03-2.80192E+01 9.07081E+00 4.74411E+01 6.77236E-13 9.38138E-14
 -1       474 9.97280E+02 1.45735E+02 2.13398E+00-2.84804E+01-4.10338E-13 1.28475E-12
 -1       475 9.95321E+02 1.43346E+02 2.02238E+00-5.00692E+01-1.38467E-12-1.03784E-12
 -1       476 9.94773E+02 1.83052E+02 3.35583E+00-2.48266E+01-3.11751E-13-9.09939E-13
 -1       477 9.99573E+02 9.93701E+01 3.52903E-01-2.48025E+01 1.14708E-12-3.98737E-13
 -1       478 1.00103E+03 1.07082E+02 9.71302E-01-4.99226E+01 1.11333E-12-6.78346E-13
 -1       479 1.00629E+03 7.30255E+01-6.90957E-01-6.10227E+01 1.74971E-13 3.81806E-13
 -1       480 1.00528E+03 8.24449E+01 1.63260E-01-8.35553E+01-8.61977E-13-9.95870E-13
 -1       481 9.93812E+02 1.10459E+02-5.28483E-02-7.15924E+01 2.17826E-13-9.70557E-13
 -1       482 9.81332E+02 1.13816E+02 5.82725E-01-8.67278E+01 3.29958E-13-8.84626E-13
 -1       483 9.77281E+02 1.38387E+02 2.46465E-01-6.32762E+01-3.60156E-13 4.82281E-13
 -1       484 9.92291E+02 2.06283E+02 3.81657E+00-1.43910E+01-2.92655E-13-1.76748E-13
 -1       485 9.84923E+02 1.79843E+02 3.24653E+00-1.40302E+01-4.72289E-13-5.45342E-13
 -1       486 9.89335E+02 1.68295E+02 2.78316E+00-3.70735E+01 2.07834E-13-3.09086E-13
 -1       487 9.54305E+02 1.35975E+02 8.13950E-01-6.51180E+01-1.95954E-13-9.86766E-13
 -1       488 9.62747E+02 1.55420E+02 3.07701E-01-3.70178E+01 5.38458E-14-3.79252E-13
 -1       489 9.33778E+02 1.47138E+02 1.00586E+00-2.46834E+01 1.08624E-12 4.76952E-13
 -1       490 1.62368E+03-3.73201E+01 5.08808E+00 2.00389E+02-5.15143E-13 8.17124E-14
 -1       491 1.43879E+03 3.52486E+01 8.79972E-01 2.14594E+02-7.03437E-13-7.37188E-14
 -1       492 1.55498E+03 1.30948E+02-2.72164E-01 1.75943E+02-4.40536E-13-1.38556E-13
 -1       493 1.81078E+03 7.50697E+01 1.31029E+01 1.64745E+02-6.03961E-14-1.35003E-13
 -1       494 1.35139E+03-1.23477E+01-7.44742E+00 1.49171E+02 1.04805E-12 3.62377E-13
 -1       495 1.14145E+03 3.02475E+01-2.62195E+01 1.06930E+02-4.76064E-13 2.46914E-13
 -1       496 1.29490E+03 7.70564E+01-1.43040E+01 9.00885E+01-6.82121E-13-3.99680E-13
 -1       497 1.73506E+03 2.71911E+02 1.85075E+01 1.00233E+02 3.83693E-13 5.36460E-13
 -1       498 1.24750E+03-2.31237E+02 5.05787E+00-2.01476E+02-3.12639E-13 1.39444E-13
 -1       499 1.41648E+03-1.86847E+02 1.97664E+00-3.31564E+01 1.06581E-13-3.33067E-13
 -1       500 1.52643E+03-2.23672E+02 7.22954E+00 1.23356E+01 2.52243E-13 7.38964E-13
 -1       501 1.26143E+03-3.45576E+02-1.89252E+01-1.95664E+02 1.06581E-14 3.57048E-13
 -1       502 1.34627E+03-1.21734E+02 3.03746E+00-1.00180E+02 2.94875E-13-4.93827E-13
 -1       503 1.47131E+03-4.61750E+01 1.02831E+01 1.20137E+01 8.34888E-14 5.62217E-13
 -1       504 1.49718E+03-1.00221E+02 2.53517E+00 9.55913E+01-4.36984E-13-2.63789E-13
 -1       505 1.42450E+03 3.06657E+00 3.76257E+00 7.56104E+01 9.80549E-13-2.43361E-13
 -1       506 1.54221E+03-8.22506E+01 8.59025E+00 1.75325E+02 3.15303E-14 3.51719E-13
 -1       507 1.61666E+03-2.18129E+02-4.73910E+00 1.34699E+01 2.62901E-13-1.13687E-13
 -1       508 1.83032E+03-3.44673E+01 4.17191E+01-2.31312E+01-1.56319E-13-1.56319E-13
 -1       509 1.09532E+03-2.44317E+02-7.23617E+01-3.34276E+02-1.49214E-13-1.00897E-12
 -1       510 1.35023E+03-2.76466E+02 2.51332E+01-2.12345E+02 2.27374E-13 8.38440E-13
 -1       511 1.39874E+03 2.38062E+02 8.73242E+01-3.97046E+02-9.94760E-14 1.42109E-13
 -1       512 4.92249E+02-3.72549E+02-2.20670E+01-1.16930E+02-5.82645E-13-8.17124E-13
 -1       513 6.99371E+01-8.54434E+02-9.31834E+01-8.78229E+01 9.37916E-13 2.34479E-13
 -1       514 4.75609E+02-3.66243E+02-5.62632E+01-3.20416E+02-5.25802E-13-1.73195E-13
 -1       515 8.19792E+02-3.07398E+02-2.03950E+00-3.12309E+02-2.91323E-13 2.02505E-13
 -1       516 1.75391E+02-2.06481E+02-2.94569E+01-1.44302E+02 1.03029E-13 1.23634E-12
 -1       517 4.28424E+02-1.94796E+02 1.29811E+01-3.26748E+02 2.41585E-13-1.05871E-12
 -1       518 4.54026E+02 2.08704E+01-4.20322E+00-1.04803E+02-2.09610E-13-1.03029E-12
 -1       519 5.26226E+02-4.70516E+01-9.79065E-01-2.47548E+02-4.12115E-13-4.29878E-13
 -1       520 7.15497E+02 1.22295E+01 5.31559E-01-2.27475E+02-2.87770E-13 2.16716E-13
 -1       521 8.74932E+02-6.08986E+01 3.50193E-01-2.70279E+02 4.26326E-13-9.38805E-13
 -1       522 7.37509E+02-1.12229E+02 1.07392E+01-3.14726E+02 2.55795E-13-8.98837E-13
 -1       523 1.00089E+03-2.34388E+02-7.96778E+00-2.86460E+02-7.81597E-14 8.88178E-14
 -1       524 1.94044E+03 3.36209E+01-5.70388E+00-1.74930E+02 6.29718E-13-8.52651E-14
 -1       525 2.49491E+03 3.13991E+02 1.17201E+02-4.25688E+02 3.28626E-13 1.42109E-13
 -1       526 2.00842E+03 2.29062E+02 2.91592E+01 8.29721E+01 2.13163E-14 5.68434E-14
 -1       527 2.33601E+03 4.03654E+02 7.60314E+01 6.99036E+00 3.83693E-13-2.23821E-13
 -1       528 9.49251E+02 1.16772E+02-1.84880E-01-9.61200E+01-4.30100E-13-6.15064E-13
 -1       529 9.06673E+02 1.22163E+02 4.97262E-01-9.20156E+01 9.21263E-13 1.37756E-12
 -1       530 9.12082E+02 1.36260E+02 1.07793E-01-5.74321E+01 9.65894E-13 3.32179E-13
 -1       531 9.14292E+02 1.02951E+02-3.20427E-01-1.30161E+02-2.98428E-13 1.74794E-12
 -1       532 8.48354E+02 1.09559E+02 3.08488E-01-1.24046E+02-2.15383E-13-3.91687E-13
 -1       533 8.43431E+02 1.28018E+02 2.90180E-01-8.07810E+01 3.43281E-13-5.24025E-14
 -1       534 7.66932E+02 1.27574E+02 2.69065E-01-4.92353E+01-3.25295E-13 3.89022E-13
 -1       535 8.62388E+02 1.36492E+02 5.89613E-01-3.52942E+01 6.15064E-14 1.93623E-13
 -1       536 9.63778E+02 9.82453E+01 5.29661E-01-1.20470E+02-1.44618E-12 1.17328E-12
 -1       537 9.89331E+02 7.38016E+01-7.39464E-01-1.40566E+02-8.25118E-13 1.23457E-13
 -1       538 9.46219E+02 8.32957E+01 3.78744E-01-1.55458E+02-4.66294E-14-7.77156E-13
 -1       539 9.91180E+02 8.90039E+01-5.01063E-01-1.06915E+02-9.19639E-13 1.07292E-12
 -1       540 1.02154E+03 5.64958E+01-6.83637E-01-8.98738E+01 3.15303E-14-7.10543E-15
 -1       541 1.01438E+03 6.87892E+01 4.64326E-01-1.16420E+02-3.80695E-13 4.75120E-13
 -1       542 1.04388E+03 4.28755E+01-1.05088E+00-1.17661E+02 7.13651E-13-3.35953E-13
 -1       543 1.02908E+03 5.58478E+01 4.72694E-01-1.46273E+02 9.42801E-13-1.09419E-12
 -1       544 1.12875E+03 1.32417E+01-6.94233E-01-1.63822E+02 2.78888E-13 1.95399E-14
 -1       545 1.13178E+03 2.24661E+01 1.58564E+00-1.26525E+02 5.84421E-13-4.78284E-13
 -1       546 1.18610E+03 2.26128E+00-7.63327E-01-9.54083E+01-9.36140E-13-8.88178E-15
 -1       547 1.20255E+03 1.13264E+01 2.59924E+00-1.38880E+02-3.25073E-13 6.03961E-13
 -1       548 1.07778E+03 3.02269E+01-1.10529E+00-1.43643E+02 1.60760E-13 1.86295E-13
 -1       549 1.07795E+03 2.98403E+01 9.77946E-01-1.03401E+02-3.27294E-13-7.00773E-13
 -1       550 1.11162E+03 6.28912E+00-1.93408E+00-7.98467E+01 5.31575E-13-9.64562E-13
 -1       551 1.07143E+03 8.11762E+00-5.92229E-01-3.66469E+01 9.67448E-13-1.06581E-13
 -1       552 1.14790E+03 8.20844E+00 2.19835E+00-4.86181E+01-1.28164E-12-1.85629E-13
 -1       553 1.24735E+03 8.16042E+00 6.06223E+00-5.60332E+01 1.53211E-13-1.07381E-12
 -1       554 6.39277E+02 1.00541E+02 8.92407E-02-7.05041E+01-1.20348E-13 2.23821E-13
 -1       555 6.44799E+02 7.02924E+01 9.86417E-01-1.62752E+02 1.03029E-13-2.13163E-14
 -1       556 7.55843E+02 1.12789E+02 6.29794E-01-1.13411E+02 1.38556E-13 1.49214E-13
 -1       557 8.77975E+02 8.18593E+01-3.66171E-01-1.70436E+02 4.17444E-13-4.49418E-13
 -1       558 7.81405E+02 8.08854E+01 3.60249E-01-1.67441E+02 4.60076E-13-6.39488E-13
 -1       559 8.50667E+02 3.38061E+01-6.38287E-01-2.19180E+02 5.86198E-14 9.62785E-13
 -1       560 1.36874E+03 7.70484E+00 1.21154E+01-5.37991E+01 4.43201E-13 2.30926E-13
 -1       561 1.28153E+03-3.42305E+00 1.36044E+00-9.80595E+01 2.66454E-14-3.27738E-13
 -1       562 1.49285E+03 5.63756E+00 1.98235E+01-3.93267E+01 6.32383E-13 4.88498E-13
 -1       563 1.39235E+03-1.33351E+01 4.38116E+00-8.07919E+01 2.20268E-13 4.45866E-13
 -1       564 1.41645E+03-3.95253E+01 4.55528E+00-7.24174E+01-2.13163E-13-1.10578E-12
 -1       565 1.32316E+03-5.35392E+01 1.27875E+00-1.14411E+02 3.64153E-13-4.58744E-13
 -1       566 1.30547E+03-7.68988E+00 4.65939E+00-1.23908E+02 1.52767E-13-3.77476E-13
 -1       567 1.21004E+03-1.53992E+01 3.16262E-01-1.61435E+02 3.69482E-13 7.11431E-13
 -1       568 1.05508E+03 3.74262E+01 5.95222E-01-1.76800E+02 1.66089E-13 1.78579E-13
 -1       569 9.93476E+02 5.50387E+01-8.67812E-01-1.74618E+02 1.13687E-13-4.11671E-13
 -1       570 1.10021E+03 3.31374E+00 5.04416E-01-1.96328E+02-2.93099E-13 1.48229E-13
 -1       571 1.01207E+03 2.10918E+01-7.73517E-01-2.06064E+02-6.75016E-14 3.60600E-13
 -1       572 9.42647E+02-1.34887E-01 1.61136E-01-2.34269E+02 1.98952E-13 6.11955E-13
 -1       573 9.34037E+02 5.56480E+01 2.02555E-01-1.95064E+02-1.65201E-13-6.81233E-13
 -1       574 1.20862E+03-1.37537E+02-3.52003E-01-1.82935E+02-5.11591E-13 1.08802E-13
 -1       575 1.20355E+03-5.48731E+01 1.48794E+00-1.81525E+02-5.86198E-14-5.98854E-13
 -1       576 1.03307E+03-1.07546E+02-1.80264E+00-2.48683E+02-7.10543E-15-1.11200E-12
 -1       577 1.07409E+03-4.60035E+01-1.26657E+00-2.19906E+02-3.71259E-13 6.03961E-13
 -1       578 1.02244E+03 6.58871E+00-2.98914E+00-2.03131E+01-1.01763E-12-2.70006E-13
 -1       579 1.02350E+03 2.07741E+01-9.32824E-01-3.39690E+01 3.02869E-13-5.46230E-13
 -1       580 1.00069E+03 2.96746E+00-3.91743E+00-3.74705E+00 8.26006E-13-7.56284E-13
 -1       581 1.05802E+03 1.20005E+01-2.13836E+00-5.87097E+01-5.86975E-13 1.02052E-12
 -1       582 1.04129E+03 3.71615E+01 3.36302E-01-7.83560E+01 7.33413E-13-2.76890E-13
 -1       583 1.01252E+03 4.32476E+01-1.27584E+00-4.84040E+01 4.87610E-13 8.81739E-13
 -1       584 1.00101E+03 7.35525E+00-4.53030E+00-5.77888E+00 1.08069E-12-3.85403E-12
 -1       585 1.00734E+03 3.50396E+01-1.37181E+00-2.53134E+01 2.18980E-12-1.40110E-12
 -1       586 1.00283E+03 3.38241E+01-3.13007E+00-1.71871E+01-1.27454E-13 8.17124E-13
 -1       587 1.01046E+03 2.44777E+01-1.05160E-01-1.85659E+01 2.90434E-13 1.55453E-12
 -1       588 1.01269E+03 5.99801E+01 6.91267E-01-5.70503E+01-1.57652E-13-1.54354E-12
 -1       589 1.00239E+03 7.71756E+01-2.32182E-01-3.75293E+01 1.06182E-12 1.71263E-12
 -1       590 1.00222E+03 5.74775E+01-1.60610E+00-3.39454E+01-2.44338E-12 1.48215E-12
 -1       591 1.00046E+03 6.36702E+01-1.72041E+00-1.61895E+01 1.82077E-13-2.08500E-13
 -1       592 1.48642E+03-7.63821E+00 1.20827E+01-4.36099E+01-2.18492E-13-3.93463E-13
 -1       593 1.51105E+03-6.13936E+00 1.36217E+01-1.93626E+01-8.52651E-14-2.88658E-13
 -1       594 1.43959E+03-5.20436E+01 2.27427E+00-4.07625E+01 8.70415E-14 1.59872E-14
 -1       595 1.57672E+03 2.85098E+00 2.59468E+01-1.58905E+01-6.25278E-13-3.70370E-13
 -1       596 1.58749E+03-4.95405E+00 2.51432E+01 6.81984E+00-1.70530E-13-1.94844E-14
 -1       597 1.55853E+03 1.51121E+01 2.88683E+01 4.36245E+01 1.43707E-12-2.50466E-13
 -1       598 1.52097E+03-3.97989E+01 5.05863E+00 1.98432E+01 1.05338E-12 7.06102E-14
 -1       599 1.51385E+03-4.08144E+01 4.82755E+00 5.81594E+01 1.32694E-12 7.94920E-14
 -1       600 1.07036E+03-3.56823E+00-1.52824E+00-2.10635E+02 3.59712E-14-7.66609E-14
 -1       601 1.07854E+03 3.32060E+01 5.19912E-01-1.35822E+02 1.77858E-13-4.34652E-13
 -1       602 1.00497E+03 8.50147E+01 3.35481E-01-7.18213E+01-1.02918E-13 5.50393E-13
 -1       603 1.64508E+03-6.22085E+01 6.54042E+00 2.15771E+02-2.91323E-13 3.41949E-13
 -1       604 9.68484E+02 1.11598E+02 7.59710E-01-1.00619E+02-5.76664E-13-2.61569E-13
 -1       605 8.85591E+02 9.60826E+01-4.34409E-01-1.49605E+02 7.45626E-13-6.19949E-13
 -1       606 1.03158E+03 3.49065E+01-6.60706E-01-6.70540E+01 3.92686E-13 3.09308E-13
 -1       607 7.37170E+02-1.93004E+02-5.70499E+00-3.42521E+02-1.70530E-13 5.55112E-13
 -1       608 1.34712E+03-1.76572E+02-2.86785E+00-9.52467E+01-6.03961E-14-2.71561E-13
 -1       609 7.68421E+02 1.84639E+01-1.45583E+00-2.31365E+02 2.35811E-13 2.30926E-13
 -1       610 9.89521E+02 1.46607E+02 2.10305E+00-5.52688E+01-1.56763E-13 7.44294E-13
 -1       611 9.39249E+02 1.40359E+02 1.71568E+00-5.97113E+01 1.02703E-13 7.54952E-13
 -1       612 9.85909E+02 1.73404E+02 3.79915E+00-3.12622E+01-2.01228E-13 2.22933E-13
 -1       613 1.10633E+03-2.51464E+02-1.44354E+01-2.59842E+02 3.21521E-13 4.12170E-14
 -1       614 1.52290E+03-1.95319E+02 5.00590E+00 6.40937E+01 1.29230E-13 3.96128E-13
 -1       615 1.76465E+03-1.56129E+02 9.17136E+00-8.86953E+01-1.50990E-14 6.03961E-14
 -1       616 7.80051E+02-4.33535E+02-2.65098E+01-3.47550E+02 4.61853E-13 1.70530E-13
 -1       617 1.31214E+03-3.18641E+02-1.17153E+01-1.75985E+02 2.66454E-14 2.93987E-13
 -1       618 1.00606E+03 7.15482E+01 5.76840E-01-1.32391E+02 8.30447E-14-1.49214E-13
 -1       619 9.93834E+02 1.00030E+02 8.15696E-01-9.17049E+01 5.33240E-13-1.66533E-15
 -1       620 1.01731E+03 5.89809E+01 1.05373E-01-7.33632E+01 2.80220E-13 7.36355E-13
 -1       621 1.05650E+03 3.48859E+01 1.58999E-01-1.02542E+02 3.85275E-13 1.26787E-13
 -1       622 1.01973E+03 6.63853E+01 9.91812E-01-1.04763E+02-5.61642E-13 1.91919E-13
 -1       623 1.68040E+03 1.68258E+02 1.15760E+01 2.11125E+02 2.70006E-13-1.89182E-13
 -1       624 2.23954E+03 2.52587E+02 7.60091E+01 8.44021E+01-1.06581E-13 4.26326E-14
 -1       625 7.90495E+02 1.21284E+02-1.66677E+00-9.45376E+01-1.99840E-15 4.79172E-13
 -1       626 9.36495E+02 1.06424E+02 1.55888E+00-1.24727E+02 2.88658E-13-3.49276E-13
 -1       627 8.80377E+02 1.32703E+02 2.12991E+00-7.61322E+01-2.14828E-14 1.07470E-13
 -1       628 1.17548E+03-8.91268E+01-4.31492E+00-1.96397E+02 2.49578E-13-1.17862E-13
 -1       629 7.41805E+02-6.78992E+01-3.04236E+00-2.83839E+02-7.54952E-14 3.13527E-13
 -1       630 9.31895E+02-1.16100E+00-3.53308E+00-2.35767E+02-2.02505E-13-4.67848E-13
 -1       631 9.82757E+02-1.00308E+02-5.88271E+00-2.65313E+02-2.22045E-13 5.71321E-13
 -1       632 1.04534E+03 7.25823E+00-2.85114E+00-4.34201E+01-6.14231E-13 9.57012E-14
 -1       633 1.00794E+03 3.39199E+01-2.38509E+00-3.50301E+01-1.28231E-13-4.68958E-13
 -1       634 1.01123E+03 8.33044E+00-3.65875E+00-1.67513E+01-4.64961E-13-6.05405E-13
 -1       635 1.43490E+03-8.40923E+00 2.41667E+00 2.21746E+02 9.85878E-14 9.20930E-14
 -1       636 1.30958E+03 4.45735E+01-1.50812E+01 1.73653E+02-5.77316E-13-2.09346E-13
 -1       637 1.15799E+03 7.05678E+00 2.78212E-01-9.51501E+01 3.05755E-13-7.84928E-13
 -1       638 1.09616E+03 7.45281E+00-1.33970E+00-7.04534E+01-2.47247E-13 2.64899E-13
 -1       639 1.28100E+03-1.14863E+01 2.01545E+00-1.36454E+02 2.11386E-13 7.61613E-14
 -1       640 1.47726E+03-4.99300E+01 1.07711E+01 1.04140E+01 3.28626E-14-2.89435E-13
 -1       641 1.38735E+03-3.47824E+01 5.50247E+00-8.96115E+01-3.47278E-13 4.11893E-13
 -1       642 1.08518E+03 2.80552E+01 1.08427E+00-1.75768E+02 1.32339E-13-8.03246E-14
 -1       643 1.22360E+03 5.21628E+00 2.03796E+00-1.23662E+02-9.32587E-15-8.10463E-14
 -1       644 9.47833E+02 5.02863E+01-8.82561E-01-1.98815E+02 4.21885E-14 1.90736E-13
 -1       645 9.87293E+02 6.83931E+01 1.35583E+00-1.64662E+02-3.24185E-14 3.22076E-13
 -1       646 1.49510E+03-4.67408E+01 1.06490E+01 1.35608E+02-8.79297E-14 1.48354E-13
 -1       647 6.92168E+02 1.06190E+02-7.44861E-02-1.14396E+02-4.30544E-13-6.02185E-13
 -1       648 8.09165E+02 7.17770E+01-5.05928E+00-1.83728E+02 3.07754E-13-6.66134E-15
 -1       649 4.37981E+02-5.87788E+01 2.46868E+00-2.25980E+02 2.62013E-13-3.69482E-13
 -1       650 2.22006E+02-4.14058E+02-4.30961E+01-3.05661E+02-6.05738E-13 5.09814E-13
 -1       651 1.00029E+03 9.89899E+01 2.72753E-01-4.30985E+01 2.34035E-13 4.20469E-13
 -1       652 1.00319E+03 6.26367E+01-1.55721E+00-4.32670E+01 4.10783E-14-5.03791E-13
 -1       653 9.97472E+02 1.28189E+02 1.81275E+00-5.42580E+01 1.98619E-13 1.00631E-12
 -1       654 5.85957E+02 6.18466E+01 5.55012E+00-1.53415E+02 3.23741E-13 1.68754E-14
 -1       655 9.91212E+02 2.02610E+02 3.27434E+00-1.64145E+01 4.21885E-13-1.84741E-13
 -1       656 9.83578E+02 1.77532E+02 2.99815E+00-1.56658E+01 1.49292E-12-1.82077E-13
 -1       657 9.93552E+02 1.75500E+02 2.61618E+00-2.91652E+01-4.26326E-14 4.90274E-13
 -1       658 9.87036E+02 1.59888E+02 2.32830E+00-4.35114E+01-9.33253E-13 5.67546E-13
 -1       659 9.76202E+02 1.24128E+02-1.37231E-01-7.73545E+01-9.59011E-13 3.02869E-13
 -1       660 9.51769E+02 1.25330E+02 5.30334E-01-8.12243E+01-6.40460E-13-1.24345E-14
 -1       661 9.59821E+02 1.50976E+02 4.82406E-01-4.48314E+01-4.88498E-14 7.33635E-13
 -1       662 9.30637E+02 1.44810E+02 9.08989E-01-3.02097E+01-5.90361E-14-3.05533E-13
 -1       663 9.47183E+02-2.15153E+02-3.01098E-01-3.03046E+02-4.61853E-13 7.10543E-15
 -1       664 1.22535E+03-2.88444E+02 5.53348E-01-2.24632E+02 3.51719E-13-4.39648E-13
 -1       665 1.15995E+03-3.31221E+02 1.40034E+01-2.84971E+02 8.10019E-13 2.85993E-13
 -1       666 7.60272E+02-3.08863E+02-5.20170E+00-3.47513E+02 9.94760E-14 6.41265E-13
 -1       667 1.25960E+03-1.98435E+02 2.38313E+00-1.71881E+02 5.40012E-13-1.39444E-13
 -1       668 1.42194E+03-2.04669E+02-4.16522E+00-2.41928E+01-2.30926E-14-6.39488E-13
 -1       669 1.45765E+03-2.55962E+02-1.66155E+00-4.30228E+01 3.48166E-13 2.41585E-13
 -1       670 1.56831E+03-1.57181E+02-4.39226E+00 1.30559E+02-3.81917E-14 8.31335E-13
 -1       671 1.74718E+03-8.89099E+01 1.23045E+01 8.63375E+01-5.32907E-15 2.34479E-13
 -1       672 1.48715E+03-3.37017E+02-2.50503E+01-1.15554E+02 3.90799E-13 1.56319E-13
 -1       673 1.37534E+03 1.24845E+02 3.32013E+01-3.16818E+02-4.83169E-13-8.95284E-13
 -1       674 6.22546E+02-2.27108E+02-4.59308E+01-3.27844E+02-8.52651E-14-3.90799E-13
 -1       675 1.03722E+03 4.95910E+01-2.92957E-01-1.35842E+02 9.17488E-13-2.11720E-13
 -1       676 1.01406E+03 7.04518E+01 9.70535E-01-1.18718E+02 1.25056E-12 1.78146E-12
 -1       677 1.03456E+03 4.91273E+01-3.31635E-01-1.04564E+02-1.12116E-12 7.31748E-13
 -1       678 1.06764E+03 3.55498E+01 5.84275E-01-1.18430E+02 1.85185E-13-1.23457E-13
 -1       679 9.82061E+02 8.90410E+01-3.10082E-01-1.17228E+02-7.80376E-13 3.71703E-13
 -1       680 9.82616E+02 1.06671E+02 8.91465E-01-9.62948E+01-4.89442E-13-7.82929E-13
 -1       681 1.00206E+03 8.12781E+01-4.33336E-01-9.89032E+01 1.84636E-12-3.31846E-13
 -1       682 1.00057E+03 9.37081E+01 6.37582E-01-8.22953E+01 3.84137E-13 7.17204E-13
 -1       683 1.00911E+03 7.09857E+01-4.71318E-01-7.29600E+01 8.14460E-13 1.95428E-12
 -1       684 1.01853E+03 6.33663E+01 2.46490E-01-8.92557E+01-2.94875E-13-1.17112E-12
 -1       685 1.02323E+03 4.65563E+01-5.97352E-01-7.04237E+01 4.94715E-13-9.29035E-13
 -1       686 1.04394E+03 3.57783E+01-1.27890E-01-8.43212E+01 3.81473E-13 4.95382E-13
 -1       687 1.91120E+03 7.50426E+00-7.73331E+00-3.52971E+01-5.77316E-13 2.27374E-13
 -1       688 2.40615E+03 2.82362E+02 8.90331E+01-3.63082E+02-1.66800E-12-1.42109E-13
 -1       689 1.66909E+03 5.20519E+01 7.56100E+00 2.10288E+02 2.52243E-13-2.16716E-13
 -1       690 1.88567E+03 1.95641E+02 1.78021E+01 1.28626E+02 4.97380E-13-2.84217E-14
 -1       691 1.66112E+03 2.41670E+02 1.15145E+01 1.06196E+02 9.23706E-14-1.52767E-13
 -1       692 2.26651E+03 3.96175E+02 6.85141E+01 3.11830E+01 1.91847E-13-6.67910E-13
 -1       693 8.40802E+02 1.10235E+02 4.77897E-01-1.23766E+02 6.00409E-13 1.04805E-13
 -1       694 8.39398E+02 1.27601E+02 6.43201E-01-8.41634E+01-2.56684E-13 1.32516E-12
 -1       695 9.04479E+02 1.17609E+02 4.93511E-01-1.01753E+02-7.03881E-13 1.85629E-13
 -1       696 9.13103E+02 1.03496E+02 1.21662E+00-1.35798E+02 6.56364E-13-1.40954E-12
 -1       697 7.60178E+02 1.27531E+02-9.11334E-01-4.89705E+01-4.68958E-13 1.40332E-13
 -1       698 8.59336E+02 1.35628E+02 5.59589E-01-3.87043E+01 2.60902E-14 1.42997E-13
 -1       699 9.09175E+02 1.34178E+02 7.11456E-01-6.72646E+01-2.94764E-13 5.32907E-14
 -1       700 9.53066E+02 1.09416E+02 1.07639E+00-1.11979E+02-6.97220E-14 7.90923E-13
 -1       701 1.12166E+03-4.26104E+01-1.18256E+00-2.04985E+02 3.90799E-14 5.06151E-13
 -1       702 1.09397E+03-9.12678E+01-6.70773E-01-2.29453E+02-5.79092E-13-2.62013E-13
 -1       703 9.62434E+02-4.39993E+01-8.64553E-01-2.48748E+02-3.01981E-13 4.49418E-13
 -1       704 1.01219E+03 2.12455E+00 1.07430E+00-2.23030E+02-1.17240E-13-1.84741E-13
 -1       705 1.26013E+03-1.33733E+02-1.63461E+00-1.51253E+02 7.10543E-15-1.89182E-13
 -1       706 1.04996E+03-1.69139E+02-3.62828E+00-2.61954E+02 1.20792E-13 8.09131E-13
 -1       707 7.46233E+02-1.10922E+02 3.11910E+00-3.04296E+02-1.27898E-13-3.81917E-13
 -1       708 8.73108E+02-8.29626E+01-1.56601E+00-2.77350E+02 3.41061E-13 6.27054E-13
 -1       709 7.64544E+02-1.13026E+01 3.74490E+00-2.51972E+02 3.99680E-13 7.19425E-13
 -1       710 8.60792E+02 1.14201E+01 6.18950E-01-2.36165E+02-1.56319E-13-9.66338E-13
 -1       711 1.04711E+03 3.40976E+00-2.97032E+00-2.32161E+01-1.46472E-12 1.62714E-12
 -1       712 1.02910E+03 9.62154E+00-2.04255E+00-2.99056E+01-6.62359E-13 6.19504E-13
 -1       713 1.00833E+03 4.30246E+00-3.75830E+00-7.76002E+00-2.41807E-13-4.05009E-13
 -1       714 1.04023E+03 2.19627E+01-9.04693E-01-5.53711E+01 5.77982E-13 3.90354E-13
 -1       715 1.02072E+03 3.66228E+01-5.79821E-01-5.05232E+01 1.54987E-13-2.17604E-14
 -1       716 1.01116E+03 2.17145E+01-2.19680E+00-2.61881E+01 5.52447E-13-6.50147E-13
 -1       717 1.00447E+03 2.90226E+01-2.43132E+00-1.77304E+01-6.07070E-13-5.38902E-13
 -1       718 1.00548E+03 5.98661E+00-3.08132E+00-6.67622E+00-8.52651E-14-8.49765E-13
 -1       719 1.11781E+03 2.40888E+01-2.98942E+01 1.00411E+02-1.25056E-12-3.16192E-13
 -1       720 1.37065E+03 1.57128E+01-8.08577E+00 1.93815E+02-3.44613E-13-1.04916E-13
 -1       721 1.32508E+03-5.27425E+00-8.57103E+00 1.29589E+02-2.30926E-14 3.03757E-13
 -1       722 1.26600E+03 6.67709E+01-1.70283E+01 8.55256E+01-4.83169E-13-1.07261E-13
 -1       723 1.48474E+03 1.05426E+02-1.98181E+00 1.82698E+02 1.91847E-13-2.13163E-14
 -1       724 1.53395E+03-3.26949E+01 2.10992E+00 2.11102E+02 3.64153E-13 1.11910E-13
 -1       725 1.07136E+03 9.23491E+00-9.57257E-01-5.56814E+01-6.30385E-13 3.74811E-13
 -1       726 1.07615E+03 2.06101E+01-6.09134E-01-8.70322E+01-1.07470E-13-1.58096E-13
 -1       727 1.11253E+03 2.13282E+00-1.16272E+00-3.82651E+01-3.31901E-13-1.14841E-12
 -1       728 1.19840E+03 7.45434E-01 1.45560E+00-5.19403E+01-1.28786E-13 1.96287E-13
 -1       729 1.12745E+03 9.70291E+00 5.15508E-01-8.09576E+01-1.33227E-13-5.14255E-13
 -1       730 1.11569E+03 1.83637E+01-3.43326E-01-1.16376E+02 4.59632E-13-9.79661E-13
 -1       731 1.28603E+03-6.34138E+01 8.04447E-01-1.39948E+02 4.15668E-13-1.96954E-13
 -1       732 1.43008E+03-4.62364E+01 5.45218E+00-4.41022E+01-2.38032E-13 1.66089E-13
 -1       733 1.41684E+03-1.13650E+02 2.99403E+00-3.61949E+01-1.81188E-13-5.81757E-14
 -1       734 1.17495E+03-1.20495E+01-4.80738E-01-1.74520E+02 2.20268E-13-2.05835E-13
 -1       735 1.33215E+03-2.10121E+01 3.38841E+00-1.14098E+02-1.22569E-13-3.43281E-13
 -1       736 1.38973E+03-8.42761E+00 5.84552E+00-7.30601E+01 3.05533E-13 1.38112E-12
 -1       737 1.49208E+03-1.81405E+01 9.92732E+00-4.48220E+01-1.30562E-12-7.72715E-14
 -1       738 1.54202E+03-2.52426E+01 1.22086E+01 1.16234E+01 3.51719E-13 9.68670E-14
 -1       739 1.19185E+03 9.72110E+00 2.12922E+00-1.07403E+02 3.24185E-13 2.27374E-13
 -1       740 1.14966E+03 1.27714E+01-9.63830E-02-1.50952E+02-1.52767E-13-2.76223E-13
 -1       741 1.08330E+03 3.42715E+01 1.17503E+00-1.54754E+02 4.10338E-13 1.82077E-14
 -1       742 1.29511E+03-1.38069E+00 3.77215E+00-6.75076E+01 5.50671E-14-4.27214E-13
 -1       743 1.25389E+03 1.72817E+00 3.10293E+00-1.28500E+02 6.39488E-14 6.36824E-13
 -1       744 1.08181E+03 1.99473E+01 1.64652E+00-1.91173E+02-9.76996E-14 1.84089E-13
 -1       745 9.98027E+02 7.29416E+01 1.48549E+00-1.47836E+02-9.04166E-13-2.00928E-12
 -1       746 9.53533E+02 8.25742E+01-8.05885E-01-1.46480E+02 1.29052E-12-5.44453E-13
 -1       747 1.02715E+03 4.22722E+01-1.22323E+00-1.73288E+02-9.82325E-13 5.86198E-14
 -1       748 1.00084E+03 1.80004E+01-3.00328E+00-2.07171E+02 3.74811E-13 8.88623E-13
 -1       749 9.71247E+02 6.65080E+01 2.27387E+00-1.79957E+02 8.75744E-13 4.96492E-13
 -1       750 9.08766E+02 7.11621E+01-1.90300E+00-1.75417E+02 4.38760E-13 4.66294E-13
 -1       751 1.48723E+03-2.39314E+01 6.69943E+00 8.21842E+01-9.62341E-13-1.43885E-13
 -1       752 1.48346E+03-5.81347E+01 6.44783E+00 6.53686E+01-3.09086E-13-8.73523E-13
 -1       753 1.46150E+03-3.99886E+01 1.73319E+00 1.71010E+02-1.54987E-13 2.88769E-13
 -1       754 1.50858E+03-1.21424E+02 4.11968E+00 1.01305E+02-3.33955E-13 5.44453E-13
 -1       755 7.95034E+02 9.91237E+01-2.49824E+00-1.37205E+02 3.12639E-13 5.06262E-14
 -1       756 7.55860E+02 9.04508E+01-3.55669E-01-1.53358E+02-9.94760E-14-8.66862E-13
 -1       757 7.06211E+02 1.16882E+02-1.98335E+00-5.70661E+01-5.07594E-13 5.91527E-13
 -1       758 8.90869E+02 6.55941E+01 1.58959E+00-1.92786E+02 4.05009E-13 8.05578E-13
 -1       759 8.62694E+02 3.46654E+01-4.11619E+00-2.12703E+02 3.55271E-13-4.06786E-13
 -1       760 7.11145E+02 5.45875E+01-5.00762E+00-1.78867E+02 2.85993E-13-9.52127E-13
 -1       761 3.61960E+02-3.65964E+01-9.60969E+00-1.17668E+02 1.20792E-13 9.37916E-13
 -1       762 3.49625E+02-1.55469E+02 3.56436E+00-2.38670E+02-1.63425E-13-9.73444E-13
 -1       763 4.19172E+01-3.66754E+02-5.14312E+01-1.56442E+02 1.49569E-12-7.38964E-13
 -1       764 5.45475E+02-1.53649E+02-1.47627E+01-2.98396E+02 2.20268E-13 2.52243E-13
 -1       765 4.83171E+02-3.81882E+02-1.01555E+01-3.32153E+02-1.15108E-12 1.88294E-13
 -1       766 1.21576E+02-5.34772E+02-4.54730E+01-8.74189E+01-6.60805E-13 9.94760E-14
 -1       767 1.01015E+03 6.21278E+01-3.45056E-01-5.78370E+01 1.13687E-13 1.10556E-12
 -1       768 1.00592E+03 4.84436E+01-1.60643E+00-3.90938E+01-6.98996E-13-4.06120E-13
 -1       769 1.00182E+03 9.09464E+01-1.49877E-01-5.72415E+01 1.02585E-13 2.71960E-12
 -1       770 1.00200E+03 8.06093E+01-4.47749E-01-4.29042E+01-1.03739E-12 2.59704E-13
 -1       771 9.99720E+02 1.06416E+02 6.90843E-01-2.28375E+01 2.16716E-13-6.40599E-14
 -1       772 1.00178E+03 6.31168E+01-1.34542E+00-2.28060E+01-8.34000E-13 1.43285E-12
 -1       773 9.94852E+02 1.37910E+02 2.04640E+00-5.52294E+01-3.46390E-13 6.27942E-13
 -1       774 9.93085E+02 1.09638E+02-3.68178E-01-7.23485E+01 5.38014E-13 1.70530E-12
 -1       775 9.97488E+02 1.45534E+02 2.06864E+00-2.89961E+01 4.58744E-13 4.36540E-13
 -1       776 1.00050E+03 1.14524E+02 1.39582E+00-4.87157E+01 1.55742E-12 1.59384E-12
 -1       777 6.47977E+02 9.55493E+01 6.15042E+00-1.29203E+02-2.18492E-13-8.43769E-13
 -1       778 5.66496E+02 7.43915E+01-2.84154E+00-7.96307E+01 2.40696E-13-8.52651E-14
 -1       779 6.36435E+02-1.70795E+01-5.13095E+00-2.29947E+02-1.47438E-13 8.20677E-13
 -1       780 5.16098E+02 1.92887E+01 6.35970E+00-1.82193E+02 4.67182E-13 7.63833E-13
 -1       781 7.73770E+02-1.57186E+02-3.91860E+00 3.31288E+02 2.13163E-14 3.39284E-13
 -1       782 8.57056E+02 6.88145E+01 6.62286E-01 1.92523E+02 5.01821E-14 1.13243E-13
 -1       783 1.63457E+03-7.09001E+01 5.73330E+00-2.13279E+02 5.99520E-14-3.38396E-13
 -1       784 1.15899E+03-1.37243E+01-2.63096E+00 1.83708E+02-3.49054E-13 1.72640E-13
 -1       785 1.03164E+03 3.49976E+01-7.60409E-01 6.79520E+01 1.44829E-13 9.23039E-13
 -1       786 9.66977E+02 1.09051E+02 7.69086E-01 1.05069E+02-2.08999E-14-3.27294E-13
 -1       787 1.08424E+03 2.86186E+01-7.11506E-01 1.35494E+02-1.01497E-12 1.98175E-13
 -1       788 1.34330E+03-1.56232E+02-3.91472E+00 9.36583E+01-3.33067E-13-6.04405E-13
 -1       789 1.00518E+03 8.47336E+01 3.52683E-01 7.25037E+01-2.47691E-13-1.05260E-12
 -1       790 9.22081E+02 9.73733E+01 1.44412E+00 1.45230E+02 5.64437E-13-3.88800E-13
 -1       791 9.96724E+02 1.44859E+01-2.57988E+00 2.17703E+02-1.01696E-13-1.49436E-13
 -1       792 1.11942E+03 1.64289E+01-1.09612E+00 1.65860E+02-1.15463E-13 1.43674E-12
 -1       793 1.00795E+03 6.75577E+01-1.34418E-01 1.36300E+02 9.69558E-13-6.14397E-13
 -1       794 1.00267E+03 5.36213E+01-3.49767E-01 1.78143E+02-2.95097E-13 1.89293E-13
 -1       795 1.67549E+03 1.61224E+02 1.09328E+01-2.15258E+02 1.79412E-13-8.08242E-14
 -1       796 1.43376E+03-9.04183E+00 2.40463E+00-2.20106E+02-1.20792E-13 4.24105E-14
 -1       797 1.30833E+03 4.39303E+01-1.50828E+01-1.75385E+02 8.52651E-14 3.95767E-13
 -1       798 1.50642E+03-1.87980E+02 3.83807E+00-5.98629E+01-4.34319E-13 7.54952E-15
 -1       799 1.11357E+03-2.26201E+02-1.43788E+01 2.49944E+02 4.35207E-13 2.98983E-13
 -1       800 8.22557E+02-4.23702E+02-2.05432E+01 3.56657E+02 2.23821E-13-4.85390E-13
 -1       801 1.75472E+03-1.63784E+02 8.78113E+00 8.24119E+01-7.28306E-14 5.08038E-13
 -1       802 1.30846E+03-3.11356E+02-1.05326E+01 1.74386E+02 5.15143E-14-4.02345E-13
 -1       803 9.37557E+02 1.39504E+02 1.93164E+00 6.15088E+01-5.98133E-15 2.72227E-13
 -1       804 9.88569E+02 1.44270E+02 1.99855E+00 5.75076E+01-3.35731E-13-5.06928E-13
 -1       805 9.85171E+02 1.72092E+02 3.75210E+00 3.20095E+01-8.93119E-13-3.53717E-13
 -1       806 4.69461E+02-4.56527E+01 2.61935E+00 2.30617E+02-1.35003E-13 1.08358E-12
 -1       807 2.45829E+02-3.79137E+02-3.65121E+01 3.18376E+02-5.34683E-13-6.91003E-13
 -1       808 7.64519E+02 1.17276E+02 3.20763E+00 1.10212E+02 2.12719E-13 9.54792E-14
 -1       809 8.65303E+02 1.30561E+02 2.53857E+00 8.31228E+01-2.81442E-13-6.75238E-13
 -1       810 2.22704E+03 2.48988E+02 7.38675E+01-8.80373E+01-1.74083E-13 3.55271E-14
 -1       811 1.05885E+03 3.31153E+01-9.40946E-02 1.02824E+02 2.70339E-14-5.08149E-13
 -1       812 1.01749E+03 5.89737E+01 9.12011E-02 7.41375E+01 1.75582E-13 7.87981E-14
 -1       813 9.93887E+02 9.85876E+01 8.74316E-01 9.41468E+01-1.25233E-13-2.55573E-13
 -1       814 1.02136E+03 6.48176E+01 9.95678E-01 1.06498E+02-3.32359E-13 6.14300E-14
 -1       815 1.16154E+03 5.63175E+00-2.81107E-01 9.24690E+01 1.73417E-13 2.25153E-13
 -1       816 1.04554E+03 7.26220E+00-2.91096E+00 4.38385E+01-3.48999E-13-2.67342E-13
 -1       817 1.09739E+03 6.78850E+00-1.56557E+00 6.96934E+01-2.82552E-14 9.74776E-14
 -1       818 1.00033E+03 9.89571E+01 2.98875E-01 4.35743E+01-1.54543E-13 7.54147E-13
 -1       819 9.97317E+02 1.27123E+02 1.78982E+00 5.58302E+01 1.14031E-12-6.63025E-13
 -1       820 1.47871E+03-4.53391E+01 9.91398E+00-5.41077E+00-1.27898E-13-1.76859E-13
 -1       821 1.49358E+03-4.46379E+01 1.03075E+01-1.28991E+02 1.02585E-13-2.98477E-13
 -1       822 1.32560E+03-7.71689E+00 3.45403E+00 1.11257E+02 3.47278E-13 8.88178E-14
 -1       823 1.24145E+03 2.14532E+00 1.47210E+00 1.09591E+02-2.93099E-14-4.08784E-13
 -1       824 1.23225E+03-7.60468E+01-4.28974E+00 1.67475E+02 1.79412E-13 3.07088E-13
 -1       825 1.41280E+03-2.49230E+01 6.56351E+00 7.76243E+01-3.73035E-14 1.69198E-13
 -1       826 1.00809E+03 3.40924E+01-2.37135E+00 3.54286E+01-5.86198E-14 1.85074E-13
 -1       827 1.01132E+03 8.35598E+00-3.66836E+00 1.68973E+01 7.94143E-13 1.02829E-12
 -1       828 1.00328E+03 6.27380E+01-1.53946E+00 4.37042E+01-1.15352E-12 5.11619E-13
 -1       829 8.00132E+02-9.89476E+00-2.81972E+00 2.53166E+02-2.49578E-13 2.54907E-13
 -1       830 6.37725E+02 7.44608E+01 3.94269E+00 1.53831E+02 5.87086E-13-7.72715E-13
 -1       831 1.02142E+03-7.19687E+01-6.49454E+00 2.48718E+02 1.42109E-14 2.32481E-13
 -1       832 9.45549E+02 1.04509E+02 1.06098E+00 1.23462E+02 5.27134E-13-7.94920E-13
 -1       833 9.55257E+02 7.14791E+01-1.23733E+00 1.63737E+02 1.01341E-12-1.50369E-12
 -1       834 1.00814E+03 6.57569E+01 1.51298E+00 1.54883E+02 7.90479E-14 1.21347E-12
 -1       835 9.82857E+02 8.60208E+01-3.89750E-01 1.21485E+02-4.07452E-13 1.28786E-13
 -1       836 8.91237E+02 8.80969E+01 1.30999E+00 1.65730E+02 4.20108E-13-4.71623E-13
 -1       837 9.20967E+02 3.76216E+01-2.14602E+00 2.08080E+02 4.17444E-13 1.09512E-12
 -1       838 1.00360E+03 4.28313E+01 1.26315E+00 1.94687E+02 9.32587E-14-5.02265E-13
 -1       839 1.07801E+03-1.09128E+00-1.86794E+00 2.01715E+02-5.68434E-13 5.46008E-13
 -1       840 1.14290E+03 9.59465E+00 1.07270E+00 1.72632E+02-2.09610E-13-8.12683E-14
 -1       841 1.05652E+03 3.17065E+01-1.54973E+00 1.73778E+02-4.13003E-13 4.40592E-13
 -1       842 1.10434E+03 2.81786E+01 1.19386E+00 1.48607E+02-8.20677E-13 3.92575E-13
 -1       843 1.04268E+03 4.60095E+01-5.97404E-01 1.37319E+02-3.10418E-13 1.93179E-14
 -1       844 1.66137E+03 4.37195E+01 7.09365E+00-2.11317E+02-2.16716E-13-3.83693E-13
 -1       845 1.48365E+03 1.02720E+02-1.70189E+00-1.85678E+02 3.05533E-13 2.62901E-13
 -1       846 1.36995E+03 1.37027E+01-8.23330E+00-1.93647E+02 8.17124E-14-2.70284E-13
 -1       847 1.53149E+03-3.61242E+01 2.45658E+00-2.09786E+02-1.17240E-13 2.98428E-13
 -1       848 1.65779E+03 2.38400E+02 1.07781E+01-1.08148E+02-1.42109E-14 3.00204E-13
 -1       849 1.26525E+03 6.60604E+01-1.70521E+01-8.67123E+01 3.62377E-13 4.57627E-13
 -1       850 1.11744E+03 2.41669E+01-2.98282E+01-1.01097E+02 9.59233E-13 3.85469E-13
 -1       851 1.32697E+03-4.42623E+00-7.97055E+00-1.28938E+02-8.52651E-13-5.68434E-14
 -1       852 1.55496E+03-1.60192E+02-4.98119E+00-1.27066E+02-1.73195E-13 8.17124E-14
 -1       853 1.44358E+03-2.50388E+02-2.65124E+00 4.41612E+01-3.09086E-13-2.73559E-13
 -1       854 1.47756E+03-3.47874E+02-2.56670E+01 1.06578E+02-4.26326E-14-5.54223E-13
 -1       855 1.73523E+03-1.00723E+02 1.06033E+01-8.81477E+01 3.24185E-13 1.98952E-13
 -1       856 1.41388E+03-1.88168E+02-4.03732E+00 2.60278E+01-3.03757E-13-5.12479E-13
 -1       857 1.25804E+03-1.76487E+02 1.32813E+00 1.66835E+02 7.81597E-13-4.96936E-13
 -1       858 1.22686E+03-2.67101E+02 1.71221E+00 2.17563E+02 3.12639E-13 6.56364E-13
 -1       859 9.59471E+02-1.89391E+02-2.73341E+00 2.93431E+02-4.12115E-13 7.14095E-13
 -1       860 7.93518E+02-2.84939E+02-4.45425E+00 3.42650E+02 4.26326E-14-1.81188E-13
 -1       861 1.17267E+03-3.25773E+02 1.59452E+01 2.85153E+02 2.13163E-13-5.32019E-13
 -1       862 6.59599E+02-2.39367E+02-3.87068E+01 3.31137E+02 8.52651E-14 5.86198E-13
 -1       863 1.37569E+03 1.12160E+02 3.22925E+01 3.14122E+02-4.97380E-14 2.84217E-13
 -1       864 9.29266E+02 1.44238E+02 8.84222E-01 3.08453E+01 8.41827E-14 5.50671E-14
 -1       865 9.58162E+02 1.49767E+02 4.13007E-01 4.60597E+01-6.01685E-13-7.61169E-13
 -1       866 9.83162E+02 1.76888E+02 2.97236E+00 1.59429E+01-1.16795E-12 1.01252E-13
 -1       867 9.49111E+02 1.23292E+02 3.73250E-01 8.44506E+01 7.53286E-13 8.34888E-14
 -1       868 9.74606E+02 1.21599E+02-2.57021E-01 8.04145E+01 3.19522E-13 1.02141E-12
 -1       869 9.86112E+02 1.58066E+02 2.26492E+00 4.50070E+01-2.22045E-13-4.10338E-13
 -1       870 9.93105E+02 1.73754E+02 2.39676E+00 3.03825E+01-5.64881E-13-8.00249E-13
 -1       871 9.90821E+02 2.01509E+02 3.09591E+00 1.68347E+01-7.02993E-13-3.23741E-13
 -1       872 5.20936E+02-3.60435E+02-5.65038E+00 3.44913E+02 1.63425E-13-2.34479E-13
 -1       873 1.38734E+02-5.15970E+02-4.01594E+01 1.01870E+02-2.27374E-13-8.52651E-13
 -1       874 5.89827E+02-1.22686E+02-1.07136E+01 2.91561E+02-2.70006E-13 9.94760E-14
 -1       875 3.76642E+02-1.40124E+02 3.25847E+00 2.45542E+02-5.50671E-13-9.84102E-13
 -1       876 3.80407E+02-2.55267E+01-7.20990E+00 1.18387E+02-6.92779E-14 1.20082E-12
 -1       877 5.22750E+01-3.50902E+02-4.93908E+01 1.60490E+02-1.04805E-12 1.27898E-13
 -1       878 9.00430E+02 1.32811E+02 7.33954E-01 7.12565E+01 5.86198E-14-2.59348E-13
 -1       879 8.86294E+02 1.11053E+02 2.37316E-03 1.15954E+02-3.52163E-13-1.12621E-12
 -1       880 8.49869E+02 1.34125E+02 3.48725E-01 4.17359E+01 2.93210E-13 1.49658E-12
 -1       881 7.41185E+02 1.22086E+02-2.09485E-01 5.56544E+01 1.44329E-13 1.11910E-13
 -1       882 8.14366E+02 1.25170E+02 1.37350E+00 9.47960E+01-4.84057E-14-3.71259E-13
 -1       883 7.98498E+02 8.77489E+01-1.16604E+00 1.54511E+02-1.35003E-13-4.14779E-13
 -1       884 2.39725E+03 2.77964E+02 8.67797E+01 3.60821E+02-6.96332E-13-5.68434E-14
 -1       885 1.90068E+03 3.27366E+00-7.81550E+00 2.88918E+01-3.49942E-13 4.54747E-13
 -1       886 2.26406E+03 3.95041E+02 6.85974E+01-3.14643E+01-5.68434E-14 2.34479E-13
 -1       887 1.87908E+03 1.89910E+02 1.72456E+01-1.31967E+02-5.61329E-13-7.81597E-14
 -1       888 1.01658E+03 6.83540E+01 1.04705E+00 1.21147E+02 7.64278E-13-4.91607E-13
 -1       889 1.00294E+03 7.98674E+01-3.64869E-01 1.01048E+02 1.20670E-12 2.37776E-12
 -1       890 9.81727E+02 1.04952E+02 9.23946E-01 9.96316E+01-1.15609E-12 9.00613E-13
 -1       891 1.07290E+03 3.31381E+01 5.50093E-01 1.17985E+02-6.88338E-13-1.08447E-12
 -1       892 1.03676E+03 4.74819E+01-3.95175E-01 1.05599E+02-3.07421E-13 4.86722E-13
 -1       893 1.04528E+03 3.50460E+01-1.46810E-01 8.47953E+01 3.66651E-14-6.08402E-13
 -1       894 1.02350E+03 4.66181E+01-6.10111E-01 7.12378E+01 1.32050E-12 1.20814E-12
 -1       895 1.01926E+03 6.25572E+01 2.05687E-01 9.04491E+01-4.03899E-13 2.24976E-12
 -1       896 1.00938E+03 7.09062E+01-4.34341E-01 7.37083E+01-1.27454E-12-4.14557E-13
 -1       897 1.00063E+03 9.30009E+01 6.62686E-01 8.39028E+01 4.34097E-13-2.05946E-12
 -1       898 1.07855E+03 1.95761E+01-6.68475E-01 8.66818E+01-9.82214E-13-8.09131E-13
 -1       899 1.07223E+03 8.99576E+00-9.75697E-01 5.55014E+01-6.65579E-13-1.20615E-12
 -1       900 1.04054E+03 2.20687E+01-9.25875E-01 5.60095E+01-4.61409E-13 6.79901E-13
 -1       901 1.12215E+03 1.61768E+01-6.15026E-01 1.14397E+02 3.46390E-14 3.73035E-13
 -1       902 1.13049E+03 8.96143E+00 4.70045E-01 7.91264E+01-6.79456E-14 1.58096E-13
 -1       903 1.20086E+03 4.17684E-01 1.45528E+00 5.02032E+01-5.00933E-13-9.67226E-13
 -1       904 1.11348E+03 2.03102E+00-1.14841E+00 3.77237E+01 4.95604E-13 4.50306E-13
 -1       905 1.04730E+03 3.46368E+00-2.96808E+00 2.34005E+01-1.22213E-12 1.29674E-13
 -1       906 9.97361E+02 1.44595E+02 1.92516E+00 2.98618E+01 6.38600E-13-3.33067E-15
 -1       907 1.00055E+03 1.14100E+02 1.43355E+00 4.97938E+01 1.74438E-12-4.62963E-13
 -1       908 9.99730E+02 1.06327E+02 6.80060E-01 2.30942E+01-2.51354E-13 4.97696E-12
 -1       909 9.94437E+02 1.36367E+02 2.04902E+00 5.72164E+01 1.10223E-12-9.78329E-13
 -1       910 9.92815E+02 1.07995E+02-4.88548E-01 7.42429E+01 2.15827E-13-1.14886E-12
 -1       911 1.00186E+03 9.06252E+01-1.99930E-01 5.78297E+01-7.50955E-13-1.04861E-12
 -1       912 1.45946E+03-4.12791E+01 1.07721E+00-1.66385E+02-3.59712E-14 9.43690E-14
 -1       913 1.50199E+03-1.15807E+02 4.21510E+00-9.58458E+01-1.06581E-13-3.86358E-13
 -1       914 1.49099E+03-2.12470E+01 7.84671E+00-7.90071E+01 5.44453E-13-2.36255E-13
 -1       915 1.54843E+03-2.16708E+01 1.38615E+01-9.34740E+00-6.35936E-13-3.60545E-13
 -1       916 1.48364E+03-5.45918E+01 5.91081E+00-5.90362E+01 2.71783E-13-4.32543E-13
 -1       917 1.41400E+03-1.00024E+02 2.37899E+00 3.90366E+01-1.93623E-13-7.10987E-13
 -1       918 1.17854E+03 7.65225E+00-4.02406E-01 1.37841E+02 9.76996E-14 3.03757E-13
 -1       919 1.20275E+03 7.75224E+00 2.14170E+00 9.87611E+01-2.36255E-13 1.32871E-12
 -1       920 1.24106E+03-1.21344E+01-7.87903E-04 1.46599E+02-3.76588E-13 2.41585E-13
 -1       921 1.28497E+03 1.71231E+00 3.81655E+00 1.08628E+02 2.48690E-13-1.04627E-12
 -1       922 1.41515E+03-6.41555E+00 8.72693E+00 5.93424E+01 9.74332E-13-2.40696E-13
 -1       923 1.30620E+03-1.94882E+00 4.78110E+00 5.93227E+01-1.09601E-12 2.48690E-13
 -1       924 1.44457E+03-3.61015E+01 6.60073E+00 4.01702E+01-2.30926E-13-2.13607E-13
 -1       925 1.32331E+03-5.07162E+01 9.31759E-01 1.19640E+02 6.12843E-13 4.50306E-13
 -1       926 1.29003E+03-1.10236E+02-6.25551E-01 1.33629E+02 2.48690E-14 8.83293E-13
 -1       927 1.50919E+03-1.36277E+01 1.26519E+01 3.90393E+01-8.57980E-13-1.17240E-13
 -1       928 1.36998E+03-1.26874E+01 5.49196E+00 9.46829E+01-3.37508E-14 1.58007E-12
 -1       929 1.19939E+03-3.50803E+01 3.30954E-01 1.75133E+02-2.73559E-13 4.72067E-13
 -1       930 1.00840E+03 4.32016E+00-3.75251E+00 7.82129E+00 1.71152E-12 2.74447E-13
 -1       931 1.02933E+03 9.67712E+00-2.03718E+00 3.01620E+01 1.80300E-13 3.48166E-13
 -1       932 1.00553E+03 6.04320E+00-3.06586E+00 6.73764E+00 6.44151E-13-6.42597E-13
 -1       933 1.00455E+03 2.91847E+01-2.39668E+00 1.79258E+01 7.61169E-13-2.20268E-12
 -1       934 1.01131E+03 2.18357E+01-2.18270E+00 2.64650E+01 7.06102E-13 1.31894E-13
 -1       935 1.02098E+03 3.68355E+01-5.56692E-01 5.11358E+01 7.90479E-14 2.00062E-12
 -1       936 1.01031E+03 6.21880E+01-3.34440E-01 5.84126E+01-1.06537E-12-3.33067E-15
 -1       937 1.00204E+03 8.06147E+01-4.43836E-01 4.33743E+01-2.56328E-12 8.17995E-13
 -1       938 1.00603E+03 4.85771E+01-1.59730E+00 3.95145E+01-1.51434E-12 1.88516E-13
 -1       939 1.00183E+03 6.32178E+01-1.31817E+00 2.30369E+01-9.09939E-13 7.36800E-13
 -1       940 5.94144E+02 8.49370E+01-1.53352E+00 7.90503E+01-3.01537E-13-1.20792E-12
 -1       941 7.02167E+02 1.01957E+02 2.64442E+00 1.28183E+02 5.35572E-13-1.74438E-12
 -1       942 5.56511E+02 3.13199E+01 3.54387E+00 1.83032E+02 1.29674E-13 4.76064E-13
 -1       943 7.92268E+02-6.37497E+01 2.12648E+00 2.82534E+02 2.13163E-14 8.11795E-13
 -1       944 7.03104E+02 2.59693E+01-2.51357E+00 2.09592E+02 4.06786E-13-3.14415E-13
 -1       945 8.33842E+02 4.13747E+01 1.99280E+00 2.17295E+02 1.13687E-13-9.76996E-14
 -1       946 1.13588E+03-7.29938E+01-2.10467E+00 2.07130E+02-2.94875E-13-4.44089E-14
 -1       947 1.07591E+03-1.31919E+02-1.36922E+00 2.44891E+02 4.33431E-13-7.46070E-13
 -1       948 1.01567E+03-1.45380E+01 8.76804E-01 2.29345E+02-1.06581E-14-4.85834E-13
 -1       949 9.12039E+02-4.29409E+01-3.38672E+00 2.54276E+02 4.68958E-13-5.26690E-13
 -3
    1PSTEP                         3           1           1          
  100CL  101 1.000000000         948                     0    1           1
 -4  TOSTRAIN    6    1
 -5  EXX         1    4    1    1
 -5  EYY         1    4    2    2
 -5  EZZ         1    4    3    3
 -5  EXY         1    4    1    2
 -5  EYZ         1    4    2    3
 -5  EZX         1    4    3    1
 -1         1 4.74188E-09-1.43241E-09-1.44220E-09-1.46711E-11 7.42059E-25 5.97293E-24
 -1         2 4.76516E-09-1.44570E-09-1.44074E-09 3.74616E-11 4.78658E-24-4.04517E-24
 -1         3 4.74183E-09-1.43256E-09-1.44220E-09-1.47026E-11-1.78078E-24-8.77536E-24
 -1         4 4.74187E-09-1.43242E-09-1.44221E-09 1.46879E-11-7.21501E-24 9.95919E-24
 -1         5 1.88508E-08-6.02037E-09-4.28659E-09-2.60504E-11 1.16322E-24 2.24567E-25
 -1         7 1.62017E-09-6.33104E-09 1.14465E-09 4.82296E-10 3.71908E-24-2.62371E-24
 -1         8 1.89448E-08-6.05338E-09-4.28764E-09 1.34404E-12 2.11965E-24 1.45847E-24
 -1         9 2.32506E-09-7.06065E-09 1.13060E-09 1.07581E-12 9.49612E-25-4.67874E-24
 -1        10 3.50219E-09-9.78641E-10-1.56090E-09 3.23711E-12-1.35386E-24-2.63146E-24
 -1        11 4.39143E-09-1.77368E-10-1.73538E-09 5.03486E-13 1.19210E-24 2.51224E-24
 -1        12 3.52108E-09-9.76948E-10-1.56215E-09-4.41961E-13-2.48800E-24-2.66999E-24
 -1        13 4.39282E-09-1.74343E-10-1.73581E-09 9.78673E-15 1.08853E-25 2.30140E-24
 -1        14 4.76024E-09-1.44486E-09-1.45175E-09-1.65132E-11 2.93391E-24 3.77421E-24
 -1        15 4.74079E-09-1.35780E-09-1.48042E-09 3.88707E-12-4.32170E-25 1.40495E-24
 -1        16 4.67620E-09-1.14972E-09-1.52677E-09 1.16151E-11-8.29281E-24-1.35780E-23
 -1        17 4.59410E-09-8.79712E-10-1.58342E-09 1.09256E-11 1.04981E-23 5.92092E-24
 -1        18 4.50836E-09-6.02436E-10-1.64101E-09 1.38255E-11-2.74165E-24-5.76179E-24
 -1        19 4.44471E-09-3.85759E-10-1.69055E-09 9.05571E-12-8.05370E-25 3.72999E-24
 -1        20 4.40783E-09-2.29163E-10-1.72413E-09 4.15836E-12-8.67570E-25 8.17406E-24
 -1        21 4.76809E-09-1.43568E-09-1.44518E-09-1.56952E-11 7.90184E-24-3.09223E-24
 -1        22 4.75397E-09-1.40803E-09-1.46369E-09-2.35447E-13 7.81459E-24 8.78152E-24
 -1        23 4.71020E-09-1.25512E-09-1.50194E-09 8.10542E-12-2.11577E-23-2.99570E-24
 -1        24 4.63733E-09-1.01535E-09-1.55458E-09 8.82238E-12 2.00430E-23-2.21613E-24
 -1        25 4.55098E-09-7.41584E-10-1.61252E-09 9.50082E-12-1.21815E-23 1.41784E-23
 -1        26 4.47801E-09-4.92025E-10-1.66718E-09 1.25037E-11 7.33153E-24-8.74033E-24
 -1        27 4.42454E-09-3.04241E-10-1.70976E-09 4.15294E-12-8.13933E-24-4.85807E-24
 -1        28 4.39426E-09-2.01146E-10-1.73263E-09 6.55119E-13-4.30392E-24-7.71443E-24
 -1        29 4.75411E-09-1.42534E-09-1.45967E-09 3.06513E-11-6.09884E-26 3.21179E-24
 -1        30 4.95620E-09-1.49131E-09-1.51584E-09 9.08519E-12-2.12773E-24-1.25370E-24
 -1        31 5.35699E-09-1.61794E-09-1.61188E-09-1.41562E-12-3.32993E-24-4.88877E-24
 -1        32 5.90103E-09-1.78592E-09-1.73948E-09-1.07770E-11 2.42975E-24-7.54479E-24
 -1        33 6.54927E-09-1.98454E-09-1.88693E-09-2.30146E-11-8.29200E-25-2.81112E-25
 -1        34 7.21473E-09-2.19543E-09-2.03246E-09-2.85576E-11 2.33008E-24 2.90483E-24
 -1        35 7.78373E-09-2.33095E-09-2.14650E-09 1.19145E-12-4.33583E-24 8.40105E-26
 -1        36 7.86572E-09-2.41754E-09-2.17295E-09 3.85966E-11 5.88074E-25 1.23512E-24
 -1        37 7.21800E-09-2.20613E-09-2.08528E-09-5.01642E-11 1.49725E-24-5.42837E-25
 -1        38 6.05954E-09-1.77660E-09-1.88054E-09 2.84038E-10 8.38490E-25 4.16821E-25
 -1        39 4.30324E-09-1.20560E-09-1.65828E-09 1.82173E-10-2.94037E-25 1.15353E-24
 -1        40 4.75820E-09-1.42168E-09-1.44654E-09 2.85897E-11-8.15872E-25 8.43094E-24
 -1        41 4.84809E-09-1.46238E-09-1.48286E-09 1.93017E-11 1.99929E-24-9.86154E-24
 -1        42 5.15586E-09-1.56669E-09-1.55937E-09 9.42187E-12-8.94874E-24 8.48506E-24
 -1        43 5.62840E-09-1.72024E-09-1.67213E-09 4.65666E-12-2.32927E-24-4.74983E-24
 -1        44 6.22350E-09-1.91729E-09-1.81127E-09-8.50383E-13 2.37330E-24-4.70459E-24
 -1        45 6.88253E-09-2.12536E-09-1.96155E-09-1.04745E-11 6.91471E-24 2.06795E-24
 -1        46 7.48297E-09-2.34535E-09-2.09400E-09-1.60997E-12-2.86120E-24 9.52550E-24
 -1        47 7.85440E-09-2.45000E-09-2.17052E-09-2.56838E-11-4.41055E-24-6.74023E-24
 -1        48 7.62315E-09-2.34934E-09-2.14293E-09 5.74004E-11 6.88240E-25-3.65123E-24
 -1        49 6.56839E-09-2.06138E-09-1.99033E-09 7.66531E-11 8.04239E-24 1.44757E-24
 -1        50 5.09213E-09-1.45617E-09-1.75810E-09 1.63215E-10 2.48800E-24 9.31871E-24
 -1        51 3.85351E-09-1.05686E-09-1.58680E-09 3.25658E-11 2.06795E-25-2.88867E-24
 -1        52 4.75996E-09-1.44487E-09-1.45174E-09-1.66597E-11-8.31220E-25-3.70757E-24
 -1        53 4.74053E-09-1.35762E-09-1.48042E-09 3.87062E-12 3.82329E-24-6.04553E-24
 -1        54 4.67610E-09-1.14962E-09-1.52680E-09 1.19004E-11-7.38323E-25 3.52420E-24
 -1        55 4.59406E-09-8.79476E-10-1.58348E-09 1.14132E-11-2.74650E-25 1.14947E-23
 -1        56 4.50846E-09-6.01878E-10-1.64115E-09 1.45995E-11-1.26824E-24-4.49416E-24
 -1        57 4.44557E-09-3.85828E-10-1.69082E-09 9.77309E-12-2.72065E-24-7.04396E-25
 -1        58 4.40784E-09-2.28679E-10-1.72437E-09 4.57308E-12 9.58851E-25-9.46734E-25
 -1        59 4.76794E-09-1.43567E-09-1.44517E-09-1.58309E-11-8.27665E-24 3.41091E-24
 -1        60 4.75379E-09-1.40797E-09-1.46368E-09-4.56119E-13-2.06149E-24-6.12792E-24
 -1        61 4.70995E-09-1.25513E-09-1.50195E-09 8.24700E-12 1.60040E-23-4.45175E-24
 -1        62 4.63719E-09-1.01525E-09-1.55462E-09 9.30260E-12 3.28934E-24 1.25188E-23
 -1        63 4.55108E-09-7.41143E-10-1.61262E-09 1.01211E-11-9.93909E-24 1.83345E-23
 -1        64 4.47847E-09-4.91630E-10-1.66738E-09 1.33138E-11-2.96622E-24 7.51571E-24
 -1        65 4.42486E-09-3.03698E-10-1.71002E-09 4.30496E-12-5.64809E-24 2.03564E-25
 -1        66 4.39493E-09-2.00689E-10-1.73300E-09 6.19322E-13 6.55848E-24 1.74807E-24
 -1        67 4.75066E-09-1.42677E-09-1.46002E-09 4.38561E-12 1.37527E-25-4.66985E-24
 -1        68 4.95444E-09-1.48902E-09-1.51650E-09-1.70922E-11-2.08613E-25 2.08249E-24
 -1        69 5.35841E-09-1.61768E-09-1.61210E-09-2.76712E-11 1.12488E-24 7.38485E-24
 -1        70 5.89996E-09-1.79037E-09-1.73944E-09-3.88313E-11-4.62926E-24 3.76755E-24
 -1        71 6.55598E-09-1.99716E-09-1.88805E-09-5.02681E-11-3.06235E-24-1.27955E-24
 -1        72 7.22151E-09-2.20397E-09-2.03691E-09-4.94774E-11-1.83692E-24 1.40556E-24
 -1        73 7.75910E-09-2.34726E-09-2.14930E-09-9.02938E-12-1.34417E-24-5.38475E-24
 -1        74 7.88795E-09-2.35275E-09-2.17819E-09 5.19916E-11 4.71751E-25-1.87247E-24
 -1        75 7.27970E-09-2.13807E-09-2.08374E-09 1.41520E-10-2.95814E-24 1.24077E-24
 -1        76 5.88332E-09-1.69656E-09-1.87802E-09 2.00102E-10 1.00732E-24 3.06962E-24
 -1        77 4.28501E-09-1.20839E-09-1.65824E-09 1.49636E-10-2.56555E-24-1.36356E-24
 -1        78 4.74984E-09-1.41916E-09-1.44741E-09 9.78368E-12-5.19936E-24-2.53647E-25
 -1        79 4.84685E-09-1.45429E-09-1.48352E-09-6.49833E-12-1.25289E-24 9.42534E-24
 -1        80 5.15612E-09-1.54810E-09-1.56022E-09-1.18046E-11-3.62457E-24-3.25702E-24
 -1        81 5.62887E-09-1.69632E-09-1.67283E-09-1.91873E-11-1.50169E-24-2.05503E-24
 -1        82 6.22440E-09-1.88363E-09-1.81225E-09-2.44632E-11-7.10858E-25-3.26349E-24
 -1        83 6.88527E-09-2.08848E-09-1.96430E-09-3.56854E-11-1.30539E-24-9.41564E-24
 -1        84 7.48851E-09-2.27211E-09-2.10033E-09-2.08204E-11-1.38940E-24 1.07663E-23
 -1        85 7.83257E-09-2.36639E-09-2.17657E-09 1.45951E-11 2.77881E-25-1.00360E-23
 -1        86 7.60695E-09-2.27333E-09-2.14619E-09 6.01920E-11-2.00010E-24 5.07941E-24
 -1        87 6.61003E-09-1.94190E-09-1.99010E-09 1.08778E-10-2.35633E-24-6.03583E-24
 -1        88 5.07927E-09-1.44885E-09-1.76113E-09 1.13679E-10-4.32977E-24 7.49632E-24
 -1        89 3.86159E-09-1.05969E-09-1.58819E-09 3.72031E-11-1.03527E-23-5.16988E-24
 -1        90 1.19214E-08-2.18070E-09-3.38210E-09-6.22997E-09-1.51865E-24-1.26662E-24
 -1        91 1.09445E-09 1.29817E-09-1.36629E-09-2.79362E-09 1.75776E-24 9.56428E-25
 -1        92-3.80967E-10-3.04770E-09 4.04229E-10 2.37147E-09-1.26662E-24 2.31352E-24
 -1        93 1.70966E-08-4.48841E-09-4.05003E-09-3.58314E-09 5.63517E-24 1.70606E-24
 -1        94 5.84651E-09-8.04632E-11-2.42639E-09-5.58147E-09 3.61892E-25-1.86116E-24
 -1        95-9.22782E-10-5.24344E-10-3.79413E-10 5.17074E-11-3.72231E-24 4.96308E-24
 -1        96 7.51164E-10-5.52778E-09 9.05431E-10 2.42817E-09 5.68687E-24-2.19720E-23
 -1        97 1.07445E-09-3.98920E-09 4.25898E-10-1.64480E-09-1.78361E-24-2.83374E-24
 -1        98 1.77404E-09 9.62674E-10-1.36435E-09 2.68891E-09-1.55096E-24-6.20385E-25
 -1        99 1.18478E-08-2.25135E-09-3.37826E-09 5.99657E-09-2.31352E-24 4.54949E-24
 -1       100 1.34014E-09-6.53930E-09 9.78607E-10-7.03450E-10-4.85969E-24-1.88701E-24
 -1       101 1.03186E-09-8.66203E-10-3.86116E-10-3.24316E-10 8.27181E-25-1.80946E-24
 -1       102 6.22342E-09-3.10610E-10-2.42753E-09 5.45796E-09-2.06795E-25-1.44757E-24
 -1       103 1.70151E-08-4.35361E-09-4.05120E-09 3.65023E-09-1.39587E-24 3.25702E-24
 -1       104 1.18285E-08-2.23639E-09-3.37898E-09-5.96874E-09-5.68040E-24-3.38627E-24
 -1       105 2.08427E-09 6.84160E-10-1.36708E-09-2.64813E-09-5.42837E-25-3.30872E-24
 -1       106 9.91401E-10-3.80986E-09 4.23548E-10 1.45206E-09-1.44757E-24 1.11476E-25
 -1       107 1.70179E-08-4.31985E-09-4.05374E-09-3.66190E-09-5.49300E-24 1.65436E-24
 -1       108 6.28241E-09-4.30696E-10-2.42484E-09-5.41297E-09-4.39440E-24-8.16841E-24
 -1       109 1.21185E-09-1.14418E-09-3.82309E-10 9.96488E-11-6.20385E-24-9.09899E-24
 -1       110 1.55278E-09-6.48634E-09 9.53360E-10 9.65389E-10-4.91138E-24-3.74816E-24
 -1       111 1.03828E-09-3.79714E-09 4.24838E-10-1.38744E-09-2.58494E-26 5.71756E-24
 -1       112 2.22712E-09 5.42065E-10-1.36602E-09 2.64579E-09 7.49632E-25 5.16988E-26
 -1       113 1.18303E-08-2.23786E-09-3.38037E-09 5.96207E-09-7.04396E-25 1.83531E-24
 -1       114 1.52122E-09-6.47410E-09 9.55174E-10-9.82796E-10 4.49779E-24-1.24077E-23
 -1       115 1.28731E-09-1.24006E-09-3.81633E-10-3.56107E-11 1.86116E-24-1.55096E-24
 -1       116 6.31759E-09-4.70257E-10-2.42359E-09 5.38151E-09 1.91286E-24 5.16988E-25
 -1       117 1.70274E-08-4.28643E-09-4.05554E-09 3.66416E-09 3.36042E-24-3.87741E-24
 -1       118 4.28282E-09-1.20647E-09-1.65791E-09-1.47669E-10 3.32488E-24-1.87408E-25
 -1       119 5.87996E-09-1.69264E-09-1.87763E-09-2.01058E-10 6.85009E-25 1.84500E-24
 -1       120 7.27807E-09-2.14048E-09-2.08313E-09-1.43327E-10-3.84510E-25-2.30060E-24
 -1       121 7.88573E-09-2.36905E-09-2.17675E-09-5.79587E-11-1.26016E-24 8.48183E-27
 -1       122 7.76637E-09-2.36635E-09-2.14706E-09 4.11935E-12-1.70606E-24-2.52032E-24
 -1       123 7.22481E-09-2.21010E-09-2.03453E-09 3.29925E-11-7.42362E-25 4.03574E-24
 -1       124 6.55043E-09-1.99981E-09-1.88704E-09 3.92720E-11-2.88140E-24-4.38470E-24
 -1       125 5.90110E-09-1.79271E-09-1.73944E-09 3.56020E-11-3.62134E-24-3.57045E-24
 -1       126 5.35810E-09-1.61801E-09-1.61213E-09 2.68867E-11 2.29702E-24-2.59302E-24
 -1       127 4.95497E-09-1.48947E-09-1.51651E-09 1.68626E-11-2.76265E-24 3.80632E-24
 -1       128 4.75057E-09-1.42679E-09-1.46001E-09-4.51400E-12 3.69969E-25 6.27090E-24
 -1       129 3.85899E-09-1.05701E-09-1.58727E-09-3.64458E-11-7.88407E-25-3.32811E-24
 -1       130 5.07898E-09-1.45101E-09-1.76066E-09-1.11460E-10-2.00333E-25 5.57054E-24
 -1       131 6.60823E-09-1.94758E-09-1.98978E-09-1.03475E-10 1.17655E-24-6.32018E-24
 -1       132 7.60655E-09-2.28488E-09-2.14519E-09-5.71789E-11-8.36874E-25 5.85489E-24
 -1       133 7.83251E-09-2.37561E-09-2.17478E-09-1.03930E-11-7.07304E-24 4.72236E-24
 -1       134 7.49166E-09-2.28143E-09-2.09784E-09 1.24014E-11 1.35709E-24-9.56428E-25
 -1       135 6.88312E-09-2.09312E-09-1.96281E-09 2.12492E-11-1.78684E-24 3.67708E-24
 -1       136 6.22298E-09-1.88425E-09-1.81210E-09 1.98696E-11-4.37016E-24-4.53657E-24
 -1       137 5.62929E-09-1.69727E-09-1.67285E-09 1.72621E-11-4.60846E-25 1.71898E-24
 -1       138 5.15622E-09-1.54817E-09-1.56027E-09 1.18224E-11-7.76694E-25 1.07533E-23
 -1       139 4.84691E-09-1.45456E-09-1.48351E-09 6.22225E-12 1.19473E-24-1.38940E-24
 -1       140 4.74984E-09-1.41915E-09-1.44741E-09-9.82240E-12-2.04937E-24 4.96228E-24
 -1       141 5.77900E-09-1.42830E-09-1.95908E-09-1.14519E-11-9.30578E-25-1.81542E-24
 -1       142 7.38597E-09-1.08573E-09-2.64894E-09-1.85642E-11 2.39107E-24 2.71136E-24
 -1       143 1.01438E-08-8.87855E-10-3.54050E-09 3.31976E-11-2.68834E-24 1.30822E-24
 -1       144 4.82443E-09-1.21884E-09-1.69261E-09-2.99836E-12-5.06648E-24-3.11081E-24
 -1       145 6.51738E-09-1.26886E-09-2.28053E-09-1.32337E-11 3.10193E-25 8.53030E-25
 -1       146 8.39151E-09-1.19929E-09-3.05879E-09-2.46360E-11-1.18907E-24 1.98556E-24
 -1       147 1.32963E-08-3.21338E-09-3.98403E-09-1.23267E-11 4.29100E-24 3.25541E-25
 -1       148 4.40086E-09-2.27211E-10-1.72324E-09-7.45579E-12 8.69590E-25 8.30250E-24
 -1       149 4.44285E-09-3.79125E-10-1.69013E-09-1.22125E-11-6.74508E-25-6.04633E-25
 -1       150 4.50669E-09-6.07522E-10-1.64094E-09-1.28137E-11-4.60119E-24 5.46068E-25
 -1       151 4.59219E-09-8.82272E-10-1.58342E-09-1.36448E-11 4.07290E-24-7.19047E-24
 -1       152 4.68264E-09-1.15356E-09-1.52675E-09 1.08679E-12 3.90811E-24-1.51921E-24
 -1       153 4.74789E-09-1.34652E-09-1.48078E-09 3.42330E-14-1.70687E-24-2.79699E-24
 -1       154 4.77293E-09-1.45215E-09-1.45161E-09 1.02024E-11 1.51421E-24-6.00988E-24
 -1       155 4.39267E-09-2.00543E-10-1.73210E-09-5.04483E-12 8.88492E-24-3.48967E-24
 -1       156 4.42010E-09-3.02624E-10-1.70904E-09-8.78072E-12-9.55135E-24-8.31220E-24
 -1       157 4.47665E-09-4.93472E-10-1.66705E-09-9.73851E-12 9.30901E-24-3.68273E-24
 -1       158 4.55702E-09-7.44471E-10-1.61267E-09-7.59472E-12-9.61921E-24-1.14230E-23
 -1       159 4.63480E-09-1.01027E-09-1.55437E-09-8.18785E-12 1.06306E-23-1.02654E-23
 -1       160 4.72191E-09-1.26221E-09-1.50232E-09-5.81571E-12-3.64476E-24-5.30135E-24
 -1       161 4.76248E-09-1.40919E-09-1.46386E-09 1.55598E-11 3.69969E-25-7.70999E-24
 -1       162 4.78747E-09-1.43689E-09-1.44486E-09 1.18047E-11 1.36251E-23-2.56332E-23
 -1       163 4.42232E-09-5.45108E-10-1.64637E-09-3.37911E-13 2.65456E-24-1.12380E-23
 -1       164 4.20426E-09-6.12732E-10-1.53139E-09-9.12222E-13-1.27327E-24-3.27964E-25
 -1       165 3.84752E-09-5.40937E-10-1.40805E-09-4.05366E-12 1.72035E-25 2.87251E-24
 -1       166 3.35737E-09-4.22263E-10-1.24498E-09-1.07551E-11-4.45841E-24-2.58817E-24
 -1       167 2.70757E-09-3.41375E-10-9.94728E-10-1.55415E-11-2.32382E-24 3.17948E-24
 -1       168 1.73791E-09-3.73529E-10-5.70691E-10-7.97034E-11 1.74766E-24 3.45089E-24
 -1       169 5.34092E-10-1.04976E-09 1.83015E-10-1.45916E-10-6.46487E-26-1.74483E-24
 -1       170 4.40833E-09-4.08988E-10-1.70109E-09-2.55035E-14 3.78275E-24-2.62371E-24
 -1       171 4.31069E-09-6.01976E-10-1.58791E-09-6.40039E-13-9.71700E-25 3.50259E-24
 -1       172 4.02540E-09-5.87440E-10-1.47163E-09-1.02673E-12-4.92502E-25 3.29580E-24
 -1       173 3.59981E-09-4.81703E-10-1.33325E-09-4.98489E-12-3.20835E-24-1.41525E-24
 -1       174 3.02948E-09-3.72453E-10-1.13404E-09-8.29298E-12-4.35290E-24 2.58494E-26
 -1       175 2.26290E-09-3.48572E-10-8.11757E-10-2.46532E-11-7.70231E-25-1.03398E-25
 -1       176 1.25267E-09-5.76541E-10-2.54479E-10-1.00636E-10 1.26177E-24-1.49926E-24
 -1       177 1.02182E-09-2.94303E-09 7.03285E-10-1.27573E-10 1.21492E-24 8.58200E-24
 -1       178 4.28682E-09-1.20931E-09-1.65811E-09-1.52801E-10-3.81279E-25 1.05013E-24
 -1       179 5.89066E-09-1.68830E-09-1.87885E-09-2.13196E-10-3.22714E-24 3.97434E-25
 -1       180 7.27924E-09-2.10317E-09-2.08644E-09-1.80285E-10-2.27475E-24 5.55762E-25
 -1       181 7.85714E-09-2.34275E-09-2.17984E-09-9.04626E-11-2.16973E-24-4.65693E-25
 -1       182 7.77670E-09-2.37509E-09-2.14902E-09 2.01545E-12-3.78855E-24-2.18589E-24
 -1       183 7.23079E-09-2.20957E-09-2.03500E-09 3.08853E-11 1.69798E-24-2.43631E-24
 -1       184 6.55031E-09-1.99870E-09-1.88707E-09 3.86402E-11-1.04771E-24-4.39117E-24
 -1       185 5.90108E-09-1.79214E-09-1.73942E-09 3.54922E-11-2.44115E-24 5.93890E-24
 -1       186 5.35796E-09-1.61781E-09-1.61210E-09 2.71734E-11 3.90482E-24-2.13742E-24
 -1       187 4.95479E-09-1.48926E-09-1.51650E-09 1.70487E-11-5.31791E-24-5.04386E-24
 -1       188 4.75062E-09-1.42662E-09-1.46001E-09-4.34431E-12-7.17725E-25 1.09464E-23
 -1       189 3.86096E-09-1.06062E-09-1.58798E-09-3.59893E-11-2.26182E-24-1.37002E-24
 -1       190 5.07764E-09-1.44609E-09-1.76114E-09-1.21614E-10-1.61559E-24-1.99040E-24
 -1       191 6.61439E-09-1.93375E-09-1.99096E-09-1.38221E-10-2.49447E-24 3.45089E-24
 -1       192 7.60545E-09-2.26742E-09-2.14779E-09-1.00853E-10-1.81592E-24-1.02751E-24
 -1       193 7.82661E-09-2.35647E-09-2.17823E-09-1.36791E-11-3.62538E-24-3.15201E-24
 -1       194 7.49604E-09-2.28008E-09-2.09894E-09 1.49082E-11-1.10183E-24-1.87408E-25
 -1       195 6.88325E-09-2.09180E-09-1.96303E-09 2.17856E-11 3.25702E-24-4.03897E-24
 -1       196 6.22288E-09-1.88325E-09-1.81210E-09 2.05026E-11-6.00998E-25 3.25056E-24
 -1       197 5.62898E-09-1.69658E-09-1.67282E-09 1.74797E-11 4.72559E-25-4.44610E-24
 -1       198 5.15616E-09-1.54782E-09-1.56025E-09 1.19991E-11 1.32115E-24 2.52678E-24
 -1       199 4.84684E-09-1.45437E-09-1.48351E-09 6.52947E-12 2.62048E-24-2.35553E-24
 -1       200 4.74982E-09-1.41914E-09-1.44741E-09-9.76134E-12 2.83293E-24-5.80561E-24
 -1       201 1.01512E-08-8.62285E-10-3.54154E-09-4.64662E-12 2.19720E-24-7.03184E-25
 -1       202 7.38427E-09-1.09303E-09-2.64892E-09 7.49397E-13-8.40105E-25-6.25056E-25
 -1       203 5.76657E-09-1.42331E-09-1.95976E-09 8.65491E-13-1.82238E-24-1.35740E-24
 -1       204 1.32391E-08-3.20374E-09-3.98104E-09 1.12805E-12 1.13737E-24 7.43170E-25
 -1       205 8.39806E-09-1.19941E-09-3.05850E-09 1.92652E-12 1.13737E-24-1.19796E-24
 -1       206 6.53790E-09-1.27310E-09-2.28143E-09 1.33527E-12 1.08567E-24 3.32003E-25
 -1       207 4.81610E-09-1.21477E-09-1.69309E-09 1.47869E-13-6.56575E-24-2.25132E-24
 -1       208 4.40621E-09-2.28024E-10-1.72418E-09-4.51147E-12 4.37703E-24 1.11556E-24
 -1       209 4.44401E-09-3.84176E-10-1.69064E-09-8.90210E-12 3.86933E-25-8.43377E-24
 -1       210 4.50811E-09-6.02516E-10-1.64111E-09-1.37040E-11-3.61892E-25-7.98100E-25
 -1       211 4.59383E-09-8.79551E-10-1.58350E-09-1.11634E-11 2.40722E-25-4.92719E-24
 -1       212 4.67614E-09-1.14958E-09-1.52682E-09-1.17664E-11-1.63013E-24 4.59362E-24
 -1       213 4.74067E-09-1.35774E-09-1.48043E-09-3.89822E-12-2.64472E-24-4.40874E-24
 -1       214 4.76016E-09-1.44487E-09-1.45175E-09 1.65436E-11 2.64795E-24-3.82066E-24
 -1       215 4.39430E-09-2.00469E-10-1.73288E-09-1.46500E-12 4.59392E-24-1.74968E-24
 -1       216 4.42361E-09-3.03140E-10-1.70983E-09-4.39038E-12-2.92744E-24-1.22413E-23
 -1       217 4.47755E-09-4.91497E-10-1.66728E-09-1.21417E-11 5.86135E-24 1.44337E-23
 -1       218 4.55101E-09-7.41424E-10-1.61263E-09-9.45468E-12 1.09860E-25-2.96339E-24
 -1       219 4.63716E-09-1.01513E-09-1.55464E-09-9.00166E-12 2.84666E-24 2.24644E-24
 -1       220 4.71011E-09-1.25505E-09-1.50196E-09-8.16428E-12-1.44369E-23-3.48159E-25
 -1       221 4.75392E-09-1.40799E-09-1.46369E-09 2.86032E-13 3.51875E-24-3.16817E-24
 -1       222 4.76803E-09-1.43567E-09-1.44518E-09 1.57260E-11 3.27156E-25 3.61286E-24
 -1       223 3.22407E-10-1.23224E-09 1.98633E-10-5.65552E-13 3.81122E-24-3.05023E-24
 -1       224 1.80437E-09-4.38102E-10-5.69838E-10 1.43606E-11-3.10112E-24 4.87907E-24
 -1       225 2.70287E-09-3.20064E-10-9.93820E-10 1.76524E-11-2.16327E-24-9.56428E-25
 -1       226 3.33175E-09-4.10996E-10-1.24463E-09 4.45200E-12-1.18831E-24-1.29570E-24
 -1       227 3.84698E-09-5.39417E-10-1.40819E-09-3.43177E-12 7.75482E-25 5.20865E-24
 -1       228 4.20254E-09-6.09952E-10-1.53151E-09-1.26239E-13 3.48307E-25-9.26862E-24
 -1       229 4.42250E-09-5.42680E-10-1.64663E-09-7.61686E-14 4.40346E-24 5.05679E-25
 -1       230 1.11407E-09-2.95578E-09 7.01538E-10 5.51718E-12 1.86439E-24-1.26662E-23
 -1       231 1.27508E-09-5.78371E-10-2.50068E-10 1.27880E-11 1.98960E-24 1.80946E-24
 -1       232 2.26392E-09-3.28279E-10-8.12285E-10 1.55052E-11-3.20007E-24 4.54949E-24
 -1       233 3.02038E-09-3.45846E-10-1.13433E-09 1.58925E-11-3.37860E-25-5.26035E-24
 -1       234 3.59972E-09-4.77888E-10-1.33325E-09-4.73217E-12-6.46942E-25-2.10026E-24
 -1       235 4.02547E-09-5.84879E-10-1.47173E-09-1.64816E-12 1.30030E-24 2.19074E-24
 -1       236 4.31043E-09-6.00097E-10-1.58811E-09 6.47684E-14 2.55864E-24-4.91785E-24
 -1       237 4.40825E-09-4.09197E-10-1.70124E-09 7.54668E-14 4.83379E-24 9.30578E-25
 -1       238 5.11222E-09-1.40446E-09-1.59072E-09 8.30545E-10 4.27323E-25 7.36223E-24
 -1       239 5.45382E-09-1.65689E-09-1.63164E-09 1.14786E-09 3.71585E-25-1.99121E-25
 -1       240 4.86134E-09-1.30603E-09-1.52638E-09 4.13551E-10 5.34598E-24-3.33619E-24
 -1       241 8.04898E-09-2.71556E-09-2.24598E-09-1.31601E-09 2.59786E-24 6.59160E-25
 -1       242 3.68663E-09-1.15908E-09-1.08859E-09 1.58003E-09-2.87575E-25-6.13277E-24
 -1       243 3.99080E-09-8.55087E-10-1.33972E-09 1.11383E-09 2.95814E-24-9.05052E-24
 -1       244 4.66295E-09-1.03001E-09-1.55577E-09 4.39404E-10-2.72388E-24-1.00570E-25
 -1       245 4.45448E-09-8.62376E-10-1.53659E-09 6.39342E-10 1.66355E-24-2.79981E-24
 -1       246 3.90260E-09-2.51878E-09-6.27084E-10 2.19888E-09 9.95202E-25 1.48634E-24
 -1       247 6.17885E-09-2.65167E-09-1.50780E-09 1.10457E-09-3.87741E-25-3.17463E-25
 -1       248 4.75826E-09-1.17164E-09-1.53689E-09 4.51138E-10-2.02837E-24-2.56616E-24
 -1       249 4.59133E-09-9.49142E-10-1.55794E-09 5.71929E-10-1.83773E-26 1.57520E-26
 -1       250 4.70262E-09-1.11398E-09-1.53775E-09 8.30374E-10-2.02756E-24-5.66263E-25
 -1       251 4.98901E-09-1.35195E-09-1.55897E-09 6.28594E-10 1.55056E-24-3.11001E-25
 -1       252 4.76645E-09-1.14908E-09-1.54685E-09 6.49554E-10 1.56571E-24-2.49018E-24
 -1       253 4.16373E-09-2.99609E-09-6.47501E-10 1.86411E-09-3.20532E-24 1.98717E-24
 -1       254 8.59183E-09-3.29353E-09-2.25068E-09 6.26249E-10 1.91932E-24-3.36042E-25
 -1       255 7.45932E-09-3.27469E-09-1.77467E-09-2.04183E-11-8.53030E-25 3.23117E-25
 -1       256 5.47373E-09-2.76550E-09-1.16964E-09 1.74623E-09-1.77068E-24 4.24617E-24
 -1       257 6.63892E-09-3.45521E-09-1.42781E-09 1.13904E-09 1.71898E-24 2.83697E-24
 -1       258 4.26796E-09-6.78050E-10-1.53189E-09 3.77836E-10 3.94809E-26-7.81944E-25
 -1       259 4.49974E-09-7.25179E-10-1.61054E-09 3.49610E-10 1.60428E-24 2.03887E-24
 -1       260 4.44119E-09-5.91529E-10-1.63653E-09 1.96333E-10-2.79618E-24-8.28312E-24
 -1       261 7.81430E-09-1.60927E-09-2.60888E-09-1.29370E-09-1.55096E-25 6.07461E-25
 -1       262 1.02865E-08-2.12113E-09-3.21002E-09-4.65941E-10-2.58494E-26-1.29247E-25
 -1       263 3.82335E-09-9.43125E-10-1.23270E-09 1.31982E-09-2.87251E-24 8.31704E-24
 -1       264 4.84015E-09-1.95832E-09-1.23343E-09 1.70649E-09 1.38940E-24 8.04562E-25
 -1       265 5.65802E-09-1.99617E-09-1.57947E-09 1.22489E-09 1.57681E-24-1.73650E-24
 -1       266 4.68046E-09-1.27995E-09-1.45635E-09 1.30361E-09-3.15039E-24-1.77553E-24
 -1       267 4.69353E-09-1.51389E-09-1.36373E-09 1.49561E-09 1.16322E-24-3.95657E-24
 -1       268 1.83207E-09-1.13715E-09-3.51370E-10 1.51450E-09-6.72084E-25-5.35082E-24
 -1       269 2.44806E-09-6.49393E-10-7.89935E-10 1.15661E-09 1.70283E-24-2.45569E-25
 -1       270 3.49155E-09-1.58723E-09-8.36126E-10 1.94691E-09-1.88701E-24-6.27494E-24
 -1       271 3.49893E-09-5.35673E-10-1.26133E-09 6.48269E-10 2.86201E-24 5.32174E-24
 -1       272 3.05484E-09-5.22824E-10-1.07464E-09 8.48517E-10 7.01165E-25 3.63184E-24
 -1       273 6.89794E-09-2.10294E-09-2.03517E-09-1.40915E-09-2.86928E-24-1.14060E-24
 -1       274 6.22705E-09-1.64067E-09-2.01599E-09-1.08313E-09 9.69352E-25 2.18205E-24
 -1       275 4.26454E-09-8.47483E-10-1.45852E-09 8.62709E-10-1.53400E-24 2.46700E-24
 -1       276 3.95012E-09-6.21035E-10-1.41802E-09 5.00554E-10 8.90189E-25-4.04058E-24
 -1       277 5.51416E-09-1.62793E-09-1.66606E-09 5.71291E-10-3.11808E-25-3.47351E-25
 -1       278 4.97020E-09-1.45441E-09-1.51705E-09 2.68313E-10 1.20361E-25 5.14565E-25
 -1       279 5.21299E-09-1.53127E-09-1.58334E-09 4.28877E-10-1.63679E-24-3.71585E-26
 -1       280 6.97738E-09-2.42664E-09-1.92186E-09 8.62593E-11 9.11191E-25 1.29812E-24
 -1       281 6.26054E-09-1.91444E-09-1.85237E-09 7.15145E-10 2.00333E-25 8.48183E-25
 -1       282 6.59767E-09-2.12960E-09-1.90346E-09 5.82047E-10 1.89993E-24 9.08768E-25
 -1       283 7.24650E-09-2.44933E-09-2.00421E-09-8.22595E-10 2.17458E-24-1.47988E-24
 -1       284 1.57304E-09-2.61905E-09 1.94655E-10 1.69983E-09 7.23783E-25 6.07461E-25
 -1       285 5.26655E-09-1.49355E-09-1.61942E-09 1.02101E-09-8.35259E-25-3.25056E-24
 -1       286 5.87689E-09-1.75357E-09-1.76185E-09 6.85966E-10 2.03241E-24-6.86625E-25
 -1       287 4.75438E-09-1.27512E-09-1.49958E-09 2.15846E-10-1.88135E-24 1.05781E-24
 -1       288 4.80851E-09-1.39967E-09-1.47386E-09 1.03392E-10 1.84985E-25-1.69637E-25
 -1       289 4.68113E-09-1.15337E-09-1.51092E-09 1.07392E-09 2.06310E-24-7.97292E-25
 -1       290 4.62114E-09-9.57055E-10-1.56924E-09 2.63508E-10 9.15230E-25 1.33225E-24
 -1       291 4.56498E-09-8.19922E-10-1.59864E-09 3.38538E-10-5.27489E-25-5.39445E-24
 -1       292 4.68957E-09-1.13259E-09-1.52995E-09 2.65846E-10 2.99611E-24 4.98813E-25
 -1       293 4.80556E-09-1.23867E-09-1.53086E-09 4.33581E-10 7.30892E-24-2.82405E-24
 -1       294 4.76128E-09-1.15645E-09-1.54416E-09 5.51213E-10-1.55581E-24-3.64719E-25
 -1       295 4.86500E-09-1.25151E-09-1.55002E-09 6.44774E-10-1.13495E-24-2.70934E-24
 -1       296 4.92349E-09-1.32460E-09-1.54287E-09 5.17568E-10 3.00338E-24-6.47850E-25
 -1       297 4.70360E-09-1.10165E-09-1.54525E-09 4.47703E-10-7.67404E-24 1.43161E-24
 -1       298 4.63043E-09-9.84963E-10-1.56002E-09 5.09204E-10 5.89205E-24-1.91689E-24
 -1       299 4.66121E-09-1.04940E-09-1.54925E-09 6.15230E-10 4.92350E-24 1.64628E-24
 -1       300 4.52741E-09-9.02742E-10-1.55018E-09 6.05816E-10-5.52854E-24 8.17487E-25
 -1       301 4.56037E-09-9.91210E-10-1.53076E-09 7.39462E-10-3.24571E-24 8.23949E-26
 -1       302 4.73904E-09-1.12542E-09-1.54511E-09 7.39069E-10 2.82728E-25-1.25269E-24
 -1       303 4.89327E-09-1.26358E-09-1.55725E-09 8.39352E-10 2.41692E-24-8.44952E-25
 -1       304 5.05169E-09-1.37084E-09-1.57555E-09 7.23012E-10 1.06144E-24 3.96788E-24
 -1       305 4.05193E-09-2.81286E-09-5.81627E-10 2.07430E-09-7.23783E-25-5.37223E-24
 -1       306 5.87909E-09-3.17113E-09-1.11594E-09 1.78057E-09 1.60266E-24-4.08420E-24
 -1       307 6.10863E-09-3.22807E-09-1.24270E-09 1.51316E-09-1.03398E-25 2.49447E-24
 -1       308 4.88014E-09-2.62947E-09-9.31375E-10 2.03032E-09-3.51552E-24 2.10026E-25
 -1       309 3.02915E-09-1.56918E-09-8.79253E-10 1.95144E-09-2.99853E-24 2.58494E-24
 -1       310 6.24231E-09-1.35598E-09-1.97496E-09 2.02833E-09-1.29247E-24-1.75776E-24
 -1       311 7.51383E-09-3.62400E-09-1.75361E-09 8.57817E-10 2.50739E-24 7.23783E-25
 -1       312 8.43858E-09-2.93263E-09-2.31199E-09-4.66780E-10 2.03887E-24-1.03398E-24
 -1       313 7.73864E-09-3.09404E-09-1.99744E-09-6.17193E-10 2.13904E-24 2.27475E-24
 -1       314 7.21450E-09-3.37851E-09-1.63719E-09 5.36433E-10 1.16322E-24 1.21492E-24
 -1       315 6.75874E-09-3.03711E-09-1.60944E-09 6.27703E-10 8.53030E-25 2.36522E-24
 -1       316 5.94906E-09-2.70797E-09-1.35833E-09 1.42816E-09-2.84343E-25 9.45118E-25
 -1       317 4.22197E-09-6.42638E-10-1.53070E-09 1.89775E-10-4.96066E-24 2.44277E-24
 -1       318 4.35190E-09-6.55497E-10-1.58259E-09 2.82927E-10 3.89356E-25-3.41212E-24
 -1       319 4.42533E-09-5.65647E-10-1.64356E-09 9.78009E-11 2.11965E-24-3.41858E-24
 -1       320 4.35041E-09-7.68933E-10-1.53332E-09 5.15587E-10 6.97550E-24 3.63184E-24
 -1       321 4.47170E-09-8.10991E-10-1.56967E-09 4.89686E-10 3.22794E-24-7.19906E-24
 -1       322 4.46824E-09-6.57060E-10-1.62531E-09 2.74708E-10 3.08577E-25 1.41525E-24
 -1       323 4.47757E-09-5.92272E-10-1.65625E-09 1.84480E-10 9.27347E-25-5.50592E-24
 -1       324 4.42620E-09-4.58984E-10-1.68899E-09 1.03201E-10-4.77891E-24-8.19426E-24
 -1       325 1.09466E-08-2.22385E-09-3.41846E-09 2.28355E-09 1.25370E-24 2.06795E-24
 -1       326 9.14518E-09-2.70312E-09-2.78358E-09 3.07813E-10 1.53804E-24-1.03398E-24
 -1       327 1.01629E-08-1.45573E-09-3.48644E-09-1.76953E-10-2.58494E-25 1.24077E-24
 -1       328 7.58269E-09-1.23382E-09-2.67739E-09-6.55592E-10 1.13737E-24 1.75776E-24
 -1       329 8.73937E-09-1.80044E-09-2.90807E-09-7.66606E-10 9.30578E-25 1.29247E-24
 -1       330 7.94378E-09-2.17480E-09-2.44589E-09-1.27405E-09 5.16988E-26-2.27475E-24
 -1       331 3.90732E-09-8.79840E-10-1.29028E-09 1.20299E-09 1.52511E-24-4.51072E-24
 -1       332 4.21813E-09-1.23899E-09-1.28553E-09 1.43130E-09-1.92578E-24 2.25536E-24
 -1       333 4.67810E-09-1.36344E-09-1.41581E-09 1.38727E-09 1.91286E-24-1.74483E-24
 -1       334 4.30301E-09-1.07353E-09-1.38927E-09 1.22737E-09 2.14550E-24-2.70449E-24
 -1       335 3.75848E-09-1.01855E-09-1.16553E-09 1.42524E-09-2.49447E-24 2.21659E-24
 -1       336 4.17039E-09-1.56412E-09-1.14247E-09 1.67572E-09-7.62557E-25-2.89513E-24
 -1       337 4.74920E-09-1.67630E-09-1.30490E-09 1.57994E-09-1.84823E-24 6.72084E-25
 -1       338 5.46326E-09-2.35123E-09-1.35767E-09 1.47316E-09-9.56428E-25-3.20532E-24
 -1       339 5.88859E-09-2.29090E-09-1.54213E-09 1.17331E-09 2.81758E-24-5.76926E-24
 -1       340 5.16839E-09-1.78020E-09-1.46340E-09 1.38784E-09 6.94056E-24-3.29257E-24
 -1       341 5.55960E-09-1.79170E-09-1.61214E-09 1.18018E-09 2.06795E-25 4.61896E-24
 -1       342 5.05216E-09-1.47902E-09-1.53732E-09 1.24151E-09-2.26182E-24 2.03079E-24
 -1       343 1.58662E-09-7.62070E-10-4.19283E-10 7.80945E-10 1.21492E-24 4.13590E-25
 -1       344 2.78165E-09-1.32147E-09-6.05227E-10 1.76500E-09-1.86116E-24-3.90326E-24
 -1       345 2.82055E-09-1.08538E-09-7.82221E-10 1.56641E-09-4.26515E-25-3.77401E-24
 -1       346 2.04639E-09-5.06791E-10-6.61374E-10 6.03469E-10 1.16322E-24 1.26662E-24
 -1       347 2.67114E-09-1.89021E-09-4.08616E-10 1.97175E-09 1.13737E-24 4.36855E-24
 -1       348 4.36568E-09-2.22054E-09-9.66217E-10 1.94553E-09-1.91286E-24-3.61892E-24
 -1       349 4.31198E-09-1.78957E-09-1.05179E-09 1.82793E-09 0.00000E+00-3.42504E-24
 -1       350 3.12109E-09-9.04218E-10-9.38501E-10 1.37916E-09 9.30578E-25-2.37814E-24
 -1       351 3.71417E-09-6.96147E-10-1.29270E-09 8.91780E-10 9.75815E-25 6.72084E-25
 -1       352 3.27894E-09-5.18733E-10-1.17656E-09 7.35985E-10 9.56428E-25 7.72897E-24
 -1       353 3.41383E-09-7.38580E-10-1.14540E-09 1.09710E-09-1.83531E-24-4.17468E-24
 -1       354 3.37992E-09-4.75657E-10-1.24430E-09 3.26970E-10 1.61236E-24 1.40879E-24
 -1       355 2.80389E-09-4.26527E-10-1.01982E-09 4.31884E-10-5.00832E-25 7.36708E-24
 -1       356 2.78922E-09-5.69158E-10-9.46336E-10 9.81107E-10 1.22785E-24 5.16988E-25
 -1       357 6.34809E-09-1.90912E-09-1.92939E-09-8.21556E-10 1.75776E-24-7.75482E-26
 -1       358 6.55352E-09-1.87421E-09-2.02962E-09-1.21941E-09-3.36042E-25 2.24809E-24
 -1       359 5.34649E-09-1.44106E-09-1.77711E-09-6.27115E-10-6.46235E-25 9.56428E-25
 -1       360 7.42649E-09-2.37743E-09-2.14802E-09-1.32092E-09-2.17135E-24 8.01331E-25
 -1       361 6.96043E-09-1.61717E-09-2.29658E-09-1.12949E-09 7.23783E-25 1.38294E-24
 -1       362 5.97288E-09-1.46679E-09-1.99046E-09-5.32813E-10-1.96455E-24-3.11202E-25
 -1       363 4.11002E-09-6.57474E-10-1.47717E-09 4.33588E-10 8.01331E-25 1.68021E-24
 -1       364 4.08214E-09-7.34353E-10-1.43393E-09 6.90743E-10 4.15206E-24 1.16969E-24
 -1       365 4.36186E-09-8.52287E-10-1.50068E-09 7.42617E-10 8.01331E-25-1.62205E-24
 -1       366 3.86752E-09-5.78196E-10-1.40816E-09 2.51833E-10-4.60604E-24 6.65622E-25
 -1       367 3.72626E-09-5.73545E-10-1.34682E-09 5.63913E-10 1.68990E-24 3.29580E-25
 -1       368 4.12755E-09-8.36640E-10-1.40607E-09 9.74202E-10 1.47018E-24 3.55429E-25
 -1       369 5.10258E-09-1.44429E-09-1.57027E-09 5.31455E-10 1.00570E-24-5.48653E-24
 -1       370 5.09059E-09-1.48616E-09-1.54815E-09 3.40813E-10-1.79653E-24-5.14726E-24
 -1       371 4.92208E-09-1.37988E-09-1.52143E-09 3.41578E-10-6.77254E-24 5.18603E-24
 -1       372 5.30917E-09-1.51999E-09-1.62616E-09 7.04279E-10-1.30863E-24-8.17487E-25
 -1       373 5.36201E-09-1.56972E-09-1.62352E-09 4.88400E-10-1.15030E-24-1.55096E-25
 -1       374 5.70920E-09-1.71413E-09-1.70752E-09 3.11103E-10-3.40243E-24 6.00998E-25
 -1       375 5.29747E-09-1.57864E-09-1.59809E-09 2.32668E-10 1.33286E-25-4.20053E-24
 -1       376 4.98480E-09-1.47520E-09-1.51475E-09 1.43491E-10 3.76189E-24 9.33809E-25
 -1       377 6.61708E-09-2.56517E-09-1.73144E-09 5.73502E-10 2.32645E-24 2.09380E-24
 -1       378 6.77018E-09-2.26574E-09-1.91446E-09 3.61399E-10 1.05983E-24-3.74816E-25
 -1       379 6.15174E-09-2.08799E-09-1.74185E-09 8.87712E-10-1.46049E-24-2.43146E-24
 -1       380 7.29703E-09-2.35138E-09-2.08464E-09-2.95238E-11 5.42837E-25 1.63275E-24
 -1       381 7.09789E-09-2.22167E-09-2.05589E-09 2.84811E-10-2.19720E-24-9.62890E-25
 -1       382 6.70053E-09-2.05418E-09-1.96354E-09 3.81880E-10-1.87408E-24-4.46548E-24
 -1       383 6.43449E-09-1.99606E-09-1.88348E-09 6.47655E-10-8.01331E-25 4.84676E-25
 -1       384 5.85053E-09-1.79541E-09-1.73820E-09 9.29902E-10 9.69352E-25-1.40879E-24
 -1       385 7.10913E-09-2.49478E-09-1.96598E-09-3.05200E-10 1.51219E-24 1.12445E-24
 -1       386 7.12346E-09-2.27030E-09-2.05628E-09-5.21809E-10-2.18104E-24 7.04396E-25
 -1       387 7.39078E-09-2.85283E-09-1.92034E-09-4.53254E-10 1.34417E-24-1.50573E-24
 -1       388 7.08557E-09-2.34285E-09-2.02513E-09-1.06779E-09-1.20846E-24 2.82728E-25
 -1       389 8.47796E-10-1.97654E-09 2.88080E-10 8.97048E-10-2.42984E-24 6.72084E-24
 -1       390 1.71615E-09-1.43505E-09-9.66788E-11 1.42284E-09 9.82277E-25-1.18907E-24
 -1       391 1.33356E-09-2.83090E-09 4.23995E-10 3.03032E-10-3.72231E-24 3.59307E-24
 -1       392 2.60461E-09-2.59454E-09-9.37676E-11 1.79352E-09-2.32645E-24-6.72084E-25
 -1       393 6.19773E-09-1.87713E-09-1.83616E-09 3.72707E-10 3.41858E-24 1.37648E-24
 -1       394 6.06830E-09-1.81483E-09-1.80924E-09 6.88476E-10 1.52511E-24-2.33291E-24
 -1       395 5.69347E-09-1.67607E-09-1.71411E-09 6.15063E-10 5.29913E-25 9.04729E-26
 -1       396 5.18991E-09-1.43045E-09-1.60699E-09 9.14428E-10 2.62371E-24-2.21982E-24
 -1       397 5.56204E-09-1.62869E-09-1.68741E-09 8.56383E-10 2.63664E-24-2.37814E-24
 -1       398 5.35926E-09-1.54878E-09-1.62879E-09 1.07498E-09-3.94203E-25-9.38495E-24
 -1       399 4.80066E-09-1.41457E-09-1.46447E-09 4.79159E-11 2.47508E-24-1.12122E-24
 -1       400 4.88909E-09-1.42121E-09-1.49347E-09 1.84621E-10 1.68021E-24 3.87741E-26
 -1       401 4.78379E-09-1.40356E-09-1.45959E-09 4.12003E-11 5.07941E-24-1.21654E-24
 -1       402 4.74513E-09-1.29352E-09-1.48791E-09 1.09257E-10-3.75139E-24 9.56266E-24
 -1       403 4.78690E-09-1.33798E-09-1.48587E-09 1.61467E-10-1.15999E-24 9.19592E-24
 -1       404 4.80832E-09-1.28268E-09-1.51302E-09 3.11354E-10 1.38940E-24-1.87731E-24
 -1       405 4.44552E-09-1.00638E-09-1.47737E-09 9.79786E-10-3.56722E-24-5.01478E-24
 -1       406 4.69438E-09-1.11874E-09-1.52733E-09 9.40570E-10-7.75482E-26 4.45094E-25
 -1       407 4.67446E-09-1.19223E-09-1.48844E-09 1.17615E-09-1.79653E-24 5.60124E-24
 -1       408 4.95556E-09-1.33143E-09-1.55778E-09 1.05916E-09 9.17653E-25-2.63018E-24
 -1       409 4.57451E-09-9.00504E-10-1.57613E-09 4.51107E-10-1.81915E-24 2.39592E-24
 -1       410 4.53826E-09-7.71954E-10-1.60691E-09 3.47225E-10 4.09390E-24 3.90972E-24
 -1       411 4.64028E-09-9.97040E-10-1.56202E-09 3.50304E-10 1.20200E-24 4.13752E-24
 -1       412 4.59906E-09-8.86561E-10-1.58602E-09 3.01537E-10-1.65436E-24-5.04063E-25
 -1       413 4.60745E-09-9.22206E-10-1.57693E-09 1.39592E-10 7.18613E-24 1.38444E-23
 -1       414 4.53972E-09-7.37269E-10-1.62252E-09 1.80985E-10-1.13737E-24 3.24087E-24
 -1       415 4.68202E-09-1.12878E-09-1.52763E-09 1.40088E-10-3.02115E-24-4.03331E-24
 -1       416 4.72286E-09-1.20405E-09-1.51375E-09 2.40533E-10-1.50250E-24 1.86439E-24
 -1       417 4.65652E-09-1.04648E-09-1.54873E-09 2.63021E-10 4.82737E-24-4.51929E-24
 -1       418 4.72108E-09-1.14619E-09-1.53335E-09 3.55500E-10 1.60266E-24-3.24652E-24
 -1       419 5.85562E-09-3.02300E-09-1.20723E-09-1.70159E-09 7.75482E-26-1.76099E-24
 -1       420 4.41931E-09-7.76982E-10-1.55794E-09-5.02345E-10-3.08739E-24-5.10526E-24
 -1       421 8.62768E-09-2.88660E-09-2.37047E-09 9.46881E-10-8.40105E-26 1.20200E-24
 -1       422 4.73593E-09-1.13862E-09-1.54076E-09-4.62838E-10-2.26142E-24-2.17519E-24
 -1       423 5.51509E-09-1.62836E-09-1.66261E-09-1.06222E-09 1.88377E-24 5.56408E-24
 -1       424 4.12439E-09-8.21303E-10-1.41666E-09-9.30266E-10 3.40404E-24-2.47670E-24
 -1       425 4.98129E-09-1.32392E-09-1.57016E-09-8.14095E-10 2.67784E-24-6.87877E-24
 -1       426 6.73503E-09-2.33318E-09-1.86548E-09-4.42847E-10 1.34417E-24-2.58494E-25
 -1       427 3.97746E-09-1.21008E-09-1.20381E-09-1.54748E-09-8.07794E-26 1.07178E-23
 -1       428 4.78810E-09-1.34380E-09-1.48051E-09-1.23638E-10 1.40395E-24-3.95819E-25
 -1       429 4.71676E-09-1.19415E-09-1.51410E-09-2.26334E-10 7.15705E-25 1.59337E-24
 -1       430 4.64353E-09-1.01512E-09-1.55449E-09-2.90059E-10 1.57601E-24 3.75876E-24
 -1       431 6.87936E-09-2.12932E-09-2.00971E-09-4.05823E-10 6.62391E-25 6.94702E-25
 -1       432 7.16827E-09-2.22616E-09-2.06612E-09-6.29755E-12-8.69186E-25-2.85434E-24
 -1       433 7.31219E-09-2.37320E-09-2.06275E-09 5.62250E-10 1.28601E-24-9.33002E-25
 -1       434 4.58836E-09-9.47772E-10-1.56006E-09-5.60972E-10-1.18746E-25 1.72504E-24
 -1       435 4.49272E-09-6.64593E-10-1.63026E-09-2.89060E-10-8.32027E-25-6.00998E-25
 -1       436 4.56261E-09-8.19485E-10-1.59943E-09-3.28985E-10-1.63174E-25-3.54217E-24
 -1       437 4.28460E-09-6.59320E-10-1.54742E-09-2.97722E-10 6.37320E-24-5.27974E-24
 -1       438 4.44332E-09-5.67998E-10-1.64672E-09-1.68933E-10-4.95299E-24 1.87893E-24
 -1       439 7.18589E-09-2.18531E-09-2.09231E-09 1.55592E-09 1.68021E-24 5.70302E-25
 -1       440 8.33214E-09-1.56736E-09-2.78882E-09 1.17606E-09 1.05983E-24 1.74483E-25
 -1       441 6.43315E-09-1.64812E-09-2.08224E-09 1.12306E-09-1.93870E-25 2.77073E-25
 -1       442 6.47618E-09-2.71383E-09-1.59434E-09-8.46665E-10-2.44277E-24-2.60433E-24
 -1       443 7.53891E-09-3.58621E-09-1.68208E-09-4.93759E-10 2.84990E-24-1.71898E-24
 -1       444 7.58465E-09-2.96362E-09-1.91717E-09 5.75267E-10-1.25693E-24 6.55928E-25
 -1       445 8.17732E-09-2.99598E-09-2.22964E-09-1.54750E-09 1.18261E-24-8.53030E-25
 -1       446 2.00980E-09-2.11673E-09-7.76392E-11-1.82675E-09-1.16322E-24 4.10359E-24
 -1       447 4.27809E-09-2.61848E-09-9.29046E-10-2.04585E-09-3.72231E-24-5.29913E-25
 -1       448 2.71804E-09-6.77748E-10-8.64927E-10-1.23199E-09-2.92744E-24 3.87741E-26
 -1       449 4.47065E-09-1.90883E-09-1.13470E-09-1.80093E-09 1.95163E-24-1.47342E-24
 -1       450 2.45215E-09-1.28989E-09-4.89784E-10-1.99053E-09 5.75149E-25-5.61578E-24
 -1       451 1.08878E-08-2.24129E-09-3.31021E-09 5.88827E-11-1.03398E-25-2.53324E-24
 -1       452 4.28293E-09-8.03772E-10-1.49015E-09-7.03411E-10-2.73842E-24 1.66729E-24
 -1       453 3.65340E-09-5.60621E-10-1.31945E-09-5.93858E-10 5.31528E-25-1.29247E-25
 -1       454 4.01215E-09-6.27935E-10-1.44499E-09-4.27031E-10 2.16893E-24 4.69328E-24
 -1       455 4.83704E-09-1.22983E-09-1.54856E-09-6.53046E-10 2.58231E-24 2.28363E-24
 -1       456 4.61600E-09-1.09135E-09-1.51283E-09-9.81950E-10-3.09223E-24 2.82001E-24
 -1       457 4.59323E-09-1.01951E-09-1.53313E-09-7.74587E-10-3.33659E-24 5.77492E-24
 -1       458 5.19881E-09-1.44446E-09-1.60995E-09-9.78132E-10-1.95163E-24 2.19478E-24
 -1       459 5.13101E-09-1.48896E-09-1.56779E-09-4.37983E-10 3.67493E-24 1.49280E-24
 -1       460 5.84725E-09-1.73037E-09-1.75645E-09-6.36049E-10-2.82405E-24 1.77391E-24
 -1       461 5.44536E-09-1.59698E-09-1.65118E-09-5.62108E-10-6.12308E-25-3.83379E-24
 -1       462 3.99078E-09-9.15695E-10-1.32328E-09-1.21163E-09 1.16969E-24 3.16655E-24
 -1       463 3.21419E-09-5.43182E-10-1.13925E-09-8.44505E-10 3.34103E-24-3.02115E-24
 -1       464 6.06462E-09-1.94114E-09-1.75459E-09-9.27191E-10 1.96779E-24-1.76503E-24
 -1       465 6.36688E-09-1.90718E-09-1.88578E-09-5.91319E-10 3.71585E-25 2.90644E-24
 -1       466 4.89441E-09-1.47473E-09-1.46802E-09-1.36806E-09-1.66405E-24 2.10996E-24
 -1       467 4.68705E-09-1.21621E-09-1.49100E-09-1.19956E-09 1.27955E-24-3.10677E-24
 -1       468 5.50793E-09-2.01410E-09-1.49303E-09-1.33637E-09-2.64956E-24-2.60917E-25
 -1       469 4.91999E-09-1.40005E-09-1.51494E-09-2.92149E-10-3.25824E-24-4.75952E-24
 -1       470 4.75993E-09-1.32828E-09-1.47810E-09-9.67374E-11 1.68183E-24-2.88342E-24
 -1       471 4.67332E-09-1.10816E-09-1.53064E-09-1.88201E-10-2.42419E-24 1.92497E-24
 -1       472 7.23813E-09-2.22998E-09-2.09604E-09-1.93314E-10-3.81279E-25 5.25066E-26
 -1       473 7.31558E-09-2.33294E-09-2.10333E-09 2.93683E-10 4.19083E-24 5.80804E-25
 -1       474 4.53771E-09-7.33758E-10-1.62272E-09-1.76307E-10-2.54617E-24 7.95030E-24
 -1       475 4.53196E-09-7.42178E-10-1.61704E-09-3.09952E-10-8.57231E-24-6.42681E-24
 -1       476 4.47072E-09-5.54224E-10-1.66663E-09-1.53689E-10-1.91932E-24-5.64163E-24
 -1       477 4.61741E-09-9.55275E-10-1.56824E-09-1.53539E-10 7.10212E-24-2.46862E-24
 -1       478 4.61246E-09-9.21522E-10-1.57840E-09-3.09045E-10 6.88886E-24-4.20376E-24
 -1       479 4.68851E-09-1.08882E-09-1.54516E-09-3.77759E-10 1.08567E-24 2.36320E-24
 -1       480 4.66904E-09-1.04375E-09-1.55312E-09-5.17247E-10-5.33628E-24-6.16589E-24
 -1       481 4.57472E-09-8.93662E-10-1.57778E-09-4.43191E-10 1.35063E-24-6.01645E-24
 -1       482 4.50958E-09-8.60752E-10-1.56172E-09-5.36886E-10 2.04049E-24-5.47361E-24
 -1       483 4.45567E-09-7.37484E-10-1.59264E-09-3.91710E-10-2.23355E-24 2.97914E-24
 -1       484 4.42505E-09-4.40713E-10-1.69407E-09-8.90874E-11-1.81269E-24-1.09214E-24
 -1       485 4.42855E-09-5.55277E-10-1.64849E-09-8.68534E-11-2.92623E-24-3.36688E-24
 -1       486 4.46672E-09-6.15907E-10-1.64050E-09-2.29503E-10 1.28439E-24-1.92578E-24
 -1       487 4.34890E-09-7.16954E-10-1.55367E-09-4.03111E-10-1.21290E-24-6.11661E-24
 -1       488 4.36204E-09-6.35697E-10-1.59592E-09-2.29158E-10 3.33619E-25-2.33937E-24
 -1       489 4.23493E-09-6.34749E-10-1.53938E-09-1.52802E-10 6.72443E-24 2.96622E-24
 -1       490 7.77786E-09-2.50453E-09-2.24200E-09 1.24051E-09-3.20532E-24 4.13590E-25
 -1       491 6.79977E-09-1.88882E-09-2.10158E-09 1.32844E-09-4.36855E-24-4.52364E-25
 -1       492 7.21800E-09-1.59745E-09-2.40977E-09 1.08917E-09-2.68834E-24-8.53030E-25
 -1       493 8.49680E-09-2.24807E-09-2.63168E-09 1.01985E-09-4.13590E-25-8.78879E-25
 -1       494 6.46348E-09-1.97872E-09-1.94838E-09 9.23440E-10 6.50112E-24 2.24890E-24
 -1       495 5.42974E-09-1.44916E-09-1.79871E-09 6.61945E-10-2.94683E-24 1.52511E-24
 -1       496 6.07656E-09-1.46249E-09-2.02806E-09 5.57691E-10-4.23930E-24-2.47185E-24
 -1       497 7.84731E-09-1.21029E-09-2.77897E-09 6.20490E-10 2.27475E-24 3.33457E-24
 -1       498 6.26357E-09-2.89049E-09-1.42771E-09-1.24723E-09-1.91286E-24 8.62724E-25
 -1       499 7.00926E-09-2.91612E-09-1.74721E-09-2.05254E-10 6.85009E-25-2.07441E-24
 -1       500 7.57794E-09-3.25605E-09-1.82666E-09 7.63633E-11 1.55096E-24 4.54949E-24
 -1       501 6.52754E-09-3.42061E-09-1.39849E-09-1.21125E-09-2.58494E-26 2.22305E-24
 -1       502 6.58040E-09-2.50727E-09-1.73488E-09-6.20161E-10 1.82238E-24-3.05346E-24
 -1       503 7.05753E-09-2.33645E-09-1.98694E-09 7.43707E-11 5.55762E-25 3.47997E-24
 -1       504 7.26897E-09-2.61969E-09-1.98358E-09 5.91756E-10-2.68834E-24-1.64144E-24
 -1       505 6.77356E-09-2.02577E-09-2.02146E-09 4.68064E-10 6.06976E-24-1.51219E-24
 -1       506 7.44908E-09-2.60709E-09-2.04475E-09 1.08535E-09 1.97102E-25 2.17135E-24
 -1       507 8.01676E-09-3.34145E-09-2.02047E-09 8.33853E-11 1.60912E-24-6.20385E-25
 -1       508 8.70543E-09-2.83846E-09-2.36683E-09-1.43193E-10-9.82277E-25-1.03398E-24
 -1       509 5.66821E-09-2.62478E-09-1.56030E-09-2.06933E-09-9.30578E-25-6.25555E-24
 -1       510 6.78870E-09-3.28131E-09-1.41426E-09-1.31452E-09 1.44757E-24 5.11818E-24
 -1       511 6.19582E-09-9.89317E-10-1.92246E-09-2.45791E-09-4.13590E-25 1.03398E-24
 -1       512 2.90778E-09-2.44573E-09-2.76080E-10-7.23854E-10-3.41212E-24-5.06648E-24
 -1       513 1.68677E-09-4.03552E-09 6.76979E-10-5.43665E-10 5.71272E-24 1.52511E-24
 -1       514 2.86838E-09-2.34308E-09-4.24156E-10-1.98353E-09-2.99853E-24-1.05659E-24
 -1       515 4.34582E-09-2.63202E-09-7.41703E-10-1.93334E-09-1.70606E-24 1.26016E-24
 -1       516 1.17225E-09-1.19172E-09-9.58571E-11-8.93299E-10 6.85009E-25 7.75482E-24
 -1       517 2.29985E-09-1.55818E-09-2.71940E-10-2.02273E-09 1.39587E-24-6.51405E-24
 -1       518 2.13822E-09-5.43220E-10-6.98438E-10-6.48777E-10-1.29893E-24-6.38480E-24
 -1       519 2.57445E-09-9.74408E-10-6.89197E-10-1.53244E-09-2.54617E-24-2.68834E-24
 -1       520 3.38890E-09-9.64663E-10-1.03708E-09-1.40818E-09-1.77068E-24 1.31832E-24
 -1       521 4.25284E-09-1.54040E-09-1.16124E-09-1.67316E-09 2.66249E-24-5.84843E-24
 -1       522 3.65693E-09-1.60335E-09-8.42118E-10-1.94831E-09 1.60266E-24-5.57054E-24
 -1       523 5.11235E-09-2.53459E-09-1.13294E-09-1.77332E-09-5.42837E-25 5.46068E-25
 -1       524 9.20029E-09-2.60380E-09-2.84724E-09-1.08290E-09 3.90326E-24-5.68687E-25
 -1       525 1.12646E-08-2.23640E-09-3.45462E-09-2.63521E-09 2.04210E-24 1.08567E-24
 -1       526 9.19500E-09-1.82005E-09-3.05755E-09 5.13637E-10 2.58494E-25 2.58494E-25
 -1       527 1.04386E-08-1.52362E-09-3.55176E-09 4.32737E-11 2.37814E-24-1.42172E-24
 -1       528 4.35369E-09-7.99753E-10-1.52377E-09-5.95029E-10-2.66410E-24-3.81279E-24
 -1       529 4.14226E-09-7.14230E-10-1.46740E-09-5.69620E-10 5.70787E-24 8.52707E-24
 -1       530 4.14843E-09-6.54269E-10-1.49712E-09-3.55532E-10 5.98090E-24 2.06795E-24
 -1       531 4.20716E-09-8.15432E-10-1.45473E-09-8.05757E-10-1.84177E-24 1.08374E-23
 -1       532 3.88283E-09-6.90665E-10-1.36698E-09-7.67906E-10-1.33771E-24-2.42338E-24
 -1       533 3.83304E-09-5.95705E-10-1.38640E-09-5.00073E-10 2.12934E-24-3.36042E-25
 -1       534 3.46943E-09-4.88506E-10-1.27659E-09-3.04790E-10-2.01625E-24 2.41692E-24
 -1       535 3.91078E-09-5.82865E-10-1.42416E-09-2.18488E-10 3.80471E-25 1.21492E-24
 -1       536 4.44831E-09-9.09747E-10-1.51465E-09-7.45764E-10-8.95358E-24 7.27014E-24
 -1       537 4.60672E-09-1.06084E-09-1.52228E-09-8.70168E-10-5.10849E-24 7.64173E-25
 -1       538 4.38627E-09-9.55637E-10-1.46893E-09-9.62357E-10-2.90806E-25-4.80799E-24
 -1       539 4.59347E-09-9.91428E-10-1.54551E-09-6.61857E-10-5.69232E-24 6.64168E-24
 -1       540 4.78476E-09-1.18934E-09-1.54331E-09-5.56361E-10 1.94678E-25-4.44286E-26
 -1       541 4.73143E-09-1.12221E-09-1.54517E-09-7.20695E-10-2.35472E-24 2.94097E-24
 -1       542 4.91109E-09-1.28558E-09-1.55751E-09-7.28375E-10 4.42186E-24-2.08168E-24
 -1       543 4.81994E-09-1.20485E-09-1.54765E-09-9.05499E-10 5.82581E-24-6.77441E-24
 -1       544 5.35707E-09-1.54845E-09-1.63472E-09-1.01414E-09 1.69960E-24 1.17938E-25
 -1       545 5.35506E-09-1.51211E-09-1.64137E-09-7.83248E-10 3.60599E-24-2.95976E-24
 -1       546 5.64595E-09-1.68257E-09-1.70129E-09-5.90623E-10-5.79673E-24-7.75482E-26
 -1       547 5.70651E-09-1.66770E-09-1.72173E-09-8.59732E-10-2.00979E-24 3.73524E-24
 -1       548 5.09067E-09-1.39417E-09-1.58813E-09-8.89220E-10 1.00490E-24 1.14545E-24
 -1       549 5.08905E-09-1.39922E-09-1.57789E-09-6.40102E-10-2.02433E-24-4.33624E-24
 -1       550 5.28723E-09-1.55532E-09-1.60623E-09-4.94289E-10 3.29095E-24-5.97121E-24
 -1       551 5.09132E-09-1.49112E-09-1.54504E-09-2.26862E-10 5.98656E-24-6.65622E-25
 -1       552 5.45134E-09-1.60392E-09-1.64112E-09-3.00969E-10-7.93253E-24-1.15030E-24
 -1       553 5.91942E-09-1.75172E-09-1.76471E-09-3.46872E-10 9.49965E-25-6.64329E-24
 -1       554 2.90042E-09-4.34613E-10-1.05646E-09-4.36454E-10-7.52864E-25 1.38294E-24
 -1       555 2.96864E-09-5.87824E-10-1.01686E-09-1.00751E-09 6.39773E-25-1.29247E-25
 -1       556 3.43723E-09-5.43586E-10-1.23790E-09-7.02067E-10 8.46568E-25 9.24116E-25
 -1       557 4.06441E-09-8.63921E-10-1.37294E-09-1.05508E-09 2.57201E-24-2.77235E-24
 -1       558 3.60491E-09-7.31639E-10-1.23013E-09-1.03654E-09 2.83697E-24-3.95496E-24
 -1       559 4.00341E-09-1.05335E-09-1.26657E-09-1.35683E-09 3.61892E-25 5.95182E-24
 -1       560 6.48949E-09-1.93596E-09-1.90866E-09-3.33042E-10 2.74650E-24 1.40879E-24
 -1       561 6.10545E-09-1.84899E-09-1.81938E-09-6.07035E-10 1.42172E-25-2.03564E-24
 -1       562 7.07242E-09-2.13411E-09-2.04629E-09-2.43451E-10 3.90326E-24 3.01145E-24
 -1       563 6.64301E-09-2.05882E-09-1.94915E-09-5.00141E-10 1.38294E-24 2.75296E-24
 -1       564 6.79494E-09-2.21822E-09-1.94534E-09-4.48298E-10-1.29247E-24-6.85332E-24
 -1       565 6.37544E-09-2.14701E-09-1.80766E-09-7.08258E-10 2.24890E-24-2.83697E-24
 -1       566 6.22088E-09-1.90824E-09-1.83179E-09-7.67050E-10 9.17653E-25-2.33291E-24
 -1       567 5.78363E-09-1.80241E-09-1.70512E-09-9.99357E-10 2.27475E-24 4.39763E-24
 -1       568 4.96989E-09-1.32989E-09-1.55789E-09-1.09448E-09 1.02105E-24 1.10476E-24
 -1       569 4.65345E-09-1.15592E-09-1.50201E-09-1.08097E-09 7.10858E-25-2.55263E-24
 -1       570 5.23363E-09-1.55667E-09-1.57406E-09-1.21536E-09-1.82238E-24 9.17452E-25
 -1       571 4.79037E-09-1.34428E-09-1.47963E-09-1.27564E-09-4.26515E-25 2.22789E-24
 -1       572 4.48876E-09-1.34751E-09-1.34568E-09-1.45024E-09 1.24077E-24 3.78694E-24
 -1       573 4.36801E-09-1.06964E-09-1.41287E-09-1.20754E-09-1.03398E-24-4.22638E-24
 -1       574 5.95230E-09-2.38103E-09-1.53179E-09-1.13245E-09-3.16655E-24 6.76931E-25
 -1       575 5.80747E-09-1.98279E-09-1.63389E-09-1.12373E-09-3.36042E-25-3.70535E-24
 -1       576 5.07561E-09-1.98536E-09-1.33077E-09-1.53947E-09-2.58494E-26-6.87594E-24
 -1       577 5.18223E-09-1.75167E-09-1.47472E-09-1.36132E-09-2.28767E-24 3.73685E-24
 -1       578 4.86364E-09-1.42499E-09-1.48428E-09-1.25748E-10-6.30079E-24-1.67375E-24
 -1       579 4.84545E-09-1.36188E-09-1.49626E-09-2.10284E-10 1.86923E-24-3.37658E-24
 -1       580 4.76653E-09-1.40982E-09-1.45244E-09-2.31960E-11 5.11414E-24-4.68036E-24
 -1       581 5.02411E-09-1.45126E-09-1.53879E-09-3.63441E-10-3.63669E-24 6.31371E-24
 -1       582 4.90494E-09-1.31107E-09-1.53904E-09-4.85061E-10 4.54142E-24-1.71414E-24
 -1       583 4.76154E-09-1.23869E-09-1.51431E-09-2.99644E-10 3.01469E-24 5.46068E-24
 -1       584 4.76267E-09-1.38852E-09-1.46209E-09-3.57741E-11 6.68692E-24-2.38598E-23
 -1       585 4.74874E-09-1.27024E-09-1.49564E-09-1.56702E-10 1.35612E-23-8.67247E-24
 -1       586 4.73154E-09-1.26708E-09-1.49584E-09-1.06396E-10-7.81944E-25 5.05760E-24
 -1       587 4.77691E-09-1.32681E-09-1.47899E-09-1.14931E-10 1.79653E-24 9.62244E-24
 -1       588 4.73567E-09-1.16207E-09-1.52910E-09-3.53169E-10-9.77430E-25-9.55377E-24
 -1       589 4.66338E-09-1.06415E-09-1.54335E-09-2.32324E-10 6.57544E-24 1.06020E-23
 -1       590 4.69264E-09-1.15574E-09-1.52150E-09-2.10138E-10-1.51219E-23 9.17573E-24
 -1       591 4.67561E-09-1.12358E-09-1.52838E-09-1.00221E-10 1.13091E-24-1.29085E-24
 -1       592 7.07183E-09-2.17709E-09-2.05501E-09-2.69966E-10-1.34417E-24-2.43631E-24
 -1       593 7.18478E-09-2.20733E-09-2.08500E-09-1.19864E-10-5.81611E-25-1.79330E-24
 -1       594 6.92627E-09-2.30763E-09-1.97137E-09-2.52339E-10 5.94536E-25 1.01782E-25
 -1       595 7.46703E-09-2.27594E-09-2.13297E-09-9.83699E-11-3.85802E-24-2.28767E-24
 -1       596 7.53065E-09-2.32736E-09-2.14104E-09 4.22181E-11-1.07275E-24-1.21573E-25
 -1       597 7.35875E-09-2.19575E-09-2.11059E-09 2.70056E-10 8.88896E-24-1.55096E-24
 -1       598 7.29236E-09-2.36957E-09-2.09188E-09 1.22839E-10 6.48820E-24 4.35401E-25
 -1       599 7.26023E-09-2.36390E-09-2.08135E-09 3.60034E-10 8.22011E-24 4.94370E-25
 -1       600 5.10425E-09-1.54390E-09-1.53127E-09-1.30393E-09 2.29413E-25-4.73367E-25
 -1       601 5.08771E-09-1.38338E-09-1.58573E-09-8.40801E-10 1.09698E-24-2.69238E-24
 -1       602 4.66364E-09-1.03132E-09-1.55552E-09-4.44608E-10-6.36541E-25 3.40667E-24
 -1       603 7.91323E-09-2.65569E-09-2.23010E-09 1.33573E-09-1.80623E-24 2.13904E-24
 -1       604 4.45132E-09-8.53215E-10-1.53936E-09-6.22877E-10-3.56934E-24-1.62205E-24
 -1       605 4.08046E-09-8.06973E-10-1.40446E-09-9.26124E-10 4.61412E-24-3.84187E-24
 -1       606 4.86335E-09-1.30652E-09-1.52669E-09-4.15096E-10 2.42944E-24 1.91528E-24
 -1       607 3.79420E-09-1.96402E-09-8.04546E-10-2.12037E-09-1.07275E-24 3.43151E-24
 -1       608 6.67122E-09-2.76118E-09-1.68587E-09-5.89622E-10-3.87741E-25-1.67375E-24
 -1       609 3.63485E-09-1.00774E-09-1.13105E-09-1.43226E-09 1.44757E-24 1.43141E-24
 -1       610 4.49956E-09-7.18476E-10-1.61303E-09-3.42140E-10-9.70968E-25 4.61573E-24
 -1       611 4.26965E-09-6.75860E-10-1.53413E-09-3.69641E-10 6.35532E-25 4.66743E-24
 -1       612 4.44166E-09-5.88135E-10-1.63807E-09-1.93528E-10-1.24441E-24 1.38617E-24
 -1       613 5.64807E-09-2.75729E-09-1.28997E-09-1.60854E-09 1.99040E-24 2.53849E-25
 -1       614 7.52379E-09-3.11281E-09-1.87271E-09 3.96771E-10 7.91638E-25 2.45892E-24
 -1       615 8.61305E-09-3.27751E-09-2.25422E-09-5.49066E-10-9.04729E-26 3.87741E-25
 -1       616 4.37174E-09-3.14094E-09-6.21259E-10-2.15150E-09 2.86928E-24 1.03640E-24
 -1       617 6.72020E-09-3.37508E-09-1.47507E-09-1.08943E-09 1.80946E-25 1.82238E-24
 -1       618 4.68771E-09-1.09734E-09-1.53669E-09-8.19566E-10 5.12545E-25-9.24722E-25
 -1       619 4.58848E-09-9.44594E-10-1.55878E-09-5.67697E-10 3.30165E-24-9.69352E-27
 -1       620 4.75991E-09-1.17258E-09-1.53705E-09-4.54153E-10 1.73474E-24 4.55838E-24
 -1       621 4.98089E-09-1.34339E-09-1.55837E-09-6.34786E-10 2.38420E-24 7.83560E-25
 -1       622 4.75959E-09-1.14205E-09-1.54687E-09-6.48531E-10-3.47695E-24 1.18805E-24
 -1       623 7.74500E-09-1.61588E-09-2.58582E-09 1.30696E-09 1.69314E-24-1.16322E-24
 -1       624 1.01950E-08-2.10513E-09-3.19823E-09 5.22489E-10-6.33310E-25 2.19720E-25
 -1       625 3.59338E-09-5.49355E-10-1.31048E-09-5.85233E-10-1.45403E-26 2.95976E-24
 -1       626 4.30524E-09-8.33296E-10-1.48246E-09-7.72119E-10 1.78603E-24-2.16166E-24
 -1       627 3.99965E-09-6.28804E-10-1.43712E-09-4.71294E-10-1.32074E-25 6.70469E-25
 -1       628 5.73103E-09-2.09751E-09-1.57249E-09-1.21579E-09 1.55096E-24-7.29034E-25
 -1       629 3.63375E-09-1.37871E-09-9.77210E-10-1.75710E-09-4.78214E-25 1.95163E-24
 -1       630 4.44430E-09-1.33176E-09-1.34644E-09-1.45951E-09-1.25046E-24-2.90321E-24
 -1       631 4.83150E-09-1.87319E-09-1.28865E-09-1.64241E-09-1.36356E-24 3.53490E-24
 -1       632 4.97153E-09-1.45471E-09-1.51729E-09-2.68791E-10-3.80309E-24 5.96152E-25
 -1       633 4.75465E-09-1.27498E-09-1.49972E-09-2.16853E-10-7.94869E-25-2.90361E-24
 -1       634 4.80871E-09-1.39972E-09-1.47394E-09-1.03698E-10-2.87898E-24-3.74735E-24
 -1       635 6.84143E-09-2.09336E-09-2.02634E-09 1.37271E-09 6.04230E-25 5.67677E-25
 -1       636 6.19399E-09-1.63704E-09-2.00633E-09 1.07499E-09-3.59307E-24-1.29388E-24
 -1       637 5.50376E-09-1.62107E-09-1.66303E-09-5.89024E-10 1.89185E-24-4.85969E-24
 -1       638 5.21108E-09-1.52854E-09-1.58297E-09-4.36140E-10-1.53036E-24 1.63497E-24
 -1       639 6.11355E-09-1.88758E-09-1.80400E-09-8.44718E-10 1.31509E-24 4.71751E-25
 -1       640 7.09053E-09-2.36353E-09-1.98776E-09 6.44679E-11 1.87408E-25-1.79330E-24
 -1       641 6.64824E-09-2.15541E-09-1.90603E-09-5.54738E-10-2.14550E-24 2.55101E-24
 -1       642 5.12591E-09-1.41821E-09-1.58518E-09-1.08809E-09 8.15872E-25-4.97601E-25
 -1       643 5.81629E-09-1.72607E-09-1.74574E-09-7.65524E-10-6.13923E-26-4.97601E-25
 -1       644 4.44291E-09-1.11333E-09-1.43009E-09-1.23076E-09 2.58494E-25 1.18261E-24
 -1       645 4.60175E-09-1.08667E-09-1.50167E-09-1.01933E-09-1.98717E-25 1.99323E-24
 -1       646 7.17110E-09-2.37365E-09-2.01838E-09 8.39477E-10-5.37991E-25 9.16442E-25
 -1       647 3.14445E-09-4.83040E-10-1.14087E-09-7.08164E-10-2.66572E-24-3.72554E-24
 -1       648 3.75785E-09-8.06927E-10-1.28258E-09-1.13737E-09 1.89831E-24-4.84676E-26
 -1       649 2.16606E-09-9.09112E-10-5.29961E-10-1.39892E-09 1.61559E-24-2.28121E-24
 -1       650 1.71025E-09-2.22729E-09 6.91392E-11-1.89219E-09-3.73524E-24 3.12778E-24
 -1       651 4.62147E-09-9.57992E-10-1.56910E-09-2.66800E-10 1.45241E-24 2.60311E-24
 -1       652 4.68985E-09-1.13264E-09-1.53003E-09-2.67843E-10 2.52032E-25-3.11929E-24
 -1       653 4.56415E-09-8.17126E-10-1.59945E-09-3.35883E-10 1.23027E-24 6.22728E-24
 -1       654 2.69399E-09-5.50503E-10-8.99005E-10-9.49711E-10 2.01302E-24 1.09860E-25
 -1       655 4.42593E-09-4.55886E-10-1.68987E-09-1.01614E-10 2.61725E-24-1.14384E-24
 -1       656 4.42580E-09-5.64003E-10-1.64445E-09-9.69787E-11 9.24197E-24-1.13091E-24
 -1       657 4.47675E-09-5.87380E-10-1.65762E-09-1.80546E-10-2.64956E-25 3.03084E-24
 -1       658 4.46843E-09-6.52006E-10-1.62738E-09-2.69356E-10-5.78057E-24 3.51552E-24
 -1       659 4.47145E-09-8.03290E-10-1.57255E-09-4.78861E-10-5.93647E-24 1.88054E-24
 -1       660 4.35243E-09-7.63620E-10-1.53619E-09-5.02817E-10-3.96425E-24-8.07794E-26
 -1       661 4.35420E-09-6.52927E-10-1.58456E-09-2.77528E-10-3.02923E-25 4.52364E-24
 -1       662 4.22343E-09-6.41207E-10-1.53202E-09-1.87012E-10-3.65527E-25-1.87408E-24
 -1       663 4.81819E-09-2.37722E-09-1.04719E-09-1.87600E-09-2.84343E-24 5.16988E-26
 -1       664 6.24629E-09-3.12484E-09-1.33581E-09-1.39058E-09 2.11965E-24-2.73357E-24
 -1       665 5.97675E-09-3.25432E-09-1.11722E-09-1.76411E-09 5.06648E-24 1.77068E-24
 -1       666 4.06901E-09-2.54945E-09-6.69639E-10-2.15127E-09 7.23783E-25 3.92911E-24
 -1       667 6.27819E-09-2.74777E-09-1.50461E-09-1.06403E-09 3.36042E-24-8.65955E-25
 -1       668 7.06950E-09-3.00001E-09-1.75880E-09-1.49765E-10-1.42172E-25-3.96142E-24
 -1       669 7.30920E-09-3.29884E-09-1.72460E-09-2.66332E-10 2.11965E-24 1.48634E-24
 -1       670 7.69897E-09-2.98265E-09-2.03682E-09 8.08223E-10-2.39107E-25 5.09233E-24
 -1       671 8.42932E-09-2.93692E-09-2.31036E-09 5.34470E-10-2.38299E-26 1.49926E-24
 -1       672 7.59892E-09-3.69356E-09-1.76234E-09-7.15332E-10 2.42984E-24 9.30578E-25
 -1       673 6.32347E-09-1.41771E-09-1.98502E-09-1.96125E-09-3.10193E-24-5.73857E-24
 -1       674 3.35456E-09-1.90520E-09-7.83629E-10-2.02951E-09-4.13590E-25-2.37814E-24
 -1       675 4.86873E-09-1.24518E-09-1.55399E-09-8.40924E-10 5.67394E-24-1.30943E-24
 -1       676 4.72682E-09-1.11456E-09-1.54468E-09-7.34918E-10 7.74189E-24 1.10280E-23
 -1       677 4.85675E-09-1.24352E-09-1.54970E-09-6.47303E-10-6.94056E-24 4.53091E-24
 -1       678 5.03236E-09-1.35674E-09-1.57320E-09-7.33138E-10 1.14384E-24-7.65788E-25
 -1       679 4.54972E-09-9.78497E-10-1.53162E-09-7.25696E-10-4.83061E-24 2.29736E-24
 -1       680 4.52546E-09-8.97054E-10-1.55188E-09-5.96111E-10-3.02963E-24-4.85322E-24
 -1       681 4.65623E-09-1.04386E-09-1.54969E-09-6.12258E-10 1.14299E-23-2.05341E-24
 -1       682 4.62982E-09-9.84062E-10-1.56021E-09-5.09447E-10 2.38138E-24 4.43963E-24
 -1       683 4.70455E-09-1.10289E-09-1.54524E-09-4.51657E-10 5.04709E-24 1.20980E-23
 -1       684 4.75925E-09-1.15365E-09-1.54439E-09-5.52535E-10-1.82481E-24-7.24914E-24
 -1       685 4.80689E-09-1.23921E-09-1.53112E-09-4.35956E-10 3.06477E-24-5.74826E-24
 -1       686 4.92021E-09-1.32079E-09-1.54306E-09-5.21988E-10 2.36239E-24 3.06962E-24
 -1       687 9.10127E-09-2.68350E-09-2.77783E-09-2.18506E-10-3.60599E-24 1.39587E-24
 -1       688 1.09273E-08-2.21997E-09-3.41677E-09-2.24765E-09-1.03010E-23-8.27181E-25
 -1       689 7.86290E-09-2.14735E-09-2.42277E-09 1.30178E-09 1.55096E-24-1.34417E-24
 -1       690 8.67446E-09-1.78762E-09-2.88853E-09 7.96259E-10 2.99853E-24-1.29247E-25
 -1       691 7.54840E-09-1.23867E-09-2.66344E-09 6.57402E-10 6.20385E-25-9.43503E-25
 -1       692 1.01291E-08-1.44920E-09-3.47758E-09 1.93038E-10 1.18907E-24-4.21345E-24
 -1       693 3.84566E-09-6.76902E-10-1.35635E-09-7.66168E-10 3.71908E-24 6.33310E-25
 -1       694 3.81393E-09-5.92433E-10-1.37837E-09-5.21011E-10-1.58974E-24 8.20072E-24
 -1       695 4.13833E-09-7.32776E-10-1.45778E-09-6.29899E-10-4.35724E-24 1.14060E-24
 -1       696 4.19852E-09-8.13335E-10-1.44649E-09-8.40651E-10 4.05835E-24-8.74033E-24
 -1       697 3.43901E-09-4.77378E-10-1.27249E-09-3.03151E-10-2.89513E-24 8.85342E-25
 -1       698 3.89752E-09-5.82575E-10-1.41871E-09-2.39598E-10 1.61559E-25 8.85342E-25
 -1       699 4.13671E-09-6.60895E-10-1.48712E-09-4.16400E-10-1.82561E-24 3.23117E-25
 -1       700 4.38056E-09-8.42030E-10-1.51271E-09-6.93206E-10-4.34593E-25 4.90492E-24
 -1       701 5.40380E-09-1.80359E-09-1.54713E-09-1.26895E-09 2.32645E-25 3.13585E-24
 -1       702 5.34071E-09-1.99646E-09-1.43562E-09-1.42042E-09-3.59307E-24-1.62205E-24
 -1       703 4.64711E-09-1.58319E-09-1.31617E-09-1.53987E-09-1.86116E-24 2.77235E-24
 -1       704 4.81538E-09-1.43740E-09-1.44390E-09-1.38066E-09-6.97934E-25-1.14384E-24
 -1       705 6.19400E-09-2.43467E-09-1.61692E-09-9.36328E-10 5.16988E-26-1.17130E-24
 -1       706 5.24662E-09-2.30018E-09-1.27559E-09-1.62162E-09 7.75482E-25 5.00509E-24
 -1       707 3.70749E-09-1.59870E-09-8.92734E-10-1.88373E-09-7.49632E-25-2.36522E-24
 -1       708 4.27841E-09-1.64012E-09-1.13624E-09-1.71693E-09 2.08088E-24 3.83864E-24
 -1       709 3.65148E-09-1.15138E-09-1.05823E-09-1.55983E-09 2.48154E-24 4.42025E-24
 -1       710 4.08181E-09-1.17621E-09-1.24307E-09-1.46197E-09-1.00813E-24-5.97121E-24
 -1       711 4.98561E-09-1.47539E-09-1.51489E-09-1.43719E-10-9.06748E-24 1.00554E-23
 -1       712 4.88967E-09-1.42141E-09-1.49362E-09-1.85130E-10-4.09713E-24 3.84187E-24
 -1       713 4.80078E-09-1.41461E-09-1.46451E-09-4.80382E-11-1.49603E-24-2.50254E-24
 -1       714 4.92338E-09-1.38016E-09-1.52172E-09-3.42774E-10 3.58014E-24 2.40722E-24
 -1       715 4.80906E-09-1.28294E-09-1.51324E-09-3.12763E-10 9.59659E-25-1.35709E-25
 -1       716 4.78715E-09-1.33797E-09-1.48599E-09-1.62117E-10 3.41697E-24-4.01958E-24
 -1       717 4.74518E-09-1.29328E-09-1.48799E-09-1.09760E-10-3.75786E-24-3.33376E-24
 -1       718 4.78385E-09-1.40349E-09-1.45963E-09-4.13290E-11-5.26681E-25-5.25712E-24
 -1       719 5.33119E-09-1.43946E-09-1.77364E-09 6.21593E-10-7.75482E-24-1.96455E-24
 -1       720 6.51601E-09-1.87170E-09-2.01902E-09 1.19980E-09-2.11965E-24-6.49062E-25
 -1       721 6.32968E-09-1.90584E-09-1.92625E-09 8.02216E-10-1.29247E-25 1.91286E-24
 -1       722 5.95753E-09-1.46629E-09-1.98505E-09 5.29444E-10-2.99853E-24-6.61482E-25
 -1       723 6.92244E-09-1.61620E-09-2.28111E-09 1.13099E-09 1.08567E-24-1.22785E-25
 -1       724 7.34821E-09-2.35006E-09-2.13460E-09 1.30682E-09 2.26182E-24 6.97934E-25
 -1       725 5.08989E-09-1.48517E-09-1.54827E-09-3.44694E-10-3.90245E-24 2.31998E-24
 -1       726 5.09597E-09-1.43835E-09-1.56971E-09-5.38771E-10-6.65622E-25-9.75815E-25
 -1       727 5.29640E-09-1.57752E-09-1.59792E-09-2.36879E-10-2.05543E-24-7.11505E-24
 -1       728 5.70352E-09-1.71053E-09-1.70613E-09-3.21535E-10-7.93253E-25 1.20200E-24
 -1       729 5.35422E-09-1.56518E-09-1.62205E-09-5.01166E-10-8.27181E-25-3.18594E-24
 -1       730 5.28705E-09-1.50590E-09-1.62171E-09-7.20423E-10 2.84020E-24-6.06491E-24
 -1       731 6.21341E-09-2.14031E-09-1.74277E-09-8.66343E-10 2.54617E-24-1.21654E-24
 -1       732 6.86817E-09-2.27093E-09-1.95096E-09-2.73014E-10-1.49926E-24 1.01459E-24
 -1       733 6.90493E-09-2.56952E-09-1.84744E-09-2.24064E-10-1.16322E-24-3.61892E-25
 -1       734 5.61289E-09-1.73519E-09-1.66357E-09-1.08036E-09 1.30539E-24-1.27631E-24
 -1       735 6.36876E-09-2.00797E-09-1.85692E-09-7.06324E-10-7.49632E-25-2.11965E-24
 -1       736 6.62147E-09-2.03382E-09-1.94546E-09-4.52277E-10 1.86116E-24 8.55615E-24
 -1       737 7.11690E-09-2.23211E-09-2.05836E-09-2.77469E-10-8.10379E-24-4.68520E-25
 -1       738 7.36157E-09-2.34053E-09-2.10869E-09 7.19542E-11 2.17135E-24 6.00191E-25
 -1       739 5.65853E-09-1.65939E-09-1.70638E-09-6.64878E-10 2.00333E-24 1.39587E-24
 -1       740 5.45646E-09-1.58142E-09-1.66107E-09-9.34467E-10-9.49965E-25-1.70606E-24
 -1       741 5.10793E-09-1.38605E-09-1.59093E-09-9.58002E-10 2.53970E-24 1.14707E-25
 -1       742 6.16376E-09-1.86212E-09-1.83022E-09-4.17904E-10 3.36042E-25-2.64310E-24
 -1       743 5.96402E-09-1.78748E-09-1.77897E-09-7.95476E-10 3.74816E-25 3.93557E-24
 -1       744 5.12061E-09-1.45280E-09-1.56609E-09-1.18345E-09-6.13923E-25 1.13884E-24
 -1       745 4.64618E-09-1.08053E-09-1.52288E-09-9.15175E-10-5.60609E-24-1.24336E-23
 -1       746 4.42382E-09-9.67828E-10-1.48399E-09-9.06781E-10 7.98423E-24-3.37335E-24
 -1       747 4.83256E-09-1.26432E-09-1.53357E-09-1.07274E-09-6.07461E-24 3.64315E-25
 -1       748 4.74448E-09-1.33977E-09-1.46979E-09-1.28248E-09 2.32645E-24 5.50431E-24
 -1       749 4.52673E-09-1.07404E-09-1.47168E-09-1.11402E-09 5.40252E-24 3.06962E-24
 -1       750 4.22851E-09-9.56651E-10-1.40896E-09-1.08591E-09 2.70772E-24 2.87575E-24
 -1       751 7.10667E-09-2.24815E-09-2.05853E-09 5.08759E-10-5.95829E-24-8.91804E-25
 -1       752 7.13795E-09-2.40528E-09-2.00548E-09 4.04663E-10-1.88701E-24-5.40414E-24
 -1       753 7.01416E-09-2.28075E-09-2.02247E-09 1.05863E-09-9.53196E-25 1.78603E-24
 -1       754 7.35131E-09-2.73921E-09-1.96204E-09 6.27123E-10-2.04856E-24 3.37335E-24
 -1       755 3.64784E-09-6.60177E-10-1.28927E-09-8.49362E-10 1.93224E-24 3.10193E-25
 -1       756 3.47063E-09-6.48575E-10-1.21071E-09-9.49356E-10-6.20385E-25-5.35082E-24
 -1       757 3.19877E-09-4.49459E-10-1.18529E-09-3.53266E-10-3.14232E-24 3.67061E-24
 -1       758 4.14626E-09-9.62588E-10-1.35881E-09-1.19344E-09 2.50093E-24 4.98247E-24
 -1       759 4.06443E-09-1.06147E-09-1.30154E-09-1.31673E-09 2.19720E-24-2.52032E-24
 -1       760 3.31557E-09-7.48826E-10-1.11775E-09-1.10727E-09 1.75776E-24-5.86781E-24
 -1       761 1.78963E-09-6.77626E-10-5.10566E-10-7.28421E-10 7.30245E-25 5.81611E-24
 -1       762 1.88189E-09-1.24488E-09-2.60394E-10-1.47748E-09-1.00813E-24-6.04876E-24
 -1       763 7.97013E-10-1.73286E-09 2.19142E-10-9.68451E-10 9.30578E-24-4.54949E-24
 -1       764 2.83809E-09-1.48983E-09-6.30050E-10-1.84721E-09 1.42172E-24 1.55096E-24
 -1       765 2.86086E-09-2.49422E-09-1.93058E-10-2.05619E-09-7.08273E-24 1.18907E-24
 -1       766 1.40786E-09-2.65525E-09 3.73742E-10-5.41165E-10-3.98081E-24 5.42837E-25
 -1       767 4.72197E-09-1.14673E-09-1.53347E-09-3.58038E-10 7.02780E-25 6.84524E-24
 -1       768 4.72318E-09-1.20405E-09-1.51388E-09-2.42009E-10-4.32977E-24-2.51385E-24
 -1       769 4.64085E-09-9.97876E-10-1.56181E-09-3.54352E-10 6.26848E-25 1.68368E-23
 -1       770 4.65690E-09-1.04693E-09-1.54871E-09-2.65597E-10-6.41711E-24 1.60764E-24
 -1       771 4.60756E-09-9.22416E-10-1.57690E-09-1.41375E-10 1.33447E-24-3.97031E-25
 -1       772 4.68212E-09-1.12863E-09-1.52768E-09-1.41180E-10-5.16988E-24 8.86877E-24
 -1       773 4.53745E-09-7.67425E-10-1.60849E-09-3.41897E-10-2.15196E-24 3.89033E-24
 -1       774 4.57288E-09-8.96082E-10-1.57707E-09-4.47872E-10 3.33296E-24 1.05546E-23
 -1       775 4.53908E-09-7.34919E-10-1.62304E-09-1.79500E-10 2.84666E-24 2.70772E-24
 -1       776 4.59868E-09-8.85922E-10-1.58624E-09-3.01573E-10 9.63536E-24 9.86962E-24
 -1       777 2.94032E-09-4.79470E-10-1.03289E-09-7.99827E-10-1.34417E-24-5.22158E-24
 -1       778 2.59539E-09-4.50976E-10-9.29085E-10-4.92952E-10 1.49926E-24-5.42837E-25
 -1       779 3.06237E-09-9.83195E-10-9.09227E-10-1.42348E-09-8.91804E-25 5.06648E-24
 -1       780 2.42097E-09-6.54517E-10-7.34553E-10-1.12786E-09 2.89513E-24 4.75629E-24
 -1       781 3.91477E-09-1.84829E-09-8.99494E-10 2.05083E-09 1.09860E-25 2.10673E-24
 -1       782 3.98196E-09-8.97623E-10-1.31952E-09 1.19181E-09 3.06962E-25 7.06012E-25
 -1       783 7.87675E-09-2.68091E-09-2.20651E-09-1.32030E-09 3.61892E-25-2.11319E-24
 -1       784 5.54238E-09-1.71730E-09-1.64863E-09 1.13724E-09-2.15842E-24 1.06992E-24
 -1       785 4.86367E-09-1.30603E-09-1.52739E-09 4.20655E-10 8.96651E-25 5.71433E-24
 -1       786 4.44777E-09-8.63202E-10-1.53352E-09 6.50427E-10-1.29853E-25-2.02272E-24
 -1       787 5.12320E-09-1.41163E-09-1.59319E-09 8.38770E-10-6.28463E-24 1.22381E-24
 -1       788 6.62547E-09-2.65737E-09-1.71446E-09 5.79789E-10-2.06795E-24-3.73766E-24
 -1       789 4.66503E-09-1.03298E-09-1.55534E-09 4.48833E-10-1.53481E-24-6.51627E-24
 -1       790 4.24969E-09-8.55639E-10-1.44949E-09 8.99045E-10 3.50098E-24-2.40399E-24
 -1       791 4.72930E-09-1.35123E-09-1.45687E-09 1.34769E-09-6.23617E-25-9.22500E-25
 -1       792 5.30867E-09-1.51937E-09-1.62786E-09 1.02675E-09-7.17321E-25 8.89623E-24
 -1       793 4.70344E-09-1.11803E-09-1.53708E-09 8.43760E-10 6.00271E-24-3.80451E-24
 -1       794 4.69851E-09-1.17655E-09-1.51065E-09 1.10279E-09-1.82723E-24 1.17251E-24
 -1       795 7.73258E-09-1.64144E-09-2.57181E-09-1.33255E-09 1.08567E-24-4.84676E-25
 -1       796 6.83690E-09-2.09472E-09-2.02386E-09-1.36256E-09-7.46401E-25 2.61523E-25
 -1       797 6.18895E-09-1.63831E-09-2.00363E-09-1.08571E-09 5.29913E-25 2.44691E-24
 -1       798 7.43648E-09-3.05265E-09-1.86521E-09-3.70580E-10-2.71096E-24 5.16988E-26
 -1       799 5.64640E-09-2.64742E-09-1.33614E-09 1.54727E-09 2.66895E-24 1.85267E-24
 -1       800 4.55157E-09-3.16336E-09-6.67618E-10 2.20787E-09 1.39587E-24-3.00338E-24
 -1       801 8.57726E-09-3.29922E-09-2.23096E-09 5.10169E-10-4.42671E-25 3.17948E-24
 -1       802 6.69059E-09-3.33682E-09-1.47459E-09 1.07953E-09 3.10193E-25-2.50093E-24
 -1       803 4.26251E-09-6.77824E-10-1.52946E-09 3.80769E-10-3.68051E-26 1.68344E-24
 -1       804 4.49852E-09-7.28098E-10-1.60882E-09 3.55999E-10-2.07684E-24-3.14232E-24
 -1       805 4.44009E-09-5.93262E-10-1.63537E-09 1.98154E-10-5.52894E-24-2.19074E-24
 -1       806 2.29700E-09-8.91794E-10-5.92967E-10 1.42763E-09-8.40105E-25 6.72730E-24
 -1       807 1.76440E-09-2.10444E-09 1.65728E-11 1.97090E-09-3.26995E-24-4.27807E-24
 -1       808 3.46845E-09-5.38296E-10-1.24443E-09 6.82262E-10 1.31024E-24 5.88074E-25
 -1       809 3.93035E-09-6.18056E-10-1.41057E-09 5.14569E-10-1.74080E-24-4.17791E-24
 -1       810 1.01437E-08-2.10136E-09-3.18544E-09-5.44992E-10-1.07275E-24 2.32645E-25
 -1       811 4.99499E-09-1.35482E-09-1.56040E-09 6.36529E-10 1.67617E-25-3.14393E-24
 -1       812 4.76079E-09-1.17285E-09-1.53736E-09 4.58946E-10 1.08729E-24 4.87503E-25
 -1       813 4.59071E-09-9.51623E-10-1.55651E-09 5.82814E-10-7.75886E-25-1.58328E-24
 -1       814 4.76961E-09-1.15186E-09-1.54694E-09 6.59274E-10-2.05679E-24 3.80976E-25
 -1       815 5.52348E-09-1.63212E-09-1.66872E-09 5.72427E-10 1.07598E-24 1.39425E-24
 -1       816 4.97254E-09-1.45489E-09-1.51786E-09 2.71381E-10-2.16004E-24-1.65678E-24
 -1       817 5.21821E-09-1.53314E-09-1.58485E-09 4.31435E-10-1.74281E-25 6.00998E-25
 -1       818 4.62170E-09-9.58251E-10-1.56899E-09 2.69746E-10-9.56428E-25 4.66844E-24
 -1       819 4.56497E-09-8.21948E-10-1.59782E-09 3.45616E-10 7.06173E-24-4.10601E-24
 -1       820 7.09210E-09-2.34251E-09-2.00047E-09-3.34953E-11-8.01331E-25-1.09294E-24
 -1       821 7.16135E-09-2.36098E-09-2.02084E-09-7.98514E-10 6.38157E-25-1.84768E-24
 -1       822 6.31847E-09-1.93540E-09-1.86624E-09 6.88731E-10 2.15842E-24 5.52531E-25
 -1       823 5.90648E-09-1.76538E-09-1.76955E-09 6.78420E-10-1.84177E-25-2.53001E-24
 -1       824 5.98264E-09-2.11636E-09-1.67215E-09 1.03675E-09 1.12445E-24 1.90074E-24
 -1       825 6.75387E-09-2.14635E-09-1.95143E-09 4.80531E-10-2.26182E-25 1.04528E-24
 -1       826 4.75512E-09-1.27440E-09-1.50013E-09 2.19320E-10-3.63507E-25 1.14707E-24
 -1       827 4.80913E-09-1.39972E-09-1.47415E-09 1.04602E-10 4.91462E-24 6.36622E-24
 -1       828 4.69011E-09-1.13231E-09-1.53022E-09 2.70550E-10-7.14009E-24 3.16756E-24
 -1       829 3.82832E-09-1.18614E-09-1.14234E-09 1.56722E-09-1.55419E-24 1.58004E-24
 -1       830 2.92478E-09-5.62092E-10-9.98633E-10 9.52286E-10 3.64153E-24-4.76921E-24
 -1       831 4.97598E-09-1.79260E-09-1.38728E-09 1.53968E-09 9.04729E-26 1.44110E-24
 -1       832 4.35180E-09-8.54637E-10-1.49503E-09 7.64291E-10 3.26187E-24-4.92431E-24
 -1       833 4.44850E-09-1.02251E-09-1.47266E-09 1.01361E-09 6.28140E-24-9.31548E-24
 -1       834 4.70456E-09-1.12923E-09-1.52693E-09 9.58797E-10 4.78214E-25 7.51329E-24
 -1       835 4.55794E-09-9.93901E-10-1.52882E-09 7.52050E-10-2.51870E-24 7.99716E-25
 -1       836 4.11626E-09-8.55559E-10-1.39281E-09 1.02595E-09 2.61079E-24-2.92098E-24
 -1       837 4.33488E-09-1.13345E-09-1.37963E-09 1.28812E-09 2.57201E-24 6.77254E-24
 -1       838 4.71605E-09-1.23156E-09-1.48889E-09 1.20521E-09 5.81611E-25-3.10839E-24
 -1       839 5.13762E-09-1.54255E-09-1.54735E-09 1.24871E-09-3.54137E-24 3.37900E-24
 -1       840 5.42713E-09-1.58856E-09-1.64131E-09 1.06868E-09-1.26662E-24-5.04063E-25
 -1       841 4.98798E-09-1.35612E-09-1.56199E-09 1.07577E-09-2.56555E-24 2.72792E-24
 -1       842 5.21678E-09-1.44515E-09-1.61219E-09 9.19951E-10-5.09233E-24 2.42500E-24
 -1       843 4.90027E-09-1.26960E-09-1.55812E-09 8.50072E-10-1.92578E-24 1.21169E-25
 -1       844 7.83869E-09-2.17533E-09-2.40206E-09-1.30815E-09-1.34417E-24-2.32645E-24
 -1       845 6.92070E-09-1.62793E-09-2.27435E-09-1.14943E-09 1.86116E-24 1.65436E-24
 -1       846 6.51577E-09-1.88006E-09-2.01586E-09-1.19877E-09 5.16988E-25-1.67334E-24
 -1       847 7.34091E-09-2.36337E-09-2.12454E-09-1.29867E-09-6.97934E-25 1.86116E-24
 -1       848 7.53826E-09-1.24843E-09-2.65752E-09-6.69490E-10-1.03398E-25 1.86116E-24
 -1       849 5.95498E-09-1.46857E-09-1.98307E-09-5.36791E-10 2.27475E-24 2.83240E-24
 -1       850 5.32921E-09-1.43864E-09-1.77290E-09-6.25838E-10 5.99706E-24 2.37168E-24
 -1       851 6.33663E-09-1.90537E-09-1.92731E-09-7.98188E-10-5.29266E-24-3.48967E-25
 -1       852 7.64051E-09-2.97707E-09-2.01624E-09-7.86598E-10-1.06629E-24 4.91138E-25
 -1       853 7.23566E-09-3.25079E-09-1.71718E-09 2.73379E-10-1.86116E-24-1.73191E-24
 -1       854 7.56962E-09-3.73067E-09-1.73606E-09 6.59767E-10-3.10193E-25-3.51552E-24
 -1       855 8.39176E-09-2.97368E-09-2.28452E-09-5.45676E-10 2.00333E-24 1.08567E-24
 -1       856 7.00735E-09-2.91010E-09-1.77025E-09 1.61124E-10-1.95163E-24-3.16655E-24
 -1       857 6.24089E-09-2.63951E-09-1.53875E-09 1.03279E-09 4.91138E-24-3.07608E-24
 -1       858 6.22132E-09-3.02701E-09-1.36293E-09 1.34682E-09 1.91286E-24 4.05189E-24
 -1       859 4.84338E-09-2.26863E-09-1.11313E-09 1.81648E-09-2.55909E-24 4.42025E-24
 -1       860 4.19208E-09-2.48409E-09-7.47753E-10 2.12116E-09 3.10193E-25-1.12445E-24
 -1       861 6.02675E-09-3.24932E-09-1.13392E-09 1.76523E-09 1.49926E-24-3.29580E-24
 -1       862 3.53820E-09-2.02683E-09-7.84650E-10 2.04990E-09 5.68687E-25 3.61892E-24
 -1       863 6.34457E-09-1.47731E-09-1.97173E-09 1.94456E-09-3.10193E-25 1.75776E-24
 -1       864 4.21776E-09-6.41936E-10-1.52937E-09 1.90947E-10 5.21027E-25 3.48967E-25
 -1       865 4.34814E-09-6.56218E-10-1.58079E-09 2.85132E-10-3.72554E-24-4.69813E-24
 -1       866 4.42478E-09-5.66441E-10-1.64306E-09 9.86944E-11-7.22935E-24 6.33310E-25
 -1       867 4.34291E-09-7.69299E-10-1.53023E-09 5.22790E-10 4.66420E-24 5.36375E-25
 -1       868 4.46764E-09-8.12883E-10-1.56723E-09 4.97804E-10 1.97909E-24 6.33310E-24
 -1       869 4.46673E-09-6.59270E-10-1.62376E-09 2.78615E-10-1.37325E-24-2.55263E-24
 -1       870 4.47743E-09-5.94746E-10-1.65553E-09 1.88082E-10-3.49613E-24-4.95662E-24
 -1       871 4.42590E-09-4.60316E-10-1.68859E-09 1.04215E-10-4.35239E-24-2.00333E-24
 -1       872 3.00363E-09-2.45248E-09-2.56193E-10 2.13518E-09 8.78879E-25-1.44757E-24
 -1       873 1.45511E-09-2.59782E-09 3.47673E-10 6.30625E-10-1.34417E-24-5.22158E-24
 -1       874 2.99927E-09-1.41153E-09-7.18361E-10 1.80490E-09-1.68021E-24 6.72084E-25
 -1       875 1.98905E-09-1.20997E-09-3.22366E-10 1.52002E-09-3.36042E-24-6.15216E-24
 -1       876 1.85823E-09-6.54695E-10-5.41305E-10 7.32869E-10-4.13590E-25 7.39293E-24
 -1       877 8.20776E-10-1.67508E-09 1.91417E-10 9.93511E-10-6.46235E-24 8.27181E-25
 -1       878 4.09698E-09-6.54945E-10-1.47256E-09 4.41112E-10 3.63507E-25-1.60266E-24
 -1       879 4.06180E-09-7.37316E-10-1.42477E-09 7.17810E-10-2.17781E-24-6.96641E-24
 -1       880 3.85489E-09-5.75906E-10-1.40405E-09 2.58365E-10 1.81350E-24 9.27347E-24
 -1       881 3.35534E-09-4.77176E-10-1.23424E-09 3.44527E-10 8.91804E-25 7.30245E-25
 -1       882 3.69716E-09-5.69294E-10-1.33565E-09 5.86832E-10-3.00499E-25-2.30706E-24
 -1       883 3.67868E-09-7.21195E-10-1.27162E-09 9.56495E-10-8.14256E-25-2.58494E-24
 -1       884 1.08944E-08-2.22497E-09-3.40849E-09 2.23365E-09-4.30392E-24-3.61892E-25
 -1       885 9.05735E-09-2.68850E-09-2.75715E-09 1.78854E-10-2.18427E-24 2.84343E-24
 -1       886 1.01189E-08-1.45122E-09-3.47206E-09-1.94779E-10-6.20385E-25 1.44757E-24
 -1       887 8.65207E-09-1.80470E-09-2.87358E-09-8.16941E-10-3.36042E-24-5.16988E-25
 -1       888 4.74169E-09-1.12825E-09-1.54491E-09 7.49957E-10 4.73044E-24-3.04336E-24
 -1       889 4.66232E-09-1.05193E-09-1.54860E-09 6.25534E-10 7.46926E-24 1.47196E-23
 -1       890 4.52364E-09-9.04014E-10-1.54800E-09 6.16767E-10-7.15634E-24 5.56731E-24
 -1       891 5.06092E-09-1.37570E-09-1.57743E-09 7.30380E-10-4.26515E-24-6.70792E-24
 -1       892 4.86971E-09-1.25442E-09-1.55081E-09 6.53707E-10-1.90235E-24 3.01226E-24
 -1       893 4.92766E-09-1.32616E-09-1.54402E-09 5.24923E-10 2.27192E-25-3.76432E-24
 -1       894 4.80809E-09-1.23928E-09-1.53165E-09 4.40996E-10 8.17487E-24 7.47532E-24
 -1       895 4.76395E-09-1.15849E-09-1.54447E-09 5.59923E-10-2.49931E-24 1.39272E-23
 -1       896 4.70588E-09-1.10370E-09-1.54533E-09 4.56290E-10-7.89537E-24-2.56626E-24
 -1       897 4.63111E-09-9.87558E-10-1.55918E-09 5.19398E-10 2.69157E-24-1.27518E-23
 -1       898 5.10893E-09-1.44661E-09-1.57193E-09 5.36602E-10-6.08269E-24-4.99863E-24
 -1       899 5.09441E-09-1.48753E-09-1.54926E-09 3.43580E-10-4.12015E-24-7.46078E-24
 -1       900 4.92475E-09-1.38007E-09-1.52242E-09 3.46726E-10-2.85474E-24 4.21991E-24
 -1       901 5.32134E-09-1.52516E-09-1.62911E-09 7.08173E-10 2.10026E-25 2.31998E-24
 -1       902 5.36983E-09-1.57299E-09-1.62556E-09 4.89830E-10-4.21668E-25 1.00813E-24
 -1       903 5.71572E-09-1.71561E-09-1.70919E-09 3.10782E-10-3.11162E-24-5.99706E-24
 -1       904 5.30101E-09-1.57937E-09-1.59905E-09 2.33528E-10 3.06719E-24 2.80466E-24
 -1       905 4.98643E-09-1.47541E-09-1.51522E-09 1.44860E-10-7.56418E-24 8.14256E-25
 -1       906 4.54002E-09-7.39001E-10-1.62220E-09 1.84859E-10 3.95173E-24-2.10026E-26
 -1       907 4.59948E-09-8.88071E-10-1.58553E-09 3.08247E-10 1.07921E-23-2.86120E-24
 -1       908 4.60775E-09-9.22837E-10-1.57684E-09 1.42964E-10-1.55743E-24 3.08113E-23
 -1       909 4.53768E-09-7.74186E-10-1.60568E-09 3.54197E-10 6.81778E-24-6.05199E-24
 -1       910 4.57411E-09-9.03346E-10-1.57491E-09 4.59599E-10 1.33771E-24-7.11020E-24
 -1       911 4.64158E-09-9.99394E-10-1.56164E-09 3.57993E-10-4.65289E-24-6.48981E-24
 -1       912 7.00726E-09-2.28306E-09-2.02085E-09-1.03000E-09-2.29413E-25 5.88680E-25
 -1       913 7.31176E-09-2.70319E-09-1.96019E-09-5.93331E-10-6.52697E-25-2.39753E-24
 -1       914 7.11910E-09-2.24237E-09-2.06227E-09-4.89092E-10 3.36688E-24-1.47342E-24
 -1       915 7.38465E-09-2.33505E-09-2.11508E-09-5.78649E-11-3.91618E-24-2.23395E-24
 -1       916 7.13448E-09-2.38789E-09-2.01335E-09-3.65462E-10 1.66729E-24-2.68107E-24
 -1       917 6.87285E-09-2.49971E-09-1.86579E-09 2.41655E-10-1.21492E-24-4.40086E-24
 -1       918 5.60176E-09-1.64662E-09-1.69648E-09 8.53303E-10 5.94536E-25 1.88701E-24
 -1       919 5.71326E-09-1.68436E-09-1.71909E-09 6.11379E-10-1.45403E-24 8.23949E-24
 -1       920 5.92713E-09-1.83072E-09-1.75561E-09 9.07517E-10-2.28767E-24 1.49280E-24
 -1       921 6.11100E-09-1.83297E-09-1.81994E-09 6.72457E-10 1.55096E-24-6.47527E-24
 -1       922 6.73551E-09-2.06466E-09-1.97092E-09 3.67358E-10 6.02937E-24-1.48634E-24
 -1       923 6.21595E-09-1.88211E-09-1.84045E-09 3.67236E-10-6.77254E-24 1.54450E-24
 -1       924 6.92107E-09-2.24502E-09-1.98067E-09 2.48672E-10-1.42172E-24-1.31509E-24
 -1       925 6.37261E-09-2.13328E-09-1.81356E-09 7.40629E-10 3.77401E-24 2.79173E-24
 -1       926 6.30137E-09-2.36694E-09-1.68840E-09 8.27224E-10 2.06795E-25 5.47522E-24
 -1       927 7.18803E-09-2.23896E-09-2.07628E-09 2.41672E-10-5.32498E-24-7.30245E-25
 -1       928 6.53400E-09-2.02538E-09-1.91284E-09 5.86132E-10-1.80946E-25 9.77753E-24
 -1       929 5.76104E-09-1.88094E-09-1.66173E-09 1.08415E-09-1.73191E-24 2.92260E-24
 -1       930 4.80108E-09-1.41463E-09-1.46461E-09 4.84175E-11 1.05918E-23 1.69960E-24
 -1       931 4.89067E-09-1.42148E-09-1.49400E-09 1.86717E-10 1.11637E-24 2.15842E-24
 -1       932 4.78400E-09-1.40332E-09-1.45971E-09 4.17092E-11 3.98727E-24-3.97919E-24
 -1       933 4.74531E-09-1.29268E-09-1.48818E-09 1.10970E-10 4.72075E-24-1.36364E-23
 -1       934 4.78766E-09-1.33762E-09-1.48631E-09 1.63831E-10 4.37178E-24 8.20718E-25
 -1       935 4.81001E-09-1.28235E-09-1.51382E-09 3.16555E-10 4.89523E-25 1.23819E-23
 -1       936 4.72262E-09-1.14668E-09-1.53373E-09 3.61602E-10-6.59644E-24-2.18104E-26
 -1       937 4.65707E-09-1.04697E-09-1.54876E-09 2.68508E-10-1.58683E-23 5.06381E-24
 -1       938 4.72351E-09-1.20358E-09-1.51419E-09 2.44613E-10-9.37041E-24 1.16969E-24
 -1       939 4.68220E-09-1.12827E-09-1.52778E-09 1.42610E-10-5.62871E-24 4.55999E-24
 -1       940 2.71011E-09-4.42125E-10-9.77418E-10 4.89359E-10-1.87408E-24-7.47047E-24
 -1       941 3.19422E-09-5.21364E-10-1.13616E-09 7.93512E-10 3.32165E-24-1.07663E-23
 -1       942 2.60025E-09-6.50936E-10-8.22883E-10 1.13306E-09 8.14256E-25 2.97268E-24
 -1       943 3.86074E-09-1.43842E-09-1.03061E-09 1.74902E-09 1.68021E-25 5.04063E-24
 -1       944 3.31461E-09-8.77180E-10-1.05350E-09 1.29747E-09 2.53324E-24-1.97748E-24
 -1       945 3.90872E-09-9.97028E-10-1.24082E-09 1.34516E-09 6.85009E-25-5.94536E-25
 -1       946 5.51622E-09-1.96726E-09-1.52843E-09 1.28223E-09-1.84823E-24-2.77073E-25
 -1       947 5.31379E-09-2.16324E-09-1.35508E-09 1.51599E-09 2.74004E-24-4.62543E-24
 -1       948 4.85606E-09-1.52144E-09-1.42602E-09 1.41976E-09-9.04729E-26-3.00499E-24
 -1       949 4.40922E-09-1.50255E-09-1.25770E-09 1.57409E-09 2.90806E-24-3.26995E-24
 -3
    1PSTEP                         4           1           1          
  100CL  101 1.000000000         948                     0    1           1
 -4  FORC        4    1
 -5  F1          1    2    1    0
 -5  F2          1    2    2    0
 -5  F3          1    2    3    0
 -5  ALL         1    2    0    0    1ALL
 -1         1 4.62963E+01 5.16937E-13-1.13451E-14
 -1         2 4.62963E+01 2.22265E-12 3.56412E-14
 -1         3-4.62963E+01 2.96197E-13-1.92808E-14
 -1         4-4.62963E+01-2.65166E-13 3.75828E-15
 -1         5-1.35745E-01-2.72982E-12-1.20451E-13
 -1         7 1.11733E-12-1.35745E-01-5.05871E-14
 -1         8 1.35745E-01 2.28573E-12-4.45026E-14
 -1         9 2.35811E-13 1.35745E-01-1.56875E-13
 -1        10-9.16602E-14 3.79252E-12-9.18710E-15
 -1        11 9.25927E+01-1.65607E-12 1.26490E-13
 -1        12 1.54990E-13 3.32556E-12 1.13158E-13
 -1        13-9.25927E+01-2.30304E-12-1.13081E-13
 -1        14 9.25928E+01 1.07553E-14 3.16436E-14
 -1        15 9.25922E+01-1.61329E-12 1.11581E-13
 -1        16 9.25927E+01-1.08963E-12-4.59006E-14
 -1        17 9.25927E+01-1.21478E-12 3.12448E-13
 -1        18 9.25928E+01 1.08610E-12-2.07612E-14
 -1        19 9.25922E+01 2.12311E-12 1.28227E-13
 -1        20 9.25927E+01 1.29949E-12 1.45519E-13
 -1        21 1.85185E+02 3.63707E-13-1.41455E-13
 -1        22 1.85185E+02 8.06293E-13 5.76856E-14
 -1        23 1.85185E+02-8.69627E-13 4.51060E-14
 -1        24 1.85185E+02 9.36002E-13-3.22319E-13
 -1        25 1.85185E+02 5.98216E-13 1.04668E-13
 -1        26 1.85185E+02-8.31364E-13-1.42033E-13
 -1        27 1.85185E+02-1.17288E-12-1.84960E-13
 -1        28 1.85185E+02 5.88874E-13-1.95743E-13
 -1        29 1.22355E-12 2.50962E-12-8.69720E-14
 -1        30 1.00228E-11-2.42682E-12 1.50923E-13
 -1        31 5.79881E-12 1.06859E-15-8.62406E-14
 -1        32 2.85139E-12-4.51778E-13-2.29339E-14
 -1        33-2.02838E-12-1.01891E-12-9.60214E-14
 -1        34 3.27177E-12-2.72760E-12 1.56650E-14
 -1        35 9.90180E-13 1.87600E-13-1.26031E-13
 -1        36-2.23795E-12-1.53533E-12-5.07161E-14
 -1        37-2.08311E-12 6.29774E-13-4.63423E-14
 -1        38 2.18781E-12 1.20082E-12 8.87707E-15
 -1        39-9.56790E-13 1.39200E-12 3.91076E-14
 -1        40-3.63581E-12-1.07598E-12 1.74651E-13
 -1        41-1.71743E-12-1.04007E-12-9.08155E-14
 -1        42 1.32570E-12-4.24175E-13-1.83214E-13
 -1        43 1.26029E-12 1.31658E-12-1.44142E-13
 -1        44 2.39292E-12-2.75084E-13 1.91883E-13
 -1        45-3.94814E-13 2.13782E-13 1.14416E-13
 -1        46 8.73667E-14 1.54004E-12-2.55906E-14
 -1        47-7.25442E-13 5.60003E-14 4.87110E-15
 -1        48 1.57725E-12 5.14994E-13 8.70489E-14
 -1        49 1.26786E-12 4.61609E-12 1.79458E-13
 -1        50-4.96780E-13 9.28931E-13-3.46945E-14
 -1        51 7.12387E-13 9.46004E-13-1.03237E-13
 -1        52-9.25928E+01 1.72072E-12 8.15299E-14
 -1        53-9.25922E+01 3.50192E-13 2.77896E-13
 -1        54-9.25927E+01 1.14631E-13 6.56237E-14
 -1        55-9.25927E+01 9.09606E-13-1.86170E-13
 -1        56-9.25928E+01-4.24605E-13 4.40374E-14
 -1        57-9.25922E+01-2.48107E-13-7.10773E-15
 -1        58-9.25927E+01 1.52578E-12-6.24049E-14
 -1        59-1.85185E+02-2.53454E-13-7.65265E-14
 -1        60-1.85185E+02 1.47485E-13 9.93129E-16
 -1        61-1.85185E+02-1.36847E-12-1.39894E-13
 -1        62-1.85185E+02-4.72860E-13-1.13465E-13
 -1        63-1.85185E+02 3.80160E-13-1.24333E-13
 -1        64-1.85185E+02 1.03334E-13-1.90445E-13
 -1        65-1.85185E+02 2.59341E-15 8.84952E-14
 -1        66-1.85185E+02 6.39477E-13 8.33535E-14
 -1        67-1.04056E-12 2.20030E-12-5.57494E-14
 -1        68-1.32505E-13 2.45567E-14-3.70304E-14
 -1        69-3.71980E-13 1.92797E-14-4.08698E-14
 -1        70-4.50928E-12 9.38943E-13 1.27701E-13
 -1        71-4.94604E-13-1.38778E-12 2.25561E-13
 -1        72-2.44582E-13 6.62692E-13 1.16573E-15
 -1        73-1.47826E-13-6.80567E-13 9.02473E-14
 -1        74-1.72934E-12-1.39000E-12-5.17975E-14
 -1        75 5.63993E-13 3.54550E-13 1.09400E-13
 -1        76 4.97491E-13 7.15761E-13-9.16335E-14
 -1        77 1.70419E-13-7.91811E-13 6.82613E-14
 -1        78 4.76256E-12 3.13519E-13 2.21541E-13
 -1        79-3.76147E-12 6.55593E-13-4.34189E-14
 -1        80-2.90521E-12-3.97548E-13 1.26043E-13
 -1        81 2.46804E-13-3.84147E-13-5.87273E-14
 -1        82 2.62851E-13 2.77184E-13-3.49113E-14
 -1        83-7.67063E-13-8.08577E-13-2.07629E-13
 -1        84-1.82709E-12-3.95021E-13 1.29841E-13
 -1        85 8.92212E-14 5.47881E-13-4.60951E-14
 -1        86 7.51637E-13-3.35661E-13 4.30711E-14
 -1        87-2.16160E-12 7.64490E-13 1.37518E-14
 -1        88-6.12357E-13-1.31591E-12 1.70269E-13
 -1        89 2.20815E-13 7.50329E-14 5.64384E-14
 -1        90 6.75904E-13-9.03243E-13-1.25694E-14
 -1        91-3.30580E-12 1.08047E-12-8.64747E-14
 -1        92 9.40070E-12 5.56000E-13 3.27342E-14
 -1        93-4.37334E-13 3.05270E-13 6.31908E-14
 -1        94 2.34290E-12 7.41224E-13-1.73472E-15
 -1        95-5.86539E-12-7.12291E-13 6.20615E-14
 -1        96 1.99216E-12 4.41321E-13 1.51323E-13
 -1        97-6.64613E-12 8.43769E-14 1.02874E-13
 -1        98-3.08908E-12 9.37916E-13-1.40547E-13
 -1        99-1.33671E-12 6.52055E-13-1.52044E-13
 -1       100 2.37405E-13-3.25628E-13-5.72875E-14
 -1       101-1.34111E-12-6.13704E-13 7.26155E-14
 -1       102-1.53643E-12 1.77583E-12 1.87341E-13
 -1       103 6.69369E-14 1.25090E-12-1.21431E-16
 -1       104 8.88178E-16 1.67659E-12-1.15206E-13
 -1       105-2.30749E-12-2.27729E-12-9.97813E-14
 -1       106-2.89213E-12-8.83738E-13-1.28120E-13
 -1       107 1.43759E-13 1.08165E-12-4.75661E-15
 -1       108 7.23647E-13 1.08345E-12-1.31539E-13
 -1       109 1.36685E-12 6.02227E-13-8.75688E-14
 -1       110 1.18771E-12 2.88089E-13-1.54765E-13
 -1       111 1.04206E-12 1.78346E-12 2.00079E-14
 -1       112 1.25411E-12 1.66978E-12 1.86047E-14
 -1       113-5.88862E-13 7.72160E-14-3.09509E-14
 -1       114-9.95176E-13 1.83440E-13-6.07830E-14
 -1       115-8.37117E-13-9.98514E-13-1.85069E-14
 -1       116-2.37674E-12-4.72538E-13-7.08027E-15
 -1       117-6.13842E-13 9.33646E-13 1.48631E-14
 -1       118-6.58584E-13 1.90759E-12 5.44287E-14
 -1       119-1.47549E-13-3.93863E-12 1.46771E-14
 -1       120-8.25007E-13-1.20737E-12 8.25381E-14
 -1       121 2.44724E-12 1.01541E-12-7.31472E-14
 -1       122-1.06698E-12-1.66978E-13-8.57951E-14
 -1       123-2.02172E-13-1.81410E-13-2.13787E-14
 -1       124 1.31983E-12 8.93285E-13-8.57543E-14
 -1       125-4.74099E-12 1.30540E-12-3.92299E-14
 -1       126 1.00581E-12 6.14505E-13 7.20726E-14
 -1       127-4.73555E-12 1.98748E-12-6.84632E-14
 -1       128 3.14138E-12 1.70484E-12 6.22458E-14
 -1       129 1.04031E-13 1.49139E-12 2.39253E-14
 -1       130 4.26749E-13 6.51455E-13 3.51108E-15
 -1       131 8.96661E-14 8.85979E-13-7.00447E-14
 -1       132 7.76629E-13-9.27158E-14 2.04697E-15
 -1       133 5.14823E-13-4.37966E-14-1.05943E-13
 -1       134 9.72989E-13-8.29293E-14 6.15098E-14
 -1       135-7.01830E-12-2.65087E-13 1.55397E-14
 -1       136 4.23493E-12-7.75937E-13-8.26249E-14
 -1       137 3.21639E-12-7.34603E-13-2.22097E-14
 -1       138 1.70173E-13 5.50765E-13 7.30492E-15
 -1       139-2.35469E-12-3.21511E-13 6.34388E-15
 -1       140 1.74821E-12 1.58941E-12-1.35921E-13
 -1       141-1.17682E-12 3.87956E-12 2.29070E-14
 -1       142 5.07268E-14-3.20899E-12-7.95128E-14
 -1       143 4.60521E-13-7.60991E-12 2.35289E-14
 -1       144 4.03006E-13-5.71370E-12 1.05610E-14
 -1       145-3.85365E-13 7.07288E-12 1.94438E-13
 -1       146-3.13399E-14-3.44451E-12-3.16639E-14
 -1       147-6.15147E-13 1.45198E-12 4.04676E-14
 -1       148 9.25928E+01 5.19335E-13 1.64255E-13
 -1       149 9.25922E+01 1.59212E-12-5.93765E-14
 -1       150 9.25927E+01-1.46619E-12 2.28629E-13
 -1       151 9.25927E+01 2.25792E-13-1.66964E-14
 -1       152 9.25928E+01-2.41154E-13 1.29978E-14
 -1       153 9.25922E+01 4.26947E-12-1.49391E-14
 -1       154 9.25927E+01-5.97779E-13-1.62066E-13
 -1       155 1.85185E+02 6.29808E-13-1.03167E-13
 -1       156 1.85185E+02 6.64354E-13-9.03307E-14
 -1       157 1.85185E+02 9.47948E-13-1.27627E-13
 -1       158 1.85185E+02-1.20699E-12-3.01288E-13
 -1       159 1.85185E+02-5.59912E-14-1.53038E-13
 -1       160 1.85185E+02-1.10389E-13 7.45339E-14
 -1       161 1.85185E+02 1.07600E-12-1.98171E-13
 -1       162 1.85185E+02 3.66000E-12-1.03453E-13
 -1       163-1.60261E-12-1.01802E-12 2.23554E-13
 -1       164 1.37412E-11 2.26945E-12-1.44154E-13
 -1       165 2.40608E-12 6.73184E-13-2.35371E-13
 -1       166 3.40594E-12-1.18373E-12-1.58853E-13
 -1       167-1.10689E-11-4.90302E-14-2.84407E-14
 -1       168 1.17879E-11-4.67182E-13-5.75361E-14
 -1       169-1.07541E-11 1.19316E-12 1.41039E-14
 -1       170-1.43645E-11-1.09862E-12-4.06250E-13
 -1       171 3.11900E-12-6.91251E-14 1.85571E-13
 -1       172 2.05214E-12-1.47458E-12 1.62877E-13
 -1       173-5.77278E-12 1.52996E-12 7.68374E-16
 -1       174 8.50388E-13 1.22728E-12 3.40640E-13
 -1       175-6.83099E-13 4.35843E-13-6.74449E-14
 -1       176-3.31439E-12 9.59962E-13 1.40757E-13
 -1       177 1.21772E-11 3.22254E-12-5.30685E-13
 -1       178 1.09024E-13-1.54987E-12 2.58678E-14
 -1       179 6.82343E-13 3.08087E-12-2.38161E-15
 -1       180-2.35367E-14 1.08502E-12 3.94571E-14
 -1       181-1.76282E-12 1.55431E-15-2.94355E-14
 -1       182-6.96332E-13-1.48836E-12 7.22252E-15
 -1       183 3.97571E-12-4.14779E-13 4.36353E-14
 -1       184-1.13676E-12-2.44382E-12 7.16988E-14
 -1       185 1.47771E-12-4.06758E-13 1.32651E-13
 -1       186 7.64011E-12-1.00588E-12-3.82524E-14
 -1       187-3.21798E-13 1.33973E-12 1.48946E-13
 -1       188-2.68030E-12-1.36616E-12 9.12054E-14
 -1       189-5.86871E-14-5.77264E-14-6.08983E-14
 -1       190 1.09205E-13 9.88092E-13-2.40589E-14
 -1       191-4.96396E-13 2.96803E-13-3.38130E-15
 -1       192 2.23150E-13 6.72908E-13 7.24256E-14
 -1       193 2.17104E-12-1.50492E-12 1.74465E-13
 -1       194-2.24305E-12 4.89705E-13 3.04583E-14
 -1       195-3.79730E-12-9.04989E-13-1.30797E-13
 -1       196 4.04388E-12 2.34563E-13-1.70620E-13
 -1       197 1.43913E-12-5.08916E-14 1.50296E-14
 -1       198 4.67675E-12-1.16157E-12-9.29599E-14
 -1       199-3.12090E-12-3.52491E-14-1.72598E-13
 -1       200-2.42406E-12 1.22670E-12-5.61519E-15
 -1       201-2.18412E-13 2.52953E-12-8.20455E-14
 -1       202-7.39978E-13 4.03233E-13 3.36562E-14
 -1       203 3.56372E-13-2.67519E-12 6.54646E-14
 -1       204-2.32769E-13 3.87412E-13-3.33344E-14
 -1       205 6.46473E-13 5.06928E-12-7.22720E-14
 -1       206-3.98739E-14-5.33347E-12-1.42490E-14
 -1       207-6.40728E-13 7.19161E-13-6.02296E-14
 -1       208-9.25928E+01 6.67910E-13 2.75333E-14
 -1       209-9.25922E+01-3.37952E-13 2.71830E-13
 -1       210-9.25927E+01-2.30649E-13 1.24212E-13
 -1       211-9.25927E+01 3.13194E-13 1.67417E-13
 -1       212-9.25928E+01-2.66787E-13-1.93725E-14
 -1       213-9.25922E+01 1.21403E-13 1.61341E-13
 -1       214-9.25927E+01-1.48667E-12 5.12090E-14
 -1       215-1.85185E+02-3.88182E-13-2.43413E-14
 -1       216-1.85185E+02 9.42252E-13-2.32761E-13
 -1       217-1.85185E+02 3.84160E-13-2.48608E-13
 -1       218-1.85185E+02-1.48131E-12-1.26364E-13
 -1       219-1.85185E+02 4.63633E-13-1.23648E-13
 -1       220-1.85185E+02-3.03181E-13-1.62185E-13
 -1       221-1.85185E+02-5.27386E-13-9.18788E-14
 -1       222-1.85185E+02 2.44134E-14-1.81530E-13
 -1       223 1.74616E-12-1.64069E-12 4.11615E-14
 -1       224 1.27498E-11-1.59245E-12-6.51890E-14
 -1       225-4.36984E-13 6.91690E-13 1.16804E-13
 -1       226-1.46767E-11-1.84749E-12-9.24806E-14
 -1       227-8.08686E-13 2.56114E-12 5.47313E-15
 -1       228 8.25295E-12-3.62855E-12-2.64312E-14
 -1       229-4.46843E-12 1.52157E-12-5.39111E-14
 -1       230 1.68042E-12 1.22530E-12 7.83679E-14
 -1       231-2.25583E-12-3.41633E-13 4.54845E-13
 -1       232-7.12947E-12 1.16501E-13-1.20594E-13
 -1       233 4.54134E-12-6.67251E-13 8.38737E-14
 -1       234 9.41688E-13-1.52397E-13 2.58359E-14
 -1       235 4.88099E-13 9.80893E-13-2.54439E-13
 -1       236 7.08740E-12 9.61390E-13 2.01262E-13
 -1       237-1.36560E-11-2.95221E-13 1.53616E-13
 -1       238 8.67689E-12-1.53644E-12-1.01348E-13
 -1       239 3.84695E-12-1.09912E-12 5.67927E-14
 -1       240 9.83935E-13-1.22108E-12-6.55075E-15
 -1       241-6.32383E-13-1.52767E-13-9.24798E-14
 -1       242-3.05267E-12-9.30589E-13 5.15605E-14
 -1       243-2.27973E-12 8.35110E-13-1.05418E-13
 -1       244 1.21979E-13-9.18307E-13-1.13343E-13
 -1       245 1.31994E-12-1.46105E-12 9.78539E-15
 -1       246 3.73412E-12-8.20677E-13-2.37734E-13
 -1       247-4.13936E-12-9.81437E-13-2.33518E-14
 -1       248 1.04521E-11-1.24942E-12 2.37938E-14
 -1       249 1.10283E-11 5.97078E-13 2.10970E-13
 -1       250-4.43659E-13 2.29622E-12-5.17962E-14
 -1       251 4.28130E-12 1.22194E-12-1.21877E-14
 -1       252 1.95735E-12 2.80227E-12-7.75970E-14
 -1       253 1.35691E-12-1.72307E-12 4.21468E-14
 -1       254 9.37916E-13 2.11964E-12-1.39103E-13
 -1       255 4.84057E-13-2.38876E-12 2.47552E-14
 -1       256-5.15636E-12 7.45182E-13-3.74541E-14
 -1       257-6.39044E-13-1.18749E-12-8.05161E-14
 -1       258-5.02176E-12 1.69249E-12 1.60459E-13
 -1       259-2.26186E-12 2.73531E-12-5.03134E-14
 -1       260 2.49689E-12-1.59434E-12 4.35893E-14
 -1       261-1.64668E-12-1.97709E-12-9.81398E-14
 -1       262 3.00204E-13 1.42553E-12-1.61452E-13
 -1       263-6.93401E-12-1.08580E-13-3.09785E-14
 -1       264-1.75238E-12-4.90719E-13-3.79629E-14
 -1       265-3.01656E-12-1.02363E-12-2.51670E-13
 -1       266-1.31001E-12-6.75016E-14-5.22634E-14
 -1       267 2.47524E-12 3.88134E-13 1.71428E-13
 -1       268-1.15179E-11 1.97975E-12 1.57439E-14
 -1       269 1.56364E-12 2.19824E-13 1.19109E-13
 -1       270 6.09068E-12 1.13554E-12-2.66401E-14
 -1       271 4.91673E-12-7.31082E-13-2.90974E-13
 -1       272-3.36486E-12 2.18825E-12-1.32228E-13
 -1       273 6.36713E-14 1.63558E-12 2.61440E-14
 -1       274-2.04226E-13-4.36007E-12-1.21649E-13
 -1       275-2.41107E-12 6.79568E-13 6.53995E-14
 -1       276-5.64082E-12-2.25409E-12 2.90496E-14
 -1       277 1.25633E-12-8.95617E-13 1.59257E-13
 -1       278-6.21336E-13-1.03212E-12 3.75263E-13
 -1       279-3.68927E-13-1.26350E-12 1.29410E-13
 -1       280-4.16389E-12-8.72635E-13-3.57282E-14
 -1       281 5.16676E-12-1.59606E-12-6.12831E-14
 -1       282 3.06177E-12 9.14380E-13-9.23532E-14
 -1       283-1.24456E-13 1.27032E-12-2.16971E-15
 -1       284 2.95497E-12 1.94511E-12 1.37931E-13
 -1       285 7.67519E-12-1.54166E-12 8.39556E-14
 -1       286 7.12574E-12-4.15890E-13 1.44413E-13
 -1       287 6.31911E-13-1.25513E-12-5.04007E-14
 -1       288 5.62103E-12-1.28300E-12 1.15983E-13
 -1       289 2.84534E-12-1.15996E-12 1.46813E-13
 -1       290 1.16815E-11 4.11893E-14 7.88587E-14
 -1       291 8.11090E-12 4.93583E-12-6.36037E-14
 -1       292 1.21418E-11 6.39044E-13-1.73170E-15
 -1       293 1.53803E-13 6.40968E-13 3.11625E-13
 -1       294-3.52663E-12-1.09665E-12-1.96717E-13
 -1       295 8.02654E-13-1.33944E-12 1.42417E-13
 -1       296-4.66876E-12 5.64310E-13-1.47783E-13
 -1       297-7.00884E-14-1.36006E-12 9.72720E-14
 -1       298-9.07296E-12-7.03434E-13-2.78608E-13
 -1       299-1.76332E-14 3.34958E-12 1.85474E-13
 -1       300-5.08852E-13 2.69017E-13-3.21287E-13
 -1       301 4.12150E-12-2.24397E-12 2.33899E-14
 -1       302 3.65092E-12 4.45799E-12 4.29402E-14
 -1       303 9.25123E-12 2.52202E-12 2.31873E-13
 -1       304 3.93804E-12-2.23242E-13 2.02734E-13
 -1       305-1.00890E-11 1.65387E-12 1.01912E-13
 -1       306 1.31062E-12 4.02158E-13 2.28177E-13
 -1       307-1.56373E-12-4.19438E-13 5.06565E-14
 -1       308-5.64663E-13-4.07716E-13-8.17703E-14
 -1       309 5.49195E-12 9.06511E-13 8.37871E-15
 -1       310 2.40395E-13 3.80783E-13 1.00834E-13
 -1       311-3.58251E-12-8.09907E-13-6.25001E-14
 -1       312-1.14896E-12-9.49055E-13-1.80886E-14
 -1       313-4.08576E-13-5.15185E-13 8.46857E-14
 -1       314 2.45977E-13 1.12921E-12-1.01108E-14
 -1       315 2.26905E-12-1.08837E-13-5.09650E-14
 -1       316-1.90255E-12-5.53182E-13 1.36235E-13
 -1       317-2.15837E-12 1.85790E-12 3.74321E-14
 -1       318-7.92851E-12 2.06271E-14-7.25376E-14
 -1       319-4.03217E-12 1.53341E-12 3.22646E-14
 -1       320 4.60000E-12 1.22931E-12 1.63129E-13
 -1       321-2.91190E-12 9.88861E-13-2.13450E-13
 -1       322 3.94685E-12-1.76124E-12 4.25481E-13
 -1       323-5.68763E-12 1.58540E-12 2.97983E-13
 -1       324-4.55630E-12-9.00114E-13-3.95219E-13
 -1       325 1.67772E-12 1.91793E-12 2.17203E-13
 -1       326 1.27953E-12 1.81510E-12 1.32290E-13
 -1       327-4.02882E-13-1.06036E-12 6.43641E-14
 -1       328-3.29210E-13 1.37232E-12-5.18956E-14
 -1       329 9.12596E-13-1.15204E-12 1.38700E-13
 -1       330-2.48895E-13-2.33891E-12 4.81368E-14
 -1       331 7.41843E-12-4.65027E-13 5.18472E-13
 -1       332 1.85166E-12 7.44499E-13 2.46506E-13
 -1       333-3.97971E-12-1.09505E-12-2.59730E-13
 -1       334-1.66339E-12-1.27197E-13-2.05315E-13
 -1       335-4.11368E-12 8.29117E-13-2.68330E-13
 -1       336 5.06988E-12-6.90760E-13-7.96505E-14
 -1       337 2.01939E-12 3.38744E-12-4.10399E-14
 -1       338 7.81462E-12-2.30983E-12-1.18020E-13
 -1       339-3.30893E-12-6.24474E-14 1.58599E-13
 -1       340 7.77246E-14-8.73978E-13 2.04834E-13
 -1       341-4.64739E-13-8.16010E-13-2.56362E-13
 -1       342-1.52030E-12-8.65721E-13 2.14048E-13
 -1       343-2.57509E-12 2.84617E-13-2.27100E-13
 -1       344 1.02579E-11-2.36372E-12 2.01479E-13
 -1       345-3.84735E-13 1.49853E-12-3.51649E-13
 -1       346 3.45045E-12-2.69119E-12 6.09877E-14
 -1       347 2.65543E-12 4.45860E-13-2.74945E-14
 -1       348-2.50355E-12 6.06204E-13 2.36619E-13
 -1       349 1.23549E-12-1.62256E-12 7.37201E-14
 -1       350 3.32157E-12-3.80428E-13 6.59197E-14
 -1       351 4.82721E-12 3.27786E-13 4.98653E-14
 -1       352 5.77480E-12 6.50169E-13 1.19626E-13
 -1       353-9.44674E-13-2.16538E-12-1.64815E-13
 -1       354-1.03494E-12 2.04137E-12 5.06467E-13
 -1       355-5.14189E-12 4.36673E-13-9.26668E-16
 -1       356 7.76137E-12-9.09314E-13-5.52770E-14
 -1       357-3.21637E-13-1.41286E-12-7.44834E-14
 -1       358-3.23592E-13-7.11527E-13 1.89862E-13
 -1       359 7.39592E-13 2.92190E-12 8.42343E-14
 -1       360-1.36886E-12-3.56608E-12-2.12708E-13
 -1       361 3.11050E-13 4.13378E-12 1.96318E-13
 -1       362-1.08172E-12 1.44556E-12-2.06578E-13
 -1       363-8.88383E-12-5.30860E-13-1.16041E-13
 -1       364-1.07986E-12-1.96792E-12-1.42549E-13
 -1       365 3.48889E-12 2.25981E-13-8.82667E-14
 -1       366 2.46166E-12-8.62285E-14 3.19406E-14
 -1       367-1.18908E-11-2.38490E-14 3.20360E-13
 -1       368-4.96121E-12-1.04133E-12-3.06389E-13
 -1       369-1.76629E-12-1.38790E-12-1.09781E-13
 -1       370-1.58082E-12 6.10423E-13-1.29189E-13
 -1       371-1.46981E-12 2.33752E-12-2.93081E-13
 -1       372 3.10358E-12-1.25307E-13-2.54153E-14
 -1       373-7.44910E-12 2.21534E-13-1.21894E-13
 -1       374-5.70544E-12 9.75370E-13 9.80826E-14
 -1       375 1.37544E-12 1.17968E-12 1.65835E-13
 -1       376-2.10188E-13-2.58496E-13-3.55694E-13
 -1       377-3.18375E-12 8.97209E-13 1.56883E-13
 -1       378 3.28893E-12-1.12187E-13 1.61075E-13
 -1       379-1.73534E-12-1.90470E-12 1.23928E-14
 -1       380-2.40417E-13-5.15763E-13-1.26897E-13
 -1       381 1.01610E-12 2.66067E-13-2.27231E-13
 -1       382-1.85133E-12 1.00946E-12 2.45488E-13
 -1       383-1.80860E-12 1.20385E-12 1.17668E-13
 -1       384-1.35083E-12 1.30452E-12 1.32332E-13
 -1       385 3.14503E-12-3.56549E-13-1.34139E-13
 -1       386 1.20953E-12-2.57354E-13-5.52603E-14
 -1       387-1.08977E-12 4.56543E-12 1.78937E-14
 -1       388-4.36263E-13 2.03556E-13 2.83840E-14
 -1       389 6.20701E-13-1.03993E-12 5.14172E-14
 -1       390 5.81290E-13 9.42168E-13 1.97059E-13
 -1       391-1.17579E-12-9.48616E-13-1.64553E-13
 -1       392 3.80213E-12 9.79952E-13-2.23266E-13
 -1       393 1.94373E-12-1.24881E-12-2.40027E-13
 -1       394-8.38330E-12 3.05359E-12-1.15899E-14
 -1       395 1.24385E-11-2.50344E-12-1.98574E-13
 -1       396-6.66570E-12 2.23875E-12-2.37684E-13
 -1       397 2.86532E-12 7.96236E-13 7.83271E-15
 -1       398-1.00115E-11 3.88350E-12 3.80763E-14
 -1       399 5.10475E-12 1.79433E-12-7.53474E-14
 -1       400-1.71976E-12 1.13383E-12 1.57426E-13
 -1       401-2.72848E-12 9.39148E-13 7.52263E-15
 -1       402 5.58140E-12-3.42642E-13 1.76469E-13
 -1       403 8.26177E-12-3.60348E-13-4.92257E-14
 -1       404-6.18244E-12 2.89147E-12-1.21025E-13
 -1       405 1.19333E-12 1.62482E-12 3.43169E-14
 -1       406 1.13490E-12-2.44156E-13-7.02914E-15
 -1       407-7.03808E-12 3.51020E-13 3.61936E-14
 -1       408 1.67590E-12-2.74336E-13-2.37518E-13
 -1       409-1.47766E-11-2.87070E-12 2.49148E-13
 -1       410-1.94010E-12 2.02427E-12 1.81825E-14
 -1       411-1.72881E-11-1.54478E-12-1.21595E-13
 -1       412 2.11683E-12 1.20463E-12 1.63987E-13
 -1       413 9.27892E-12 1.67782E-12-6.50394E-14
 -1       414-3.05692E-12-2.00838E-13-2.34814E-13
 -1       415-1.03809E-12 2.33740E-12-2.65194E-14
 -1       416 3.29925E-12 2.16767E-12-1.59725E-13
 -1       417 2.26846E-13-2.77507E-12 3.87083E-14
 -1       418 1.41215E-12 2.61626E-12 2.78885E-14
 -1       419-2.81153E-12 6.74127E-13-1.90504E-13
 -1       420-2.14495E-12-8.26526E-13-2.33543E-13
 -1       421 5.77405E-12-4.34985E-13-6.34627E-14
 -1       422 4.94907E-12-5.27783E-12-6.06889E-14
 -1       423-2.04325E-12-1.98597E-12-8.12765E-14
 -1       424 1.01937E-11-1.90958E-14-9.99946E-14
 -1       425-1.55698E-12-1.16557E-12 1.80094E-13
 -1       426-5.63083E-12-1.12799E-12 6.56416E-14
 -1       427-4.09162E-12 7.77156E-13-7.30579E-14
 -1       428 2.06331E-11-6.85860E-12-1.03032E-15
 -1       429 1.44765E-11-6.39042E-12-2.06200E-13
 -1       430 5.45612E-13-9.57900E-13 1.01700E-13
 -1       431 1.11600E-12-3.66152E-13-1.43328E-13
 -1       432-2.42527E-12-2.16871E-12-7.55733E-14
 -1       433 4.59967E-12-5.73186E-12-3.11877E-13
 -1       434 1.98774E-12-1.71543E-12 8.96772E-14
 -1       435-1.18605E-12-8.24896E-14 3.55263E-13
 -1       436-6.09607E-12-1.71896E-12 3.69748E-14
 -1       437 1.13308E-11 1.40406E-12 2.00385E-14
 -1       438 1.34759E-12-3.43600E-12 1.61069E-13
 -1       439 7.19425E-13 4.25437E-13-1.32332E-13
 -1       440 7.41185E-13-6.58140E-13 2.35545E-14
 -1       441-2.47802E-13 1.19016E-13 6.27454E-14
 -1       442-1.40332E-13 6.98996E-13-1.95482E-13
 -1       443-2.69118E-13 6.50147E-13-1.35959E-16
 -1       444-2.34968E-12-4.08562E-14-9.11502E-14
 -1       445 3.43992E-12 1.46372E-12-2.04625E-14
 -1       446-9.03144E-12 5.56000E-13-2.21055E-14
 -1       447-1.11369E-11-1.45661E-13-2.58994E-15
 -1       448-1.52944E-12-3.23741E-13-7.23587E-14
 -1       449-9.16067E-12 6.20837E-13 1.38867E-14
 -1       450-5.95257E-12 1.73728E-12-2.43961E-13
 -1       451-9.79661E-13-2.55218E-12 2.32002E-14
 -1       452 7.96219E-12 1.77003E-12 3.16608E-14
 -1       453-3.25073E-12 9.02833E-13 1.83176E-13
 -1       454 7.11653E-13 1.63425E-13-1.84083E-13
 -1       455-1.15742E-11-1.08346E-12 8.75689E-14
 -1       456 2.86282E-12-3.47944E-13 4.32549E-14
 -1       457-3.84848E-12 1.57013E-13 3.25111E-14
 -1       458 4.37922E-12 1.58651E-12-3.90488E-13
 -1       459 4.70479E-12-1.01003E-12-3.39491E-13
 -1       460 3.21632E-12 3.76144E-12-3.56862E-13
 -1       461 2.23177E-12-1.40421E-12-2.93247E-14
 -1       462 7.22467E-12 3.69593E-12-1.72260E-13
 -1       463 2.51932E-12-1.36979E-12-2.30642E-14
 -1       464 1.77103E-12-1.12355E-12 9.19768E-14
 -1       465 4.32743E-12 1.08868E-12-1.77054E-13
 -1       466 4.91535E-12 1.29186E-12 1.66685E-14
 -1       467-3.67822E-12-2.04503E-13-2.82389E-13
 -1       468-1.04931E-11 3.99991E-12 2.12430E-14
 -1       469 1.75859E-13-8.34777E-13 2.13079E-13
 -1       470 1.03916E-11-6.73001E-12 1.91178E-13
 -1       471 3.51022E-12-4.11504E-13 1.89893E-13
 -1       472-4.52474E-12-2.74092E-12-1.05799E-13
 -1       473-1.35186E-12-2.56972E-12-8.67583E-14
 -1       474-2.43064E-12-1.70606E-12 1.54669E-14
 -1       475 1.19518E-12-4.08718E-13-2.84214E-13
 -1       476-4.35439E-12-1.15941E-12-1.63055E-14
 -1       477 2.36935E-12-5.88816E-13 2.20408E-13
 -1       478-2.50586E-12 4.65917E-13-2.92072E-13
 -1       479 9.03403E-12-7.69083E-13-9.09090E-14
 -1       480 5.89722E-12-4.46334E-13 9.01273E-14
 -1       481 2.50708E-12-2.43312E-14 2.13756E-14
 -1       482-8.51616E-12 2.54068E-12 1.10323E-13
 -1       483 1.04817E-12 2.64365E-12-1.36333E-13
 -1       484-3.94449E-12 7.92929E-13 1.07672E-13
 -1       485 3.06918E-12-2.54449E-13 3.35664E-13
 -1       486-1.64205E-12-1.36187E-12-2.25863E-13
 -1       487-7.76157E-12-2.92378E-13 6.14003E-13
 -1       488-1.03993E-11-1.60252E-12-5.31628E-13
 -1       489-1.22953E-14 1.70550E-13-2.43027E-13
 -1       490-8.10310E-13 1.33952E-12 9.32865E-14
 -1       491-1.38703E-12 1.97163E-12-1.38094E-13
 -1       492-8.41758E-13-9.54068E-13 6.24416E-14
 -1       493 6.10734E-13-6.95256E-13 2.83384E-14
 -1       494-3.52756E-13 6.14063E-13 2.13185E-13
 -1       495-8.51142E-13-1.51536E-12-2.04404E-13
 -1       496-5.64410E-13-5.29229E-14-1.13553E-13
 -1       497 1.62820E-12-3.33469E-12 1.14159E-13
 -1       498 2.02405E-12 4.97107E-13 1.26374E-13
 -1       499 2.02941E-12 1.39893E-12 1.73205E-13
 -1       500-6.14097E-13-4.42040E-13 3.46017E-14
 -1       501-8.05675E-13-1.03917E-12 8.99012E-14
 -1       502-7.55285E-13 3.28625E-12-2.60658E-13
 -1       503-3.62771E-12-1.44804E-12 1.15908E-13
 -1       504 9.74295E-13 1.90631E-12 1.56952E-13
 -1       505-3.68334E-13 1.95692E-12-4.36075E-14
 -1       506-2.98865E-12-1.53420E-12-8.21201E-14
 -1       507 4.36268E-12 7.21591E-13 1.27968E-13
 -1       508-7.26719E-13-6.76354E-13 1.39508E-13
 -1       509 3.17192E-12 1.54079E-12-7.01834E-14
 -1       510 2.30448E-13 1.76180E-12-3.56048E-13
 -1       511 1.10202E-12 3.31455E-12 1.05827E-13
 -1       512 3.38422E-13 3.23272E-12 1.01245E-13
 -1       513-4.92186E-12 1.16731E-12 4.30087E-14
 -1       514 1.49962E-11-1.28858E-12-1.09517E-13
 -1       515 3.23614E-12-5.65343E-13 8.38615E-14
 -1       516-4.55667E-12-1.31214E-13 1.85024E-13
 -1       517 5.37727E-12-9.66289E-13 3.90572E-13
 -1       518-3.19716E-12-8.20895E-13 2.78201E-13
 -1       519-5.53844E-12 3.94580E-13-6.70963E-14
 -1       520 3.02468E-13-1.09102E-12-1.42991E-13
 -1       521 5.14947E-13-3.22565E-13-5.14768E-13
 -1       522 1.65748E-12 1.56056E-12 7.66748E-14
 -1       523 4.24617E-12-7.52662E-13 1.71984E-13
 -1       524-5.81720E-13-1.63886E-12 2.13111E-15
 -1       525 1.89582E-12 3.83480E-12-1.38745E-13
 -1       526-1.47624E-12 1.09470E-12-8.53547E-14
 -1       527 1.14707E-13 2.27388E-12 1.35822E-13
 -1       528-4.24840E-12-6.49195E-13 3.46930E-13
 -1       529 3.02345E-12 8.34966E-15 3.39438E-13
 -1       530 9.13471E-12 5.11875E-13 1.74465E-13
 -1       531-9.16101E-12 6.96234E-13-3.20278E-13
 -1       532 4.25323E-13-4.10796E-13-1.22095E-13
 -1       533-9.49609E-12-2.29367E-13-2.88580E-13
 -1       534-6.60420E-12 1.26794E-12-2.02232E-13
 -1       535 1.86846E-12-4.49251E-13 7.35358E-14
 -1       536-5.16995E-13-2.71571E-13 1.00100E-13
 -1       537-5.70912E-12 2.16338E-12-4.70231E-13
 -1       538-5.07418E-12 1.94907E-13 2.84023E-13
 -1       539 4.94198E-12-2.39078E-12 1.55010E-13
 -1       540 1.29513E-11 1.18664E-12-1.09700E-13
 -1       541-6.74085E-13 4.79155E-13-4.44107E-14
 -1       542-4.53329E-12 3.64180E-12-3.34042E-13
 -1       543-4.56458E-12-8.55587E-15-3.20066E-13
 -1       544 9.69997E-12 4.20258E-13 7.59704E-14
 -1       545 1.28468E-12 5.15895E-13 2.44548E-13
 -1       546-5.94709E-12-1.86482E-12 2.72152E-13
 -1       547 3.92714E-12 1.59019E-13 3.12194E-13
 -1       548-8.40207E-12-7.51659E-13 4.61388E-13
 -1       549 2.27993E-12-3.19161E-13-2.91061E-13
 -1       550-5.51830E-12-1.61447E-13 8.74192E-14
 -1       551-1.50399E-12 1.67145E-12 3.54725E-13
 -1       552 3.87902E-12-7.46784E-13 8.21298E-14
 -1       553-3.26204E-12-1.40115E-13-1.96456E-13
 -1       554 4.41101E-12 1.66085E-13-3.59150E-13
 -1       555 4.49649E-12 9.75266E-13 6.79038E-14
 -1       556 2.95365E-12-6.34839E-13-8.51168E-14
 -1       557 2.00401E-12-2.25885E-12 8.69893E-14
 -1       558-2.88673E-12 1.00258E-12 1.85545E-13
 -1       559 7.23671E-12-2.87288E-12 2.18974E-13
 -1       560 3.61140E-12-1.30249E-12 1.37025E-13
 -1       561 3.06016E-13-5.82559E-13 1.51404E-13
 -1       562 3.00303E-12-9.38206E-13-2.09446E-14
 -1       563 3.72578E-12-1.82225E-13 1.93738E-14
 -1       564 1.00170E-12 4.85458E-13-1.85659E-14
 -1       565 8.83487E-13-1.94295E-12 4.03178E-14
 -1       566 1.42107E-12 8.61571E-13 1.03047E-13
 -1       567-2.61620E-12-8.22278E-13-2.75561E-13
 -1       568 2.24453E-12-2.88176E-13 4.19712E-13
 -1       569-1.60982E-12-1.30032E-12-1.91183E-13
 -1       570-2.14217E-13-1.06979E-12-5.98829E-14
 -1       571 2.10606E-12 9.65607E-13 9.80846E-14
 -1       572 1.88995E-13 1.98105E-13 1.25865E-13
 -1       573 2.11480E-12 1.77084E-12 3.28699E-13
 -1       574-2.15905E-12-2.12315E-12 1.65260E-13
 -1       575 2.84688E-12 3.34951E-13-2.13983E-13
 -1       576 1.31723E-13-1.32853E-12 2.90536E-13
 -1       577 5.05623E-12-5.49134E-13-1.00151E-13
 -1       578 1.31304E-12-2.53732E-12-2.28000E-13
 -1       579-5.05788E-12 2.70104E-12-1.83527E-13
 -1       580-8.28112E-12 2.62773E-12 1.80707E-13
 -1       581-1.25865E-11 2.53022E-12 1.36662E-13
 -1       582-1.65849E-12-9.08507E-13 4.08213E-13
 -1       583 6.66126E-12-9.03642E-13-2.54666E-13
 -1       584 2.13496E-11-9.61547E-13 1.38636E-13
 -1       585-3.00070E-12 6.36514E-14 1.61398E-15
 -1       586 4.16862E-12-9.85791E-13-1.75125E-13
 -1       587-1.82731E-11 2.19695E-11 1.35063E-13
 -1       588-1.34716E-11 1.02386E-11 1.47459E-13
 -1       589-2.67476E-12-1.82979E-12 1.00520E-14
 -1       590-9.60057E-13-2.75994E-13-2.60720E-14
 -1       591-3.03858E-12 3.71589E-13 7.30863E-14
 -1       592 2.69341E-14-2.59310E-13 1.35210E-13
 -1       593 4.91838E-12 6.12888E-14 5.93735E-14
 -1       594-2.00775E-12 2.22562E-12 2.04908E-14
 -1       595-2.14825E-12 4.27319E-13 7.21818E-14
 -1       596-1.88554E-12-2.71777E-12 1.65310E-13
 -1       597 1.83979E-12 1.35013E-12 1.02551E-13
 -1       598-1.34755E-12-1.76151E-13 7.28985E-15
 -1       599 1.04619E-12 4.43172E-12 4.27063E-14
 -1       600-5.48463E-12 1.36868E-12 1.47383E-13
 -1       601 1.21141E-11 9.79883E-13 1.00876E-13
 -1       602 2.90061E-12 1.02385E-12 2.94900E-13
 -1       603-3.10862E-14 2.72871E-12 5.14173E-14
 -1       604 1.64702E-12-3.12250E-14-1.55777E-13
 -1       605-7.47902E-12-4.87610E-13 5.87532E-14
 -1       606 3.26100E-12 3.53079E-12 1.36840E-13
 -1       607 2.26974E-12-1.49214E-12-2.10654E-13
 -1       608 1.33238E-12 1.08802E-13 2.13598E-13
 -1       609 1.10718E-11-1.82676E-12-1.19469E-13
 -1       610 6.74849E-12-1.02562E-12-6.78474E-14
 -1       611-3.99081E-12 2.26430E-12 6.51584E-14
 -1       612 3.50231E-12-4.15695E-13-1.19485E-13
 -1       613-8.55579E-12-3.57048E-13 2.11986E-13
 -1       614-1.92513E-12-2.27018E-12 2.80249E-14
 -1       615-2.37499E-12 9.06386E-13 1.13214E-13
 -1       616-2.50910E-14 3.48166E-13-2.00384E-13
 -1       617-3.02691E-12-9.23706E-13 3.87945E-14
 -1       618 3.55754E-12-1.12788E-12 3.48896E-13
 -1       619 7.38365E-12 2.42667E-13 7.96130E-14
 -1       620 8.36310E-12-3.64569E-12 1.52570E-13
 -1       621 5.00733E-12 4.17839E-12 1.07034E-13
 -1       622 8.98696E-12 1.58849E-14-3.16976E-13
 -1       623 1.48770E-13 7.17382E-12 8.39086E-14
 -1       624-9.73444E-13 3.53761E-12 1.58134E-13
 -1       625-1.68869E-11 8.73746E-13 6.17752E-14
 -1       626-3.19278E-12-1.01424E-12 2.28615E-13
 -1       627 4.93827E-13 1.67114E-12-2.93954E-14
 -1       628 2.62343E-12 8.09131E-13 1.93658E-13
 -1       629-1.23679E-13 9.64118E-13 1.12673E-13
 -1       630 4.39615E-12 2.11120E-12 4.29639E-14
 -1       631-9.20397E-12 4.88498E-14 4.60099E-14
 -1       632-3.77309E-12 8.69305E-14-4.99776E-14
 -1       633-9.05109E-14-7.28584E-14 2.96011E-13
 -1       634-8.92536E-13 7.61252E-13 2.34119E-14
 -1       635 1.40202E-12 5.46452E-13-5.62399E-14
 -1       636-7.08683E-13 8.68372E-12 3.33506E-14
 -1       637-8.81184E-13-5.06484E-13 6.75142E-14
 -1       638 5.07705E-13 6.63664E-13-5.76095E-14
 -1       639-4.78995E-12-1.19682E-12 1.81963E-13
 -1       640 1.01774E-12-1.77769E-12 1.45748E-13
 -1       641 2.30493E-12 1.04805E-13-1.31195E-13
 -1       642-2.60700E-12 1.49591E-12 3.44683E-13
 -1       643 5.23004E-12-1.78790E-12 3.20168E-13
 -1       644-7.95930E-12-3.83693E-12 2.00214E-13
 -1       645-4.12065E-12-2.58127E-13-5.06432E-14
 -1       646-5.10786E-13-2.16205E-12 1.98964E-14
 -1       647-1.25882E-11-3.32523E-12-6.75237E-15
 -1       648 3.45057E-12-1.03650E-12-1.07368E-14
 -1       649 4.15223E-12-4.52971E-13-1.45219E-13
 -1       650-7.29194E-13 2.61569E-12-3.60920E-13
 -1       651 1.45834E-11-3.99125E-14 1.00380E-13
 -1       652 1.01287E-11 4.59466E-13 2.72887E-13
 -1       653 5.01876E-13-1.40843E-12 1.07518E-13
 -1       654 8.13127E-12 1.88360E-12-1.55887E-13
 -1       655-5.43824E-12-1.50842E-13-1.79587E-13
 -1       656-2.51420E-12 3.06394E-13 1.30880E-13
 -1       657-4.45402E-13-1.43037E-12-1.22722E-13
 -1       658 6.01427E-12 2.20331E-12 1.77918E-13
 -1       659-2.39251E-12 2.47503E-13 2.10349E-13
 -1       660 1.12931E-12-3.22406E-13-1.86754E-13
 -1       661-2.55160E-12-2.54028E-12-2.06240E-13
 -1       662 3.26652E-12-3.55938E-13-1.46783E-13
 -1       663-1.40692E-12 1.27619E-12 2.52667E-13
 -1       664 3.12316E-13 3.63498E-13-2.19836E-13
 -1       665 1.53135E-12 1.92287E-12-3.70880E-14
 -1       666 4.17003E-12-1.73334E-14 1.66700E-13
 -1       667-2.96285E-12-7.32761E-13-3.34680E-14
 -1       668-8.99558E-14-5.31582E-13-3.07407E-13
 -1       669-2.15115E-12 6.98264E-13-9.70414E-14
 -1       670-7.11237E-16 1.69670E-13 5.80597E-14
 -1       671 2.22554E-12 6.63184E-13-2.06428E-14
 -1       672 3.53252E-12 8.75751E-13-2.00760E-14
 -1       673-1.54801E-12-1.44882E-12-2.73705E-14
 -1       674 2.16049E-13 3.43670E-13 4.70846E-13
 -1       675-9.62783E-13-2.94719E-13 2.24783E-13
 -1       676 5.00873E-12 1.38584E-12-1.03775E-13
 -1       677 1.00887E-12-3.13291E-12 2.23744E-13
 -1       678-1.37051E-11-3.14929E-12-1.14954E-13
 -1       679-2.09757E-12 4.22845E-13 1.05998E-13
 -1       680-2.01440E-12-2.64050E-12 3.66065E-13
 -1       681-2.92490E-12 4.86531E-13-2.93063E-13
 -1       682-4.63193E-12 3.19817E-13 1.23818E-13
 -1       683-4.91648E-12-1.02532E-12 1.64769E-13
 -1       684-4.69940E-12-3.67115E-12 7.73307E-17
 -1       685 3.65147E-13-3.98774E-13 6.11747E-14
 -1       686-4.26942E-12-1.25142E-12-2.28094E-13
 -1       687 2.12885E-12 6.04265E-13-4.86187E-14
 -1       688-5.83545E-13-1.75827E-12 3.38913E-14
 -1       689-1.66663E-12-9.71209E-13 9.67724E-14
 -1       690-2.71227E-13-5.12047E-12-7.29417E-14
 -1       691 3.50471E-13 6.37393E-13 3.12805E-14
 -1       692-4.55974E-13-1.25222E-12 1.62287E-13
 -1       693-2.84863E-12 9.48785E-13 2.04736E-13
 -1       694 1.06614E-11-3.50109E-13-2.28192E-13
 -1       695-1.35179E-11-7.21959E-13-2.87722E-14
 -1       696 8.94774E-12 3.86565E-13 1.03685E-13
 -1       697 1.14183E-13 4.57201E-13 3.69573E-13
 -1       698-1.07965E-12-9.54215E-13-4.26589E-14
 -1       699-9.47232E-12-7.19668E-13 9.74877E-14
 -1       700-1.25436E-11 1.23278E-13 1.16908E-13
 -1       701 4.66542E-13-1.21869E-13 3.52798E-14
 -1       702 2.38405E-12 1.15400E-12 8.67278E-14
 -1       703 6.24029E-12-1.16095E-12-1.77774E-13
 -1       704 3.91286E-12-8.96951E-13 4.32953E-14
 -1       705 4.40367E-12 1.64246E-12-2.48356E-13
 -1       706-7.89136E-13-1.12909E-13-9.72966E-14
 -1       707 9.58747E-12 1.78563E-12-1.98591E-14
 -1       708 5.77829E-13-7.19456E-13-8.69899E-14
 -1       709-5.21815E-13-1.61464E-12-3.44464E-14
 -1       710-7.39932E-13 3.08110E-12-1.35516E-13
 -1       711-2.62656E-12 1.76316E-12 3.12600E-13
 -1       712-7.65684E-12-7.36361E-13-1.69713E-13
 -1       713 9.26278E-13-3.56798E-12-9.77452E-15
 -1       714-9.98207E-13-1.09069E-12-9.76914E-14
 -1       715 3.07189E-12-1.49797E-12-1.35949E-13
 -1       716 2.93952E-12-3.83354E-13-3.21304E-13
 -1       717 7.18305E-12 1.76591E-13 2.01938E-13
 -1       718-9.62768E-13 9.92777E-13 8.26127E-14
 -1       719 1.30060E-12-7.09780E-13 4.13163E-14
 -1       720-9.73215E-13-7.57391E-13 6.43550E-15
 -1       721-1.73707E-12 2.92886E-12 8.18237E-15
 -1       722 1.02961E-12-7.59051E-13-1.56989E-13
 -1       723-6.32373E-13-5.55925E-12-3.11432E-13
 -1       724-8.48478E-13-2.15528E-12 4.46421E-14
 -1       725-4.39985E-12-1.84868E-12 3.97110E-14
 -1       726 4.57630E-12 1.87445E-12 5.87766E-14
 -1       727-6.59029E-12-1.04249E-12 1.79433E-13
 -1       728 4.48799E-12-6.03620E-13-4.00991E-13
 -1       729 2.34640E-12-8.40054E-13 9.56622E-14
 -1       730-4.79538E-12 1.03851E-14-2.41310E-13
 -1       731-2.73905E-12 1.26500E-12-1.37480E-13
 -1       732-2.08031E-12-1.43695E-13 1.10719E-14
 -1       733-1.21278E-12 1.32800E-12 3.18264E-14
 -1       734-2.53743E-12 2.42245E-12-7.24843E-16
 -1       735-1.73820E-12 6.02608E-14 3.74900E-14
 -1       736 1.47125E-12 2.21280E-12-3.06668E-13
 -1       737-7.45504E-13-4.41022E-13 2.94154E-13
 -1       738-7.59966E-13 1.70752E-12-7.72530E-14
 -1       739 8.91970E-12 1.10102E-12 4.57156E-14
 -1       740-5.10724E-12 2.46483E-12-3.13574E-13
 -1       741-1.22550E-12 3.16356E-13-1.23182E-13
 -1       742 1.04060E-12-2.44984E-13-2.06383E-13
 -1       743 6.93801E-12 1.92691E-12 1.80159E-14
 -1       744 1.76269E-12 9.54001E-13-1.90563E-13
 -1       745 3.09015E-12 3.50823E-12-9.90462E-14
 -1       746 1.25531E-13 1.02870E-12-2.87797E-13
 -1       747 1.20801E-11-2.06986E-12-2.69511E-13
 -1       748-6.62636E-13 6.02900E-13-1.02329E-13
 -1       749 3.45549E-12 1.08458E-12-8.77811E-14
 -1       750 1.27297E-12-1.40551E-12-3.55330E-13
 -1       751 1.23762E-13-1.84780E-12-6.03911E-14
 -1       752 3.50041E-12 2.91750E-13-6.75567E-14
 -1       753 1.71578E-12 3.32867E-13-8.19035E-15
 -1       754 8.39107E-13 3.45002E-14-1.54112E-13
 -1       755 1.05355E-11-3.20346E-12-4.49487E-14
 -1       756 6.21241E-12 5.00346E-12 3.46066E-13
 -1       757 1.26307E-11 4.71975E-13-2.21805E-13
 -1       758 1.01596E-12-2.71131E-12 8.49095E-14
 -1       759 8.00425E-12-1.46530E-12 1.10363E-13
 -1       760-4.98549E-12-8.20194E-13 4.84056E-15
 -1       761-5.22538E-12 4.34888E-13 2.71064E-13
 -1       762-3.93083E-13 2.28246E-13-1.22605E-13
 -1       763-2.83595E-12 4.03989E-13-4.73718E-14
 -1       764-3.65960E-12 4.62234E-13 1.72264E-13
 -1       765 2.20459E-13-3.35827E-13 5.39889E-13
 -1       766 1.34307E-12-9.69932E-13 3.04756E-14
 -1       767-6.66581E-12 2.82116E-13-2.42465E-13
 -1       768 4.83458E-12-3.20967E-12-2.74847E-13
 -1       769-6.26143E-12-1.85806E-13-3.18118E-13
 -1       770 4.68192E-12-3.24408E-12-1.62317E-13
 -1       771-1.09421E-11-1.14690E-12-2.46987E-13
 -1       772 6.82431E-12-7.22235E-13 4.75102E-14
 -1       773-3.25719E-12 1.34066E-12 5.69600E-14
 -1       774 4.03146E-12-2.68768E-13 1.34313E-13
 -1       775 1.07120E-13 1.06841E-12-3.49113E-14
 -1       776 1.58827E-12 5.86801E-13-1.68103E-13
 -1       777 6.80242E-12 2.68302E-12-4.88479E-14
 -1       778 7.04556E-12-2.84038E-13 1.87450E-14
 -1       779-2.16955E-12 6.91781E-13-1.97463E-13
 -1       780 4.09868E-12-6.79116E-13 1.59065E-13
 -1       781-3.11839E-12-2.67342E-13 1.18665E-13
 -1       782-6.06004E-12-1.28786E-14-1.32778E-13
 -1       783 1.40687E-12 1.64779E-12 9.71406E-14
 -1       784-1.64968E-12-4.44977E-13-2.43064E-13
 -1       785 8.38812E-12 4.90719E-14 9.54607E-14
 -1       786-8.68028E-12 8.37663E-14 1.99258E-13
 -1       787 4.62336E-12 1.05771E-12-9.12807E-14
 -1       788 4.68103E-12 2.66009E-13-5.92229E-14
 -1       789-5.92462E-12 1.43441E-13 1.60975E-13
 -1       790 3.88201E-12-1.06204E-12-1.18672E-13
 -1       791-3.22053E-12-1.23457E-12-1.22076E-13
 -1       792-6.56064E-12 1.31228E-12-2.94514E-14
 -1       793-1.70861E-12-8.79408E-13-3.76702E-13
 -1       794-5.35255E-12 1.67621E-12 4.89507E-15
 -1       795 6.49703E-13-1.61382E-12-9.91707E-14
 -1       796 6.69631E-13-1.49480E-12 1.63867E-13
 -1       797-1.27162E-13 1.00000E-11-1.12677E-13
 -1       798 1.97087E-12 4.06342E-13 9.53250E-15
 -1       799 6.57747E-12-8.27782E-13-2.82320E-13
 -1       800-2.92133E-12-9.14824E-13 4.69866E-14
 -1       801 6.66134E-13 2.96208E-12-1.24426E-13
 -1       802 8.01670E-12-1.08802E-12 4.41899E-14
 -1       803-5.22693E-13-2.81407E-12 8.17622E-14
 -1       804-7.83262E-12-2.35617E-12 6.93128E-14
 -1       805 4.13924E-12 1.44337E-12-1.89182E-13
 -1       806 5.65770E-13-9.60121E-13 2.12884E-13
 -1       807-2.37765E-12-8.80185E-13-1.36099E-13
 -1       808 6.06315E-12-9.73888E-13-7.33348E-15
 -1       809-8.09353E-13 7.46070E-14 1.22518E-13
 -1       810-1.27276E-12-5.00666E-12-6.09278E-14
 -1       811 2.81658E-12-1.71770E-12 9.87744E-14
 -1       812-1.32522E-11-1.24900E-12-6.65504E-14
 -1       813-5.91116E-12-4.51261E-12-2.48586E-13
 -1       814-2.31456E-12 1.65949E-12 1.19089E-13
 -1       815-5.74907E-12 2.89990E-12 1.54764E-13
 -1       816-6.49647E-12-3.98723E-12-8.27466E-14
 -1       817-1.45384E-12 1.82906E-12 5.27741E-14
 -1       818 4.30400E-12 3.03813E-13 2.94478E-13
 -1       819 8.82894E-12-1.69503E-12 1.46159E-13
 -1       820 2.72521E-12 1.86118E-12-9.37284E-14
 -1       821-2.38670E-13 1.11633E-12 3.04032E-15
 -1       822 9.00502E-13 2.91989E-13-2.52462E-13
 -1       823-5.62195E-12 2.78932E-12 2.13895E-13
 -1       824 4.49202E-12-1.33360E-12-2.35603E-13
 -1       825 3.73179E-12 2.96918E-12 3.92541E-14
 -1       826-8.90482E-13 2.55038E-12-4.55583E-14
 -1       827-3.94434E-12-3.22206E-12-2.22082E-13
 -1       828-7.70873E-12 2.09166E-13 1.66475E-13
 -1       829 2.45937E-12 1.65912E-12-6.98105E-14
 -1       830 5.12124E-12-2.20313E-12-4.60170E-14
 -1       831 1.66145E-12 1.02096E-12-6.24045E-14
 -1       832-6.49278E-12 1.03499E-12 2.00876E-13
 -1       833 4.49214E-13 1.39970E-12 3.07865E-13
 -1       834-5.36459E-12 3.16622E-14 1.23316E-13
 -1       835 4.18380E-12-4.98533E-13-9.96575E-14
 -1       836-1.18556E-12-3.54829E-13-4.21132E-13
 -1       837 1.78457E-12 1.13858E-12 2.14906E-13
 -1       838-7.70931E-14-9.93045E-13-5.52852E-15
 -1       839 9.03216E-13 4.91135E-13 5.66856E-14
 -1       840 1.64034E-12-1.90301E-12 2.93157E-13
 -1       841-7.41835E-12-2.98855E-12 1.27352E-14
 -1       842 3.92476E-12-1.93817E-12-1.35814E-13
 -1       843 1.82595E-12 1.21652E-12 6.48005E-13
 -1       844 1.13654E-12-1.31406E-12-1.27506E-13
 -1       845-1.61457E-13-6.84516E-13 1.09682E-13
 -1       846 7.74466E-13 1.39199E-13-6.88971E-14
 -1       847-1.56596E-13 3.41559E-12 7.70439E-15
 -1       848-6.88243E-14 1.73669E-12-1.87723E-13
 -1       849-1.47099E-13-8.81030E-13 1.41923E-13
 -1       850-5.72282E-13 3.40071E-12 3.03368E-14
 -1       851 3.13212E-13 1.54822E-12-1.88219E-13
 -1       852-1.25449E-12-9.19172E-13-4.00895E-14
 -1       853 2.19625E-12 3.94232E-13 1.48226E-13
 -1       854-3.25559E-12 2.50328E-13-3.57658E-13
 -1       855 3.45226E-13 6.65024E-14 1.08123E-13
 -1       856 6.08557E-12-1.34542E-12-6.20112E-14
 -1       857 4.00188E-13-5.29402E-13 2.89092E-13
 -1       858-2.24763E-12-8.27963E-13 7.05668E-14
 -1       859-3.59005E-12-3.30340E-13-3.51770E-14
 -1       860-4.01918E-12 1.16473E-12 1.45605E-13
 -1       861 7.42441E-13 5.33365E-13-3.60437E-14
 -1       862 4.48920E-12 1.75327E-12-1.57556E-14
 -1       863 1.47652E-12-4.22077E-12 1.83156E-13
 -1       864 1.40896E-12 8.23300E-14-6.98572E-14
 -1       865 1.19335E-12-1.04647E-12-2.91672E-13
 -1       866-5.60822E-12 4.54137E-13 5.09476E-13
 -1       867 2.46379E-12 8.97834E-14-4.49438E-14
 -1       868 3.65920E-12 2.26452E-12-1.05955E-13
 -1       869 2.84462E-12 1.70331E-13-1.99314E-13
 -1       870 5.16992E-12-9.30936E-13 1.42079E-13
 -1       871 4.39075E-12-1.39999E-12 1.90105E-13
 -1       872-6.35930E-13-1.34611E-12-1.82977E-13
 -1       873-6.11355E-12-1.31671E-13-1.84753E-13
 -1       874 8.01463E-13 2.18181E-12-1.72743E-13
 -1       875-1.53826E-11 4.01301E-12 1.56077E-13
 -1       876-5.34241E-12 1.86599E-12-2.00858E-13
 -1       877 2.91026E-12-3.49516E-13 4.40661E-13
 -1       878 6.68818E-12 1.33848E-12 1.11623E-13
 -1       879-2.11422E-13-1.05454E-13-2.27099E-13
 -1       880-3.14185E-13 1.65829E-12 1.26643E-13
 -1       881 5.81280E-13 8.17525E-13-4.05818E-14
 -1       882 9.36085E-12 3.78904E-13-1.92413E-14
 -1       883-1.54076E-12 1.31821E-12 1.73419E-13
 -1       884-1.35027E-13 1.54035E-12 1.30576E-13
 -1       885 1.35797E-12-7.07611E-14 9.53610E-14
 -1       886-6.41647E-13-4.64769E-13 3.15204E-14
 -1       887 4.12712E-13-2.26672E-12 6.29115E-14
 -1       888-1.70155E-12 1.62428E-12 2.73305E-13
 -1       889-2.12180E-12 4.03583E-13-5.07334E-15
 -1       890 2.96182E-12 2.44987E-12 1.51604E-13
 -1       891 9.29931E-12-4.60922E-13-1.27311E-13
 -1       892 6.32324E-12-5.01804E-13-9.92815E-14
 -1       893-5.01975E-12 2.57352E-12 3.09093E-13
 -1       894 5.20852E-12 3.41185E-13 1.59664E-14
 -1       895-8.82690E-12-6.86620E-13-1.89695E-13
 -1       896-6.47101E-12 2.65606E-12-9.33986E-14
 -1       897-1.22054E-12-3.89081E-12-1.57675E-13
 -1       898-2.02834E-12 6.76706E-13-2.21694E-13
 -1       899-8.78926E-12 2.74905E-12-1.41224E-13
 -1       900 5.35397E-12 1.97254E-12 1.72830E-13
 -1       901 2.73395E-12-1.36203E-13-1.71020E-13
 -1       902 9.69280E-12 1.41026E-12-5.73633E-14
 -1       903-1.82136E-12 2.00531E-12 9.08926E-14
 -1       904-2.12660E-12 1.74753E-12-7.00516E-14
 -1       905 5.27459E-12 8.33615E-13-1.38339E-13
 -1       906-4.27772E-12 1.25961E-13 7.32544E-14
 -1       907 2.26361E-13 1.15407E-12 3.18999E-13
 -1       908-1.19004E-11-2.60559E-13 2.32791E-14
 -1       909 7.02076E-12 4.72323E-12-4.29692E-13
 -1       910-3.69980E-13-2.32657E-12 4.32912E-14
 -1       911-6.31941E-12 9.73361E-13 3.59539E-14
 -1       912 2.94919E-12-5.96833E-13-6.25194E-14
 -1       913 5.24293E-13 2.83749E-12-2.49649E-13
 -1       914-1.09817E-13 3.63992E-12 3.65714E-14
 -1       915-1.16287E-12 5.01457E-13 4.50681E-14
 -1       916 1.08633E-12-5.12267E-13 1.71876E-13
 -1       917-7.84775E-13-2.53516E-13 6.52956E-14
 -1       918 1.96977E-12-1.74596E-12-8.46296E-15
 -1       919 5.02590E-12-1.09678E-12-1.69043E-13
 -1       920 2.23777E-12 1.66215E-12-2.21207E-13
 -1       921-6.66751E-12 1.21841E-12 3.80204E-14
 -1       922-2.06027E-12-8.62846E-13 7.16718E-14
 -1       923 1.66551E-12-1.86821E-12 6.99250E-14
 -1       924 7.26681E-13 1.98784E-12 1.76666E-13
 -1       925 1.62379E-12-5.47427E-13 3.33259E-14
 -1       926-2.38626E-12 4.08537E-13 2.20601E-13
 -1       927 1.41536E-12-1.49571E-12 5.02610E-14
 -1       928-6.05876E-13 1.44536E-12 7.80517E-14
 -1       929 3.07251E-12-6.88931E-13 2.27541E-13
 -1       930-5.29359E-13-6.23302E-14 2.93926E-13
 -1       931-3.32060E-12-1.88691E-12 3.95397E-13
 -1       932 1.44323E-11-1.40494E-12 1.72881E-13
 -1       933 1.76596E-12 7.71475E-13-1.23789E-13
 -1       934 3.56699E-12-8.25786E-13-4.08394E-13
 -1       935 7.27245E-12 1.26327E-12 1.14306E-13
 -1       936-1.24335E-11 6.28264E-13-1.17783E-13
 -1       937 1.44339E-12-5.74302E-13 1.89788E-13
 -1       938-2.06655E-12 1.38523E-12-4.23393E-13
 -1       939-3.08464E-12 2.03531E-12-1.79694E-13
 -1       940 4.08282E-12-8.85035E-13-2.90007E-13
 -1       941 5.49591E-12-2.48394E-12 1.89164E-13
 -1       942 2.13340E-12 2.95810E-13-3.86803E-13
 -1       943-4.64928E-12-4.52253E-13-1.28285E-13
 -1       944-3.94391E-12 9.73315E-13 2.71754E-13
 -1       945 1.72039E-12-4.22291E-13-1.14418E-14
 -1       946 1.85654E-12 1.02138E-12-7.78269E-14
 -1       947-9.77434E-13 4.29076E-13 3.86615E-14
 -1       948 1.92286E-12-3.69854E-13 3.02868E-13
 -1       949 9.01539E-13-7.74523E-13-8.43006E-14
 -3
    1PSTEP                         5           1           1          
  100CL  101 1.000000000         948                     0    1           1
 -4  ERROR       1    1
 -5  STR(%)      1    1    0    0
 -1         1 1.35536E-01
 -1         2 3.43650E-01
 -1         3 1.36788E-01
 -1         4 1.35925E-01
 -1         5 6.94105E+00
 -1         7 2.62638E+01
 -1         8 6.78432E+00
 -1         9 2.50655E+01
 -1        10 7.14845E+00
 -1        11 1.72441E-01
 -1        12 6.15188E+00
 -1        13 1.78573E-01
 -1        14 1.35536E-01
 -1        15 1.22508E-01
 -1        16 8.37623E-02
 -1        17 4.35514E-02
 -1        18 6.59850E-02
 -1        19 1.50475E-01
 -1        20 1.72401E-01
 -1        21 1.35536E-01
 -1        22 1.29022E-01
 -1        23 1.03135E-01
 -1        24 6.36569E-02
 -1        25 5.47682E-02
 -1        26 1.08230E-01
 -1        27 1.61438E-01
 -1        28 1.72421E-01
 -1        29 6.43726E-01
 -1        30 7.38480E-01
 -1        31 7.38480E-01
 -1        32 7.56032E-01
 -1        33 8.69927E-01
 -1        34 9.05186E-01
 -1        35 9.05186E-01
 -1        36 7.44510E-01
 -1        37 1.39050E+00
 -1        38 3.44257E+00
 -1        39 7.14845E+00
 -1        40 4.93688E-01
 -1        41 6.91103E-01
 -1        42 7.38480E-01
 -1        43 7.47256E-01
 -1        44 8.12980E-01
 -1        45 8.87557E-01
 -1        46 9.05186E-01
 -1        47 8.24848E-01
 -1        48 1.06750E+00
 -1        49 2.41654E+00
 -1        50 5.29551E+00
 -1        51 7.14845E+00
 -1        52 1.36788E-01
 -1        53 1.24208E-01
 -1        54 8.59168E-02
 -1        55 4.52238E-02
 -1        56 6.91113E-02
 -1        57 1.52776E-01
 -1        58 1.78573E-01
 -1        59 1.36788E-01
 -1        60 1.30498E-01
 -1        61 1.05062E-01
 -1        62 6.55703E-02
 -1        63 5.71675E-02
 -1        64 1.10944E-01
 -1        65 1.65675E-01
 -1        66 1.78573E-01
 -1        67 3.85858E-01
 -1        68 5.30170E-01
 -1        69 8.30953E-01
 -1        70 1.15390E+00
 -1        71 1.42266E+00
 -1        72 1.59479E+00
 -1        73 1.59479E+00
 -1        74 1.23911E+00
 -1        75 1.24497E+00
 -1        76 2.94854E+00
 -1        77 5.99198E+00
 -1        78 2.60891E-01
 -1        79 4.58014E-01
 -1        80 6.80561E-01
 -1        81 9.92425E-01
 -1        82 1.28828E+00
 -1        83 1.50873E+00
 -1        84 1.59479E+00
 -1        85 1.41695E+00
 -1        86 1.24204E+00
 -1        87 2.09675E+00
 -1        88 4.47026E+00
 -1        89 6.07193E+00
 -1        90 1.54474E+01
 -1        91 4.30880E+01
 -1        92 4.30880E+01
 -1        93 1.11942E+01
 -1        94 2.92677E+01
 -1        95 4.30880E+01
 -1        96 3.46759E+01
 -1        97 3.65256E+01
 -1        98 3.65256E+01
 -1        99 1.44966E+01
 -1       100 3.13947E+01
 -1       101 3.65256E+01
 -1       102 2.55111E+01
 -1       103 1.06405E+01
 -1       104 1.45294E+01
 -1       105 3.81615E+01
 -1       106 3.81615E+01
 -1       107 1.06569E+01
 -1       108 2.63455E+01
 -1       109 3.81615E+01
 -1       110 3.16135E+01
 -1       111 3.76467E+01
 -1       112 3.76467E+01
 -1       113 1.45861E+01
 -1       114 3.13561E+01
 -1       115 3.76467E+01
 -1       116 2.61164E+01
 -1       117 1.07636E+01
 -1       118 6.00450E+00
 -1       119 2.95078E+00
 -1       120 1.25400E+00
 -1       121 1.13103E+00
 -1       122 1.39721E+00
 -1       123 1.39721E+00
 -1       124 1.34028E+00
 -1       125 1.13711E+00
 -1       126 8.24758E-01
 -1       127 5.30063E-01
 -1       128 3.89230E-01
 -1       129 6.57648E+00
 -1       130 4.47764E+00
 -1       131 2.10239E+00
 -1       132 1.19252E+00
 -1       133 1.26412E+00
 -1       134 1.39721E+00
 -1       135 1.36875E+00
 -1       136 1.23869E+00
 -1       137 9.80934E-01
 -1       138 6.77411E-01
 -1       139 4.59646E-01
 -1       140 2.63009E-01
 -1       141 7.14845E+00
 -1       142 2.45105E+00
 -1       143 6.94105E+00
 -1       144 7.14845E+00
 -1       145 4.79975E+00
 -1       146 4.69605E+00
 -1       147 6.94105E+00
 -1       148 1.72441E-01
 -1       149 1.20856E-01
 -1       150 5.77493E-02
 -1       151 4.94343E-02
 -1       152 6.83969E-02
 -1       153 8.75916E-02
 -1       154 1.10309E-01
 -1       155 1.72441E-01
 -1       156 1.46648E-01
 -1       157 8.93025E-02
 -1       158 5.35918E-02
 -1       159 5.89156E-02
 -1       160 7.79942E-02
 -1       161 9.89503E-02
 -1       162 2.26980E-01
 -1       163 4.51563E-01
 -1       164 7.67968E-01
 -1       165 1.24019E+00
 -1       166 2.05932E+00
 -1       167 6.44901E+00
 -1       168 4.08657E+01
 -1       169 4.08657E+01
 -1       170 3.12002E-01
 -1       171 6.09765E-01
 -1       172 1.00408E+00
 -1       173 1.64975E+00
 -1       174 4.25416E+00
 -1       175 2.36574E+01
 -1       176 4.08657E+01
 -1       177 3.35648E+01
 -1       178 6.15188E+00
 -1       179 2.97725E+00
 -1       180 1.28326E+00
 -1       181 1.28537E+00
 -1       182 1.45014E+00
 -1       183 1.45014E+00
 -1       184 1.36954E+00
 -1       185 1.14628E+00
 -1       186 8.30995E-01
 -1       187 5.29404E-01
 -1       188 3.84796E-01
 -1       189 6.15188E+00
 -1       190 4.56456E+00
 -1       191 2.13025E+00
 -1       192 1.28431E+00
 -1       193 1.36775E+00
 -1       194 1.45014E+00
 -1       195 1.40984E+00
 -1       196 1.25791E+00
 -1       197 9.88636E-01
 -1       198 6.80200E-01
 -1       199 4.57100E-01
 -1       200 2.60166E-01
 -1       201 6.78432E+00
 -1       202 2.14607E+00
 -1       203 6.15188E+00
 -1       204 6.78432E+00
 -1       205 4.46519E+00
 -1       206 4.14897E+00
 -1       207 6.15188E+00
 -1       208 1.77504E-01
 -1       209 1.44994E-01
 -1       210 6.42729E-02
 -1       211 4.46180E-02
 -1       212 8.43910E-02
 -1       213 1.22911E-01
 -1       214 1.35925E-01
 -1       215 1.78038E-01
 -1       216 1.61249E-01
 -1       217 1.04633E-01
 -1       218 5.44454E-02
 -1       219 6.45045E-02
 -1       220 1.03651E-01
 -1       221 1.29418E-01
 -1       222 1.35925E-01
 -1       223 2.65059E+01
 -1       224 2.65059E+01
 -1       225 5.18823E+00
 -1       226 1.85928E+00
 -1       227 1.21486E+00
 -1       228 7.52189E-01
 -1       229 4.43457E-01
 -1       230 2.57857E+01
 -1       231 2.65059E+01
 -1       232 1.58471E+01
 -1       233 3.52376E+00
 -1       234 1.53707E+00
 -1       235 9.83522E-01
 -1       236 5.97823E-01
 -1       237 3.11015E-01
 -1       238 8.70601E-01
 -1       239 1.14134E+00
 -1       240 4.34114E-01
 -1       241 2.05574E+00
 -1       242 5.50136E+00
 -1       243 1.69319E+00
 -1       244 1.69826E-01
 -1       245 8.12724E-01
 -1       246 1.50206E+01
 -1       247 2.73582E+00
 -1       248 2.98665E-01
 -1       249 3.75863E-01
 -1       250 7.19318E-01
 -1       251 6.26414E-01
 -1       252 4.65124E-01
 -1       253 3.65256E+01
 -1       254 1.44966E+01
 -1       255 2.05574E+00
 -1       256 1.26118E+01
 -1       257 1.08318E+01
 -1       258 8.12724E-01
 -1       259 3.69995E-01
 -1       260 4.36228E-01
 -1       261 2.14607E+00
 -1       262 1.44966E+01
 -1       263 2.38732E+00
 -1       264 5.50136E+00
 -1       265 1.36395E+00
 -1       266 1.18658E+00
 -1       267 1.36395E+00
 -1       268 4.08657E+01
 -1       269 1.40183E+01
 -1       270 1.40183E+01
 -1       271 1.84796E+00
 -1       272 5.17711E+00
 -1       273 2.97725E+00
 -1       274 6.15188E+00
 -1       275 1.28296E+00
 -1       276 1.28296E+00
 -1       277 1.14628E+00
 -1       278 5.29404E-01
 -1       279 8.30995E-01
 -1       280 1.28537E+00
 -1       281 1.45014E+00
 -1       282 1.45014E+00
 -1       283 1.28326E+00
 -1       284 4.08657E+01
 -1       285 1.05971E+00
 -1       286 1.36954E+00
 -1       287 2.61151E-01
 -1       288 3.84796E-01
 -1       289 9.35439E-01
 -1       290 1.39045E-01
 -1       291 1.65377E-01
 -1       292 2.11403E-01
 -1       293 3.66389E-01
 -1       294 3.81894E-01
 -1       295 5.45769E-01
 -1       296 5.30264E-01
 -1       297 2.34245E-01
 -1       298 2.72844E-01
 -1       299 4.20493E-01
 -1       300 5.94293E-01
 -1       301 7.66021E-01
 -1       302 5.92221E-01
 -1       303 7.94960E-01
 -1       304 7.48507E-01
 -1       305 2.57731E+01
 -1       306 2.36787E+01
 -1       307 1.17218E+01
 -1       308 1.38162E+01
 -1       309 3.65256E+01
 -1       310 2.55111E+01
 -1       311 1.26642E+01
 -1       312 8.27620E+00
 -1       313 2.05574E+00
 -1       314 6.44376E+00
 -1       315 2.39578E+00
 -1       316 7.67384E+00
 -1       317 7.90346E-01
 -1       318 6.24476E-01
 -1       319 4.43895E-01
 -1       320 8.12724E-01
 -1       321 5.91360E-01
 -1       322 4.03112E-01
 -1       323 2.60235E-01
 -1       324 3.04314E-01
 -1       325 1.44966E+01
 -1       326 1.44966E+01
 -1       327 1.06405E+01
 -1       328 2.14607E+00
 -1       329 8.32136E+00
 -1       330 2.10090E+00
 -1       331 2.04026E+00
 -1       332 1.87564E+00
 -1       333 1.27526E+00
 -1       334 1.43988E+00
 -1       335 3.94434E+00
 -1       336 5.50136E+00
 -1       337 3.43266E+00
 -1       338 4.11859E+00
 -1       339 2.04989E+00
 -1       340 1.36395E+00
 -1       341 1.25264E+00
 -1       342 1.16396E+00
 -1       343 4.08657E+01
 -1       344 2.74420E+01
 -1       345 1.40183E+01
 -1       346 2.74420E+01
 -1       347 2.79431E+01
 -1       348 1.33151E+01
 -1       349 9.75985E+00
 -1       350 9.75985E+00
 -1       351 1.77057E+00
 -1       352 3.51254E+00
 -1       353 3.78222E+00
 -1       354 1.95364E+00
 -1       355 5.81306E+00
 -1       356 9.59772E+00
 -1       357 2.97725E+00
 -1       358 4.56456E+00
 -1       359 6.15188E+00
 -1       360 2.51650E+00
 -1       361 4.14897E+00
 -1       362 6.15188E+00
 -1       363 1.04784E+00
 -1       364 1.28296E+00
 -1       365 1.04784E+00
 -1       366 1.26157E+00
 -1       367 1.56546E+00
 -1       368 1.48808E+00
 -1       369 7.28704E-01
 -1       370 6.80200E-01
 -1       371 4.81759E-01
 -1       372 1.00844E+00
 -1       373 9.88636E-01
 -1       374 1.14628E+00
 -1       375 8.30995E-01
 -1       376 5.29404E-01
 -1       377 2.01060E+00
 -1       378 1.36775E+00
 -1       379 1.40704E+00
 -1       380 1.28537E+00
 -1       381 1.45014E+00
 -1       382 1.45014E+00
 -1       383 1.45014E+00
 -1       384 1.29574E+00
 -1       385 1.28431E+00
 -1       386 1.28326E+00
 -1       387 1.66950E+00
 -1       388 2.13025E+00
 -1       389 4.08657E+01
 -1       390 4.08657E+01
 -1       391 3.86957E+01
 -1       392 3.86957E+01
 -1       393 1.36954E+00
 -1       394 1.40984E+00
 -1       395 1.25791E+00
 -1       396 9.65156E-01
 -1       397 1.21462E+00
 -1       398 1.10053E+00
 -1       399 3.84796E-01
 -1       400 4.57100E-01
 -1       401 2.60166E-01
 -1       402 1.91830E-01
 -1       403 3.22974E-01
 -1       404 3.47633E-01
 -1       405 1.10920E+00
 -1       406 8.27379E-01
 -1       407 1.06101E+00
 -1       408 9.97576E-01
 -1       409 2.70620E-01
 -1       410 2.67686E-01
 -1       411 1.54436E-01
 -1       412 1.52211E-01
 -1       413 9.12984E-02
 -1       414 1.15681E-01
 -1       415 1.47583E-01
 -1       416 2.36277E-01
 -1       417 1.75224E-01
 -1       418 2.55034E-01
 -1       419 1.70284E+01
 -1       420 6.55613E-01
 -1       421 4.59733E+00
 -1       422 2.91907E-01
 -1       423 1.21314E+00
 -1       424 1.54511E+00
 -1       425 7.12353E-01
 -1       426 1.15648E+00
 -1       427 3.44227E+00
 -1       428 3.43650E-01
 -1       429 1.36371E-01
 -1       430 1.38941E-01
 -1       431 9.05186E-01
 -1       432 7.44510E-01
 -1       433 1.39050E+00
 -1       434 4.09106E-01
 -1       435 3.53195E-01
 -1       436 1.96526E-01
 -1       437 7.67968E-01
 -1       438 4.51563E-01
 -1       439 3.44257E+00
 -1       440 2.45105E+00
 -1       441 7.14845E+00
 -1       442 2.02536E+00
 -1       443 1.70284E+01
 -1       444 1.66424E+00
 -1       445 4.30880E+01
 -1       446 2.50723E+01
 -1       447 4.30880E+01
 -1       448 2.43556E+01
 -1       449 1.27538E+01
 -1       450 2.50723E+01
 -1       451 1.54474E+01
 -1       452 1.03714E+00
 -1       453 2.05932E+00
 -1       454 1.24019E+00
 -1       455 4.80605E-01
 -1       456 9.12482E-01
 -1       457 6.59312E-01
 -1       458 9.44570E-01
 -1       459 7.38480E-01
 -1       460 8.83598E-01
 -1       461 7.38480E-01
 -1       462 2.19069E+00
 -1       463 6.44901E+00
 -1       464 1.21314E+00
 -1       465 8.83598E-01
 -1       466 1.72940E+00
 -1       467 1.20887E+00
 -1       468 2.02536E+00
 -1       469 6.43726E-01
 -1       470 1.26339E-01
 -1       471 1.36371E-01
 -1       472 9.05186E-01
 -1       473 1.39050E+00
 -1       474 1.27138E-01
 -1       475 2.74860E-01
 -1       476 2.37025E-01
 -1       477 9.41878E-02
 -1       478 1.67734E-01
 -1       479 2.15424E-01
 -1       480 3.50507E-01
 -1       481 3.02816E-01
 -1       482 5.32360E-01
 -1       483 5.04404E-01
 -1       484 3.12002E-01
 -1       485 4.51563E-01
 -1       486 4.02379E-01
 -1       487 7.11790E-01
 -1       488 6.09765E-01
 -1       489 7.67968E-01
 -1       490 4.01995E+00
 -1       491 5.29551E+00
 -1       492 4.79975E+00
 -1       493 3.52419E+00
 -1       494 3.44257E+00
 -1       495 7.14845E+00
 -1       496 7.14845E+00
 -1       497 2.45105E+00
 -1       498 9.52686E+00
 -1       499 1.84480E+00
 -1       500 9.34630E+00
 -1       501 1.70284E+01
 -1       502 1.59092E+00
 -1       503 1.27349E+00
 -1       504 1.52737E+00
 -1       505 2.41654E+00
 -1       506 2.55341E+00
 -1       507 1.08128E+01
 -1       508 2.38427E+01
 -1       509 4.30880E+01
 -1       510 3.00582E+01
 -1       511 4.30880E+01
 -1       512 4.30880E+01
 -1       513 2.56681E+01
 -1       514 3.40802E+01
 -1       515 2.10503E+01
 -1       516 3.29690E+01
 -1       517 2.50723E+01
 -1       518 3.26107E+01
 -1       519 2.47140E+01
 -1       520 1.38989E+01
 -1       521 8.09805E+00
 -1       522 1.89131E+01
 -1       523 1.48911E+01
 -1       524 2.92677E+01
 -1       525 1.54474E+01
 -1       526 8.94924E+00
 -1       527 1.11942E+01
 -1       528 8.46375E-01
 -1       529 1.13866E+00
 -1       530 1.00408E+00
 -1       531 1.29112E+00
 -1       532 1.80221E+00
 -1       533 1.64975E+00
 -1       534 2.05932E+00
 -1       535 1.24019E+00
 -1       536 8.48224E-01
 -1       537 7.85897E-01
 -1       538 1.22879E+00
 -1       539 5.34209E-01
 -1       540 3.86256E-01
 -1       541 5.69958E-01
 -1       542 5.96479E-01
 -1       543 8.12418E-01
 -1       544 1.07886E+00
 -1       545 8.41525E-01
 -1       546 8.11039E-01
 -1       547 1.04837E+00
 -1       548 8.28461E-01
 -1       549 7.25417E-01
 -1       550 7.38480E-01
 -1       551 7.38480E-01
 -1       552 7.38480E-01
 -1       553 8.19815E-01
 -1       554 6.44901E+00
 -1       555 1.54023E+01
 -1       556 4.25416E+00
 -1       557 1.86790E+00
 -1       558 4.31985E+00
 -1       559 2.81648E+00
 -1       560 8.76763E-01
 -1       561 8.83598E-01
 -1       562 9.05186E-01
 -1       563 8.94392E-01
 -1       564 1.03083E+00
 -1       565 1.18481E+00
 -1       566 1.04837E+00
 -1       567 1.21314E+00
 -1       568 1.07672E+00
 -1       569 1.06068E+00
 -1       570 1.47127E+00
 -1       571 1.46913E+00
 -1       572 2.58583E+00
 -1       573 1.69978E+00
 -1       574 2.02536E+00
 -1       575 1.61925E+00
 -1       576 7.38960E+00
 -1       577 1.87738E+00
 -1       578 6.43726E-01
 -1       579 4.93688E-01
 -1       580 3.43650E-01
 -1       581 6.91103E-01
 -1       582 5.62166E-01
 -1       583 3.17778E-01
 -1       584 1.18324E-01
 -1       585 1.31355E-01
 -1       586 1.11981E-01
 -1       587 2.34994E-01
 -1       588 2.14139E-01
 -1       589 1.37656E-01
 -1       590 1.36371E-01
 -1       591 1.02384E-01
 -1       592 9.05186E-01
 -1       593 8.24848E-01
 -1       594 9.50493E-01
 -1       595 9.05186E-01
 -1       596 7.44510E-01
 -1       597 1.39050E+00
 -1       598 1.06750E+00
 -1       599 1.39050E+00
 -1       600 1.69731E+00
 -1       601 8.32838E-01
 -1       602 1.65676E-01
 -1       603 1.99303E+00
 -1       604 7.23927E-01
 -1       605 1.45723E+00
 -1       606 4.27936E-01
 -1       607 1.16492E+01
 -1       608 1.77125E+00
 -1       609 2.22374E+00
 -1       610 3.65356E-01
 -1       611 7.52189E-01
 -1       612 4.43457E-01
 -1       613 3.00949E+00
 -1       614 1.99303E+00
 -1       615 1.45294E+01
 -1       616 3.81615E+01
 -1       617 1.00084E+01
 -1       618 6.40421E-01
 -1       619 3.72770E-01
 -1       620 2.86669E-01
 -1       621 6.19629E-01
 -1       622 4.55888E-01
 -1       623 2.11964E+00
 -1       624 1.45294E+01
 -1       625 1.45723E+00
 -1       626 1.11408E+00
 -1       627 1.21486E+00
 -1       628 1.71354E+00
 -1       629 2.94045E+00
 -1       630 2.22374E+00
 -1       631 2.21436E+00
 -1       632 5.30170E-01
 -1       633 2.62059E-01
 -1       634 3.85858E-01
 -1       635 2.94854E+00
 -1       636 5.99198E+00
 -1       637 1.15390E+00
 -1       638 8.30953E-01
 -1       639 1.59479E+00
 -1       640 1.34384E+00
 -1       641 1.59479E+00
 -1       642 1.05295E+00
 -1       643 1.42266E+00
 -1       644 1.69731E+00
 -1       645 7.93436E-01
 -1       646 1.24497E+00
 -1       647 2.22374E+00
 -1       648 2.22374E+00
 -1       649 2.57843E+01
 -1       650 3.81615E+01
 -1       651 1.40796E-01
 -1       652 2.12530E-01
 -1       653 1.62556E-01
 -1       654 3.06340E+00
 -1       655 3.10481E-01
 -1       656 4.43457E-01
 -1       657 2.55175E-01
 -1       658 4.04407E-01
 -1       659 5.44641E-01
 -1       660 7.38058E-01
 -1       661 5.97823E-01
 -1       662 7.52189E-01
 -1       663 7.32933E+00
 -1       664 6.50896E+00
 -1       665 2.40850E+01
 -1       666 2.49054E+01
 -1       667 2.39037E+00
 -1       668 1.88214E+00
 -1       669 6.00073E+00
 -1       670 1.99303E+00
 -1       671 8.26124E+00
 -1       672 1.22689E+01
 -1       673 2.63455E+01
 -1       674 3.81615E+01
 -1       675 7.36629E-01
 -1       676 5.48155E-01
 -1       677 5.37759E-01
 -1       678 7.26233E-01
 -1       679 6.82174E-01
 -1       680 5.48349E-01
 -1       681 4.14329E-01
 -1       682 2.69223E-01
 -1       683 2.26173E-01
 -1       684 3.71279E-01
 -1       685 3.57303E-01
 -1       686 5.23783E-01
 -1       687 1.45294E+01
 -1       688 1.45294E+01
 -1       689 2.05634E+00
 -1       690 8.32454E+00
 -1       691 2.13285E+00
 -1       692 1.06569E+01
 -1       693 1.45723E+00
 -1       694 1.33604E+00
 -1       695 1.16447E+00
 -1       696 1.28566E+00
 -1       697 1.65826E+00
 -1       698 1.21486E+00
 -1       699 9.83522E-01
 -1       700 9.19004E-01
 -1       701 1.70543E+00
 -1       702 1.96395E+00
 -1       703 2.21905E+00
 -1       704 1.96053E+00
 -1       705 1.74240E+00
 -1       706 2.61192E+00
 -1       707 7.29482E+00
 -1       708 2.57740E+00
 -1       709 2.58210E+00
 -1       710 2.22374E+00
 -1       711 5.30170E-01
 -1       712 4.58014E-01
 -1       713 3.85858E-01
 -1       714 4.79053E-01
 -1       715 3.44997E-01
 -1       716 3.23958E-01
 -1       717 1.92485E-01
 -1       718 2.60891E-01
 -1       719 5.99198E+00
 -1       720 4.47026E+00
 -1       721 2.94854E+00
 -1       722 6.07193E+00
 -1       723 4.05581E+00
 -1       724 2.47078E+00
 -1       725 6.80561E-01
 -1       726 7.25291E-01
 -1       727 8.30953E-01
 -1       728 1.15390E+00
 -1       729 9.92425E-01
 -1       730 9.93367E-01
 -1       731 1.65417E+00
 -1       732 1.46931E+00
 -1       733 1.55754E+00
 -1       734 1.64605E+00
 -1       735 1.59479E+00
 -1       736 1.59479E+00
 -1       737 1.59479E+00
 -1       738 1.29147E+00
 -1       739 1.28828E+00
 -1       740 1.23781E+00
 -1       741 9.42895E-01
 -1       742 1.42266E+00
 -1       743 1.50873E+00
 -1       744 1.37513E+00
 -1       745 7.16928E-01
 -1       746 9.53759E-01
 -1       747 9.23194E-01
 -1       748 1.69731E+00
 -1       749 1.24537E+00
 -1       750 1.57727E+00
 -1       751 1.24497E+00
 -1       752 1.29440E+00
 -1       753 2.09675E+00
 -1       754 1.61900E+00
 -1       755 1.84048E+00
 -1       756 2.22374E+00
 -1       757 2.04151E+00
 -1       758 1.96053E+00
 -1       759 2.22374E+00
 -1       760 2.22374E+00
 -1       761 2.61451E+01
 -1       762 3.19729E+01
 -1       763 3.23337E+01
 -1       764 1.87167E+01
 -1       765 3.81615E+01
 -1       766 3.81615E+01
 -1       767 2.49599E-01
 -1       768 2.37294E-01
 -1       769 1.53236E-01
 -1       770 1.76663E-01
 -1       771 9.27069E-02
 -1       772 1.48460E-01
 -1       773 2.63956E-01
 -1       774 2.67663E-01
 -1       775 1.13414E-01
 -1       776 1.51676E-01
 -1       777 2.64357E+00
 -1       778 4.12581E+00
 -1       779 3.00193E+00
 -1       780 1.44239E+01
 -1       781 1.05070E+01
 -1       782 1.91122E+00
 -1       783 1.97145E+00
 -1       784 1.29833E+00
 -1       785 4.37399E-01
 -1       786 8.35766E-01
 -1       787 8.90286E-01
 -1       788 1.69701E+00
 -1       789 1.74515E-01
 -1       790 1.32792E+00
 -1       791 1.42446E+00
 -1       792 1.06814E+00
 -1       793 7.67477E-01
 -1       794 1.00466E+00
 -1       795 2.11743E+00
 -1       796 2.95078E+00
 -1       797 6.00450E+00
 -1       798 1.97145E+00
 -1       799 2.81894E+00
 -1       800 3.76467E+01
 -1       801 1.45861E+01
 -1       802 9.20825E+00
 -1       803 8.35766E-01
 -1       804 3.76892E-01
 -1       805 4.37190E-01
 -1       806 2.65059E+01
 -1       807 3.76467E+01
 -1       808 1.91122E+00
 -1       809 1.32792E+00
 -1       810 1.45861E+01
 -1       811 6.30017E-01
 -1       812 3.03729E-01
 -1       813 3.89664E-01
 -1       814 4.75825E-01
 -1       815 1.13711E+00
 -1       816 5.30063E-01
 -1       817 8.24758E-01
 -1       818 1.43117E-01
 -1       819 1.74148E-01
 -1       820 1.13103E+00
 -1       821 1.25400E+00
 -1       822 1.39721E+00
 -1       823 1.34028E+00
 -1       824 1.56207E+00
 -1       825 1.39721E+00
 -1       826 2.63227E-01
 -1       827 3.89230E-01
 -1       828 2.14871E-01
 -1       829 2.86067E+00
 -1       830 5.18823E+00
 -1       831 1.94926E+00
 -1       832 1.08184E+00
 -1       833 1.16629E+00
 -1       834 8.86071E-01
 -1       835 8.01622E-01
 -1       836 1.61957E+00
 -1       837 1.66784E+00
 -1       838 1.21456E+00
 -1       839 1.36139E+00
 -1       840 1.18323E+00
 -1       841 1.03640E+00
 -1       842 9.79211E-01
 -1       843 8.28882E-01
 -1       844 2.04444E+00
 -1       845 4.06096E+00
 -1       846 4.47764E+00
 -1       847 2.46112E+00
 -1       848 2.28424E+00
 -1       849 6.57648E+00
 -1       850 6.00450E+00
 -1       851 2.95078E+00
 -1       852 1.97145E+00
 -1       853 5.58985E+00
 -1       854 1.18972E+01
 -1       855 8.27880E+00
 -1       856 1.83423E+00
 -1       857 2.25797E+00
 -1       858 6.01359E+00
 -1       859 6.66299E+00
 -1       860 2.40769E+01
 -1       861 2.34275E+01
 -1       862 3.76467E+01
 -1       863 2.61164E+01
 -1       864 7.93978E-01
 -1       865 6.36478E-01
 -1       866 4.40324E-01
 -1       867 8.35766E-01
 -1       868 6.06329E-01
 -1       869 4.07041E-01
 -1       870 2.64834E-01
 -1       871 3.07882E-01
 -1       872 3.76467E+01
 -1       873 3.76467E+01
 -1       874 1.85065E+01
 -1       875 3.20763E+01
 -1       876 2.65059E+01
 -1       877 3.20763E+01
 -1       878 1.08184E+00
 -1       879 1.32792E+00
 -1       880 1.27139E+00
 -1       881 1.88525E+00
 -1       882 1.61957E+00
 -1       883 1.91122E+00
 -1       884 1.45861E+01
 -1       885 1.45861E+01
 -1       886 1.07636E+01
 -1       887 8.35178E+00
 -1       888 6.21651E-01
 -1       889 4.32744E-01
 -1       890 6.12715E-01
 -1       891 7.60152E-01
 -1       892 5.52921E-01
 -1       893 5.33708E-01
 -1       894 3.70564E-01
 -1       895 3.89777E-01
 -1       896 2.39122E-01
 -1       897 2.82090E-01
 -1       898 7.27388E-01
 -1       899 6.77411E-01
 -1       900 4.83731E-01
 -1       901 1.01370E+00
 -1       902 9.80934E-01
 -1       903 1.13711E+00
 -1       904 8.24758E-01
 -1       905 5.30063E-01
 -1       906 1.21630E-01
 -1       907 1.58632E-01
 -1       908 9.41703E-02
 -1       909 2.75520E-01
 -1       910 2.81906E-01
 -1       911 1.58816E-01
 -1       912 2.10239E+00
 -1       913 1.61273E+00
 -1       914 1.25400E+00
 -1       915 1.13103E+00
 -1       916 1.19252E+00
 -1       917 1.41402E+00
 -1       918 1.20421E+00
 -1       919 1.23869E+00
 -1       920 1.34777E+00
 -1       921 1.36875E+00
 -1       922 1.39721E+00
 -1       923 1.34028E+00
 -1       924 1.26412E+00
 -1       925 1.47964E+00
 -1       926 1.62954E+00
 -1       927 1.39721E+00
 -1       928 1.39721E+00
 -1       929 1.43020E+00
 -1       930 3.89230E-01
 -1       931 4.59646E-01
 -1       932 2.63009E-01
 -1       933 1.93717E-01
 -1       934 3.26228E-01
 -1       935 3.50313E-01
 -1       936 2.59300E-01
 -1       937 1.78994E-01
 -1       938 2.39049E-01
 -1       939 1.50394E-01
 -1       940 5.18823E+00
 -1       941 3.54972E+00
 -1       942 1.58471E+01
 -1       943 6.68385E+00
 -1       944 4.02445E+00
 -1       945 2.38594E+00
 -1       946 1.75567E+00
 -1       947 2.38410E+00
 -1       948 1.68686E+00
 -1       949 2.40496E+00
 -3
 9999
