    1C
    1UUSER                                                              
    1UDATE              03.april.2020                                   
    1UTIME              10:08:24                                        
    1UHOST                                                              
    1UPGM               CalculiX                                        
    1UVERSION           Version 2.16                             
    1UCOMPILETIME       Mo 25. Nov 18:56:47 CET 2019                    
    1UDIR                                                               
    1UDBN                                                               
    1UMAT    1NICKEL_ALLOY                                              
    2C                           783                                     1
 -1         1 1.10000E+00 1.00000E+00 6.73533E-17
 -1         2 1.52929E+00 9.70711E-01 9.36389E-17
 -1         3 1.94142E+00 6.00000E-01 1.18874E-16
 -1         4 3.45000E+00 7.00000E-01 2.11245E-16
 -1         5 3.45000E+00-1.00000E-01 2.11245E-16
 -1         6 3.50000E+00-1.00000E-01 2.14306E-16
 -1         7 3.50000E+00 3.00000E-01 2.14306E-16
 -1         8 3.50000E+00 7.00000E-01 2.14306E-16
 -1         9 3.50000E+00 1.10000E+00 2.14306E-16
 -1        10 3.45000E+00 1.10000E+00 2.11245E-16
 -1        11 3.35000E+00 4.00000E-01 2.05122E-16
 -1        14 4.50000E+00 3.00000E-01 2.75536E-16
 -1        15 4.50000E+00 7.00000E-01 2.75536E-16
 -1        16 1.00000E+00 1.00000E-01 6.12303E-17
 -1        18 1.10000E+00 0.00000E+00 6.73533E-17
 -1        20 1.00000E+00 9.00000E-01 6.12303E-17
 -1        21 1.45858E+00 0.00000E+00 8.93093E-17
 -1        22 1.52929E+00 2.92890E-02 9.36389E-17
 -1        24 1.45858E+00 1.00000E+00 8.93093E-17
 -1        25 1.87071E+00 3.70711E-01 1.14544E-16
 -1        27 1.94142E+00 4.00000E-01 1.18874E-16
 -1        28 1.87071E+00 6.29289E-01 1.14544E-16
 -1        30 3.45000E+00 3.00000E-01 2.11245E-16
 -1        32 3.35000E+00 6.00000E-01 2.05122E-16
 -1        33 1.18965E+00 0.00000E+00 7.28423E-17
 -1        34 1.27929E+00 0.00000E+00 7.83313E-17
 -1        35 1.36893E+00 0.00000E+00 8.38203E-17
 -1        36 1.14482E+00 0.00000E+00 7.00978E-17
 -1        37 1.23447E+00 0.00000E+00 7.55868E-17
 -1        38 1.32411E+00 0.00000E+00 8.10758E-17
 -1        39 1.41376E+00 0.00000E+00 8.65648E-17
 -1        40 1.61464E+00 1.14644E-01 9.88652E-17
 -1        41 1.70000E+00 2.00000E-01 1.04092E-16
 -1        42 1.78535E+00 2.85355E-01 1.09318E-16
 -1        43 1.57197E+00 7.19670E-02 9.62520E-17
 -1        44 1.65732E+00 1.57322E-01 1.01478E-16
 -1        45 1.74268E+00 2.42678E-01 1.06705E-16
 -1        46 1.82803E+00 3.28033E-01 1.11931E-16
 -1        47 2.11749E+00 4.00000E-01 1.29655E-16
 -1        48 2.29357E+00 4.00000E-01 1.40436E-16
 -1        49 2.46964E+00 4.00000E-01 1.51217E-16
 -1        50 2.64571E+00 4.00000E-01 1.61998E-16
 -1        51 2.82178E+00 4.00000E-01 1.72779E-16
 -1        52 2.99785E+00 4.00000E-01 1.83560E-16
 -1        53 3.17393E+00 4.00000E-01 1.94341E-16
 -1        54 2.02946E+00 4.00000E-01 1.24264E-16
 -1        55 2.20553E+00 4.00000E-01 1.35045E-16
 -1        56 2.38160E+00 4.00000E-01 1.45826E-16
 -1        57 2.55767E+00 4.00000E-01 1.56607E-16
 -1        58 2.73375E+00 4.00000E-01 1.67388E-16
 -1        59 2.90982E+00 4.00000E-01 1.78169E-16
 -1        60 3.08589E+00 4.00000E-01 1.88950E-16
 -1        61 3.26196E+00 4.00000E-01 1.99731E-16
 -1        62 3.45000E+00 2.00000E-01 2.11245E-16
 -1        63 3.45000E+00 1.00000E-01 2.11245E-16
 -1        64 3.45000E+00 0.00000E+00 2.11245E-16
 -1        65 3.45000E+00 2.50000E-01 2.11245E-16
 -1        66 3.45000E+00 1.50000E-01 2.11245E-16
 -1        67 3.45000E+00 5.00000E-02 2.11245E-16
 -1        68 3.45000E+00-5.00000E-02 2.11245E-16
 -1        69 3.46250E+00-1.00000E-01 2.12010E-16
 -1        70 3.47500E+00-1.00000E-01 2.12775E-16
 -1        71 3.48750E+00-1.00000E-01 2.13541E-16
 -1        72 3.45625E+00-1.00000E-01 2.11627E-16
 -1        73 3.46875E+00-1.00000E-01 2.12393E-16
 -1        74 3.48125E+00-1.00000E-01 2.13158E-16
 -1        75 3.49375E+00-1.00000E-01 2.13923E-16
 -1        76 3.50000E+00 0.00000E+00 2.14306E-16
 -1        77 3.50000E+00 1.00000E-01 2.14306E-16
 -1        78 3.50000E+00 2.00000E-01 2.14306E-16
 -1        79 3.50000E+00-5.00000E-02 2.14306E-16
 -1        80 3.50000E+00 5.00000E-02 2.14306E-16
 -1        81 3.50000E+00 1.50000E-01 2.14306E-16
 -1        82 3.50000E+00 2.50000E-01 2.14306E-16
 -1        83 3.50000E+00 4.00000E-01 2.14306E-16
 -1        84 3.50000E+00 5.00000E-01 2.14306E-16
 -1        85 3.50000E+00 6.00000E-01 2.14306E-16
 -1        86 3.50000E+00 3.50000E-01 2.14306E-16
 -1        87 3.50000E+00 4.50000E-01 2.14306E-16
 -1        88 3.50000E+00 5.50000E-01 2.14306E-16
 -1        89 3.50000E+00 6.50000E-01 2.14306E-16
 -1        90 3.50000E+00 8.00000E-01 2.14306E-16
 -1        91 3.50000E+00 9.00000E-01 2.14306E-16
 -1        92 3.50000E+00 1.00000E+00 2.14306E-16
 -1        93 3.50000E+00 7.50000E-01 2.14306E-16
 -1        94 3.50000E+00 8.50000E-01 2.14306E-16
 -1        95 3.50000E+00 9.50000E-01 2.14306E-16
 -1        96 3.50000E+00 1.05000E+00 2.14306E-16
 -1        97 3.48750E+00 1.10000E+00 2.13541E-16
 -1        98 3.47500E+00 1.10000E+00 2.12775E-16
 -1        99 3.46250E+00 1.10000E+00 2.12010E-16
 -1       100 3.49375E+00 1.10000E+00 2.13923E-16
 -1       101 3.48125E+00 1.10000E+00 2.13158E-16
 -1       102 3.46875E+00 1.10000E+00 2.12393E-16
 -1       103 3.45625E+00 1.10000E+00 2.11627E-16
 -1       104 3.45000E+00 1.00000E+00 2.11245E-16
 -1       105 3.45000E+00 9.00000E-01 2.11245E-16
 -1       106 3.45000E+00 8.00000E-01 2.11245E-16
 -1       107 3.45000E+00 1.05000E+00 2.11245E-16
 -1       108 3.45000E+00 9.50000E-01 2.11245E-16
 -1       109 3.45000E+00 8.50000E-01 2.11245E-16
 -1       110 3.45000E+00 7.50000E-01 2.11245E-16
 -1       111 3.17393E+00 6.00000E-01 1.94341E-16
 -1       112 2.99785E+00 6.00000E-01 1.83560E-16
 -1       113 2.82178E+00 6.00000E-01 1.72779E-16
 -1       114 2.64571E+00 6.00000E-01 1.61998E-16
 -1       115 2.46964E+00 6.00000E-01 1.51217E-16
 -1       116 2.29357E+00 6.00000E-01 1.40436E-16
 -1       117 2.11749E+00 6.00000E-01 1.29655E-16
 -1       118 3.26196E+00 6.00000E-01 1.99731E-16
 -1       119 3.08589E+00 6.00000E-01 1.88950E-16
 -1       120 2.90982E+00 6.00000E-01 1.78169E-16
 -1       121 2.73375E+00 6.00000E-01 1.67388E-16
 -1       122 2.55767E+00 6.00000E-01 1.56607E-16
 -1       123 2.38160E+00 6.00000E-01 1.45826E-16
 -1       124 2.20553E+00 6.00000E-01 1.35045E-16
 -1       125 2.02946E+00 6.00000E-01 1.24264E-16
 -1       126 1.78536E+00 7.14644E-01 1.09318E-16
 -1       127 1.70000E+00 8.00000E-01 1.04092E-16
 -1       128 1.61465E+00 8.85355E-01 9.88652E-17
 -1       129 1.82803E+00 6.71967E-01 1.11931E-16
 -1       130 1.74268E+00 7.57322E-01 1.06705E-16
 -1       131 1.65732E+00 8.42678E-01 1.01478E-16
 -1       132 1.57197E+00 9.28033E-01 9.62520E-17
 -1       133 1.36893E+00 1.00000E+00 8.38203E-17
 -1       134 1.27929E+00 1.00000E+00 7.83313E-17
 -1       135 1.18965E+00 1.00000E+00 7.28423E-17
 -1       136 1.41376E+00 1.00000E+00 8.65648E-17
 -1       137 1.32411E+00 1.00000E+00 8.10758E-17
 -1       138 1.23447E+00 1.00000E+00 7.55868E-17
 -1       139 1.14482E+00 1.00000E+00 7.00978E-17
 -1       140 1.00000E+00 8.00000E-01 6.12303E-17
 -1       141 1.00000E+00 7.00000E-01 6.12303E-17
 -1       142 1.00000E+00 6.00000E-01 6.12303E-17
 -1       143 1.00000E+00 5.00000E-01 6.12303E-17
 -1       144 1.00000E+00 4.00000E-01 6.12303E-17
 -1       145 1.00000E+00 3.00000E-01 6.12303E-17
 -1       146 1.00000E+00 2.00000E-01 6.12303E-17
 -1       147 1.00000E+00 8.50000E-01 6.12303E-17
 -1       148 1.00000E+00 7.50000E-01 6.12303E-17
 -1       149 1.00000E+00 6.50000E-01 6.12303E-17
 -1       150 1.00000E+00 5.50000E-01 6.12303E-17
 -1       151 1.00000E+00 4.50000E-01 6.12303E-17
 -1       152 1.00000E+00 3.50000E-01 6.12303E-17
 -1       153 1.00000E+00 2.50000E-01 6.12303E-17
 -1       154 1.00000E+00 1.50000E-01 6.12303E-17
 -1       155 3.62500E+00 3.00000E-01 2.21960E-16
 -1       156 3.75000E+00 3.00000E-01 2.29614E-16
 -1       157 3.87500E+00 3.00000E-01 2.37267E-16
 -1       158 4.00000E+00 3.00000E-01 2.44921E-16
 -1       159 4.12500E+00 3.00000E-01 2.52575E-16
 -1       160 4.25000E+00 3.00000E-01 2.60229E-16
 -1       161 4.37500E+00 3.00000E-01 2.67883E-16
 -1       162 3.56250E+00 3.00000E-01 2.18133E-16
 -1       163 3.68750E+00 3.00000E-01 2.25787E-16
 -1       164 3.81250E+00 3.00000E-01 2.33441E-16
 -1       165 3.93750E+00 3.00000E-01 2.41094E-16
 -1       166 4.06250E+00 3.00000E-01 2.48748E-16
 -1       167 4.18750E+00 3.00000E-01 2.56402E-16
 -1       168 4.31250E+00 3.00000E-01 2.64056E-16
 -1       169 4.43750E+00 3.00000E-01 2.71710E-16
 -1       170 4.50000E+00 4.00000E-01 2.75536E-16
 -1       171 4.50000E+00 5.00000E-01 2.75536E-16
 -1       172 4.50000E+00 6.00000E-01 2.75536E-16
 -1       173 4.50000E+00 3.50000E-01 2.75536E-16
 -1       174 4.50000E+00 4.50000E-01 2.75536E-16
 -1       175 4.50000E+00 5.50000E-01 2.75536E-16
 -1       176 4.50000E+00 6.50000E-01 2.75536E-16
 -1       177 4.37500E+00 7.00000E-01 2.67883E-16
 -1       178 4.25000E+00 7.00000E-01 2.60229E-16
 -1       179 4.12500E+00 7.00000E-01 2.52575E-16
 -1       180 4.00000E+00 7.00000E-01 2.44921E-16
 -1       181 3.87500E+00 7.00000E-01 2.37267E-16
 -1       182 3.75000E+00 7.00000E-01 2.29614E-16
 -1       183 3.62500E+00 7.00000E-01 2.21960E-16
 -1       184 4.43750E+00 7.00000E-01 2.71710E-16
 -1       185 4.31250E+00 7.00000E-01 2.64056E-16
 -1       186 4.18750E+00 7.00000E-01 2.56402E-16
 -1       187 4.06250E+00 7.00000E-01 2.48748E-16
 -1       188 3.93750E+00 7.00000E-01 2.41094E-16
 -1       189 3.81250E+00 7.00000E-01 2.33441E-16
 -1       190 3.68750E+00 7.00000E-01 2.25787E-16
 -1       191 3.56250E+00 7.00000E-01 2.18133E-16
 -1       192 1.00761E+00 6.17320E-02 6.16964E-17
 -1       193 1.02929E+00 2.92890E-02 6.30237E-17
 -1       194 1.06173E+00 7.61200E-03 6.50102E-17
 -1       195 1.00192E+00 8.04910E-02 6.13479E-17
 -1       196 1.01685E+00 4.44430E-02 6.22622E-17
 -1       197 1.04444E+00 1.68530E-02 6.39516E-17
 -1       198 1.08049E+00 1.92100E-03 6.61588E-17
 -1       199 1.06173E+00 9.92388E-01 6.50102E-17
 -1       200 1.02929E+00 9.70711E-01 6.30237E-17
 -1       201 1.00761E+00 9.38268E-01 6.16964E-17
 -1       202 1.08049E+00 9.98079E-01 6.61588E-17
 -1       203 1.04444E+00 9.83147E-01 6.39516E-17
 -1       204 1.01685E+00 9.55557E-01 6.22622E-17
 -1       205 1.00192E+00 9.19509E-01 6.13479E-17
 -1       206 1.47809E+00 1.92100E-03 9.05038E-17
 -1       207 1.49685E+00 7.61200E-03 9.16524E-17
 -1       208 1.51414E+00 1.68530E-02 9.27110E-17
 -1       209 1.46838E+00 4.82000E-04 8.99094E-17
 -1       210 1.48761E+00 4.30600E-03 9.10866E-17
 -1       211 1.50572E+00 1.18080E-02 9.21956E-17
 -1       212 1.52202E+00 2.26990E-02 9.31936E-17
 -1       213 1.51414E+00 9.83147E-01 9.27110E-17
 -1       214 1.49685E+00 9.92388E-01 9.16524E-17
 -1       215 1.47809E+00 9.98078E-01 9.05038E-17
 -1       216 1.52202E+00 9.77301E-01 9.31936E-17
 -1       217 1.50572E+00 9.88192E-01 9.21956E-17
 -1       218 1.48761E+00 9.95694E-01 9.10866E-17
 -1       219 1.46838E+00 9.99518E-01 8.99094E-17
 -1       220 1.88586E+00 3.83147E-01 1.15472E-16
 -1       221 1.90315E+00 3.92388E-01 1.16531E-16
 -1       222 1.92191E+00 3.98078E-01 1.17679E-16
 -1       223 1.87798E+00 3.77301E-01 1.14989E-16
 -1       224 1.89428E+00 3.88192E-01 1.15987E-16
 -1       225 1.91239E+00 3.95694E-01 1.17096E-16
 -1       226 1.93162E+00 3.99518E-01 1.18274E-16
 -1       227 1.92191E+00 6.01921E-01 1.17679E-16
 -1       228 1.90315E+00 6.07612E-01 1.16531E-16
 -1       229 1.88586E+00 6.16853E-01 1.15472E-16
 -1       230 1.93162E+00 6.00482E-01 1.18274E-16
 -1       231 1.91239E+00 6.04306E-01 1.17096E-16
 -1       232 1.89428E+00 6.11808E-01 1.15987E-16
 -1       233 1.87798E+00 6.22699E-01 1.14989E-16
 -1       234 3.38827E+00 3.92388E-01 2.07465E-16
 -1       235 3.42071E+00 3.70711E-01 2.09451E-16
 -1       236 3.44239E+00 3.38268E-01 2.10779E-16
 -1       237 3.36951E+00 3.98079E-01 2.06316E-16
 -1       238 3.40556E+00 3.83147E-01 2.08523E-16
 -1       239 3.43315E+00 3.55557E-01 2.10213E-16
 -1       240 3.44808E+00 3.19509E-01 2.11127E-16
 -1       241 3.44239E+00 6.61732E-01 2.10779E-16
 -1       242 3.42071E+00 6.29289E-01 2.09451E-16
 -1       243 3.38827E+00 6.07612E-01 2.07465E-16
 -1       244 3.44808E+00 6.80491E-01 2.11127E-16
 -1       245 3.43315E+00 6.44443E-01 2.10213E-16
 -1       246 3.40556E+00 6.16853E-01 2.08523E-16
 -1       247 3.36951E+00 6.01921E-01 2.06316E-16
 -1       248 1.57941E+00 6.57832E-01 9.67075E-17
 -1       249 1.47052E+00 2.21776E-01 9.00403E-17
 -1       250 1.91759E+00 5.12309E-01 1.17414E-16
 -1       251 1.20784E+00 7.06760E-01 7.39565E-17
 -1       252 1.09214E+00 9.17300E-02 6.68721E-17
 -1       253 1.08857E+00 8.99368E-01 6.66535E-17
 -1       254 1.22332E+00 4.44794E-01 7.49045E-17
 -1       255 1.31112E+00 8.34275E-01 8.02805E-17
 -1       256 1.58644E+00 3.58504E-01 9.71382E-17
 -1       257 1.43871E+00 8.13457E-01 8.80925E-17
 -1       258 1.16056E+00 1.48562E-01 7.10616E-17
 -1       259 1.71588E+00 5.05659E-01 1.05064E-16
 -1       260 1.37891E+00 1.19785E-01 8.44313E-17
 -1       261 1.16807E+00 3.27035E-01 7.15214E-17
 -1       262 1.36004E+00 3.52401E-01 8.32758E-17
 -1       263 1.26051E+00 2.36942E-01 7.71813E-17
 -1       264 1.32773E+00 6.08958E-01 8.12975E-17
 -1       265 1.46328E+00 4.97198E-01 8.95969E-17
 -1       266 1.14391E+00 8.11456E-01 7.00419E-17
 -1       267 3.46250E+00 0.00000E+00 2.12010E-16
 -1       268 3.47500E+00 9.00000E-01 2.12775E-16
 -1       269 3.47500E+00 8.00000E-01 2.12775E-16
 -1       270 3.48750E+00 1.00000E+00 2.13541E-16
 -1       271 3.47500E+00 1.00000E-01 2.12775E-16
 -1       272 3.47500E+00 2.00000E-01 2.12775E-16
 -1       273 1.89415E+00 5.70799E-01 1.15979E-16
 -1       274 1.91037E+00 5.59961E-01 1.16973E-16
 -1       275 1.92950E+00 5.56155E-01 1.18144E-16
 -1       276 3.47500E+00 7.00000E-01 2.12775E-16
 -1       277 3.46036E+00 6.64645E-01 2.11879E-16
 -1       278 3.47500E+00 3.00000E-01 2.12775E-16
 -1       279 3.46036E+00 3.35355E-01 2.11879E-16
 -1       280 3.46036E+00 4.35355E-01 2.11879E-16
 -1       281 3.42500E+00 4.50000E-01 2.09714E-16
 -1       282 3.46036E+00 5.64645E-01 2.11879E-16
 -1       283 3.42500E+00 5.50000E-01 2.09714E-16
 -1       284 2.46964E+00 5.00000E-01 1.51217E-16
 -1       285 2.29357E+00 5.00000E-01 1.40436E-16
 -1       286 2.11749E+00 5.00000E-01 1.29655E-16
 -1       287 1.89415E+00 4.41510E-01 1.15979E-16
 -1       288 1.91037E+00 4.52349E-01 1.16973E-16
 -1       289 1.92950E+00 4.56155E-01 1.18144E-16
 -1       290 1.09429E+00 9.49684E-01 6.70034E-17
 -1       291 1.11624E+00 8.55412E-01 6.83477E-17
 -1       292 1.21160E+00 9.05728E-01 7.41866E-17
 -1       293 1.15294E+00 9.27706E-01 7.05950E-17
 -1       294 1.41166E+00 4.24800E-01 8.64363E-17
 -1       295 1.39550E+00 5.53078E-01 8.54472E-17
 -1       296 1.27553E+00 5.26876E-01 7.81010E-17
 -1       297 1.29168E+00 3.98598E-01 7.90902E-17
 -1       298 1.34359E+00 4.75838E-01 8.22686E-17
 -1       299 1.65116E+00 4.32081E-01 1.01101E-16
 -1       300 1.64322E+00 2.79252E-01 1.00615E-16
 -1       301 1.79330E+00 4.38185E-01 1.09804E-16
 -1       302 1.71826E+00 3.58718E-01 1.05209E-16
 -1       303 1.04607E+00 9.58650E-02 6.40513E-17
 -1       304 1.12635E+00 1.20146E-01 6.89669E-17
 -1       305 1.08028E+00 2.24281E-01 6.61459E-17
 -1       306 1.06318E+00 1.60073E-01 6.50986E-17
 -1       307 1.21993E+00 7.42810E-02 7.46965E-17
 -1       308 1.09607E+00 4.58650E-02 6.71128E-17
 -1       309 1.15800E+00 6.00730E-02 7.09046E-17
 -1       310 1.48400E+00 8.92084E-01 9.08657E-17
 -1       311 1.50906E+00 7.35645E-01 9.24000E-17
 -1       312 1.63970E+00 7.28916E-01 1.00400E-16
 -1       313 1.56185E+00 8.10500E-01 9.56326E-17
 -1       314 1.64764E+00 5.81746E-01 1.00886E-16
 -1       315 1.79330E+00 5.67474E-01 1.09804E-16
 -1       316 1.71650E+00 6.48195E-01 1.05102E-16
 -1       317 1.52848E+00 2.90140E-01 9.35893E-17
 -1       318 1.49990E+00 1.25532E-01 9.18396E-17
 -1       319 1.57156E+00 2.02392E-01 9.62272E-17
 -1       320 1.43788E+00 6.36980E-02 8.80418E-17
 -1       321 1.32910E+00 5.98920E-02 8.13813E-17
 -1       322 1.40359E+00 3.09070E-02 8.59426E-17
 -1       323 1.31027E+00 2.94671E-01 8.02286E-17
 -1       324 1.19570E+00 3.85915E-01 7.32130E-17
 -1       325 1.21429E+00 2.81988E-01 7.43514E-17
 -1       326 1.25299E+00 3.40293E-01 7.67208E-17
 -1       327 1.37492E+00 8.23866E-01 8.41865E-17
 -1       328 1.25948E+00 7.70517E-01 7.71185E-17
 -1       329 1.26779E+00 6.57859E-01 7.76270E-17
 -1       330 1.38322E+00 7.11208E-01 8.46950E-17
 -1       331 1.32135E+00 7.40862E-01 8.09067E-17
 -1       332 1.11166E+00 4.72397E-01 6.80674E-17
 -1       333 1.08404E+00 3.13518E-01 6.63759E-17
 -1       334 1.09785E+00 3.92957E-01 6.72216E-17
 -1       335 1.44864E+00 9.06729E-01 8.87009E-17
 -1       336 1.48158E+00 9.45880E-01 9.07174E-17
 -1       337 1.07195E+00 7.55728E-01 6.56361E-17
 -1       338 1.10392E+00 6.03380E-01 6.75934E-17
 -1       339 1.17587E+00 7.59108E-01 7.19992E-17
 -1       340 1.08794E+00 6.79554E-01 6.66148E-17
 -1       341 1.52486E+00 4.27851E-01 9.33675E-17
 -1       342 1.41528E+00 2.87089E-01 8.66580E-17
 -1       343 1.47007E+00 3.57470E-01 9.00128E-17
 -1       344 1.04429E+00 8.99684E-01 6.39419E-17
 -1       345 1.05812E+00 8.27706E-01 6.47890E-17
 -1       346 1.52134E+00 5.77515E-01 9.31522E-17
 -1       347 1.58625E+00 5.04798E-01 9.71266E-17
 -1       348 1.21054E+00 1.92752E-01 7.41214E-17
 -1       349 1.14728E+00 2.53135E-01 7.02486E-17
 -1       350 1.42472E+00 1.70780E-01 8.72358E-17
 -1       351 1.46943E+00 9.38170E-02 8.99734E-17
 -1       352 1.29521E+00 9.17138E-01 7.93059E-17
 -1       353 1.23554E+00 8.38123E-01 7.56526E-17
 -1       354 1.04949E+00 9.47492E-01 6.42607E-17
 -1       355 1.18972E+00 5.65128E-01 7.28472E-17
 -1       356 1.31971E+00 1.78363E-01 8.08063E-17
 -1       357 1.26982E+00 1.26322E-01 7.77514E-17
 -1       358 1.37192E+00 9.11933E-01 8.40034E-17
 -1       359 1.05038E+00 5.02820E-02 6.43154E-17
 -1       360 1.45228E+00 6.44361E-01 8.89236E-17
 -1       361 1.36749E+00 2.32726E-01 8.37322E-17
 -1       362 2.02350E+00 5.28077E-01 1.23899E-16
 -1       363 3.48125E+00 0.00000E+00 2.13158E-16
 -1       364 3.46875E+00 1.00000E+00 2.12393E-16
 -1       365 2.82178E+00 5.00000E-01 1.72779E-16
 -1       366 2.64571E+00 5.00000E-01 1.61998E-16
 -1       367 3.17393E+00 5.00000E-01 1.94341E-16
 -1       368 2.99785E+00 5.00000E-01 1.83560E-16
 -1       369 3.29946E+00 5.25000E-01 2.02027E-16
 -1       370 1.84372E+00 5.04492E-01 1.12892E-16
 -1       371 3.45833E+00-3.33330E-02 2.11755E-16
 -1       372 3.48333E+00 8.33333E-01 2.13286E-16
 -1       373 3.49167E+00 1.03333E+00 2.13796E-16
 -1       374 3.46667E+00 1.66667E-01 2.12265E-16
 -1       375 1.89697E+00 5.82804E-01 1.16152E-16
 -1       376 1.92066E+00 5.72993E-01 1.17603E-16
 -1       377 3.46667E+00 7.66667E-01 2.12265E-16
 -1       378 3.45808E+00 6.75944E-01 2.11739E-16
 -1       379 3.48333E+00 2.33333E-01 2.13286E-16
 -1       380 3.45808E+00 3.24056E-01 2.11739E-16
 -1       381 3.47357E+00 3.90237E-01 2.12688E-16
 -1       382 3.42406E+00 4.24742E-01 2.09656E-16
 -1       383 3.47357E+00 6.09763E-01 2.12688E-16
 -1       384 3.42406E+00 5.75258E-01 2.09656E-16
 -1       385 2.41095E+00 4.66667E-01 1.47623E-16
 -1       386 2.17618E+00 4.66667E-01 1.33248E-16
 -1       387 1.89697E+00 4.25402E-01 1.16152E-16
 -1       388 1.92066E+00 4.35213E-01 1.17603E-16
 -1       389 1.09714E+00 9.74842E-01 6.71784E-17
 -1       390 1.12361E+00 9.38695E-01 6.87992E-17
 -1       391 1.17129E+00 9.63853E-01 7.17186E-17
 -1       392 1.09143E+00 9.24526E-01 6.68285E-17
 -1       393 1.10240E+00 8.77390E-01 6.75006E-17
 -1       394 1.13459E+00 8.91559E-01 6.94714E-17
 -1       395 1.13007E+00 8.33434E-01 6.91948E-17
 -1       396 1.17775E+00 8.58592E-01 7.21143E-17
 -1       397 1.18227E+00 9.16717E-01 7.23908E-17
 -1       398 1.24544E+00 9.52864E-01 7.62589E-17
 -1       399 1.38585E+00 3.88601E-01 8.48561E-17
 -1       400 1.37763E+00 4.50319E-01 8.43525E-17
 -1       401 1.31764E+00 4.37218E-01 8.06794E-17
 -1       402 1.32586E+00 3.75500E-01 8.11830E-17
 -1       403 1.43747E+00 4.60999E-01 8.80166E-17
 -1       404 1.42939E+00 5.25138E-01 8.75220E-17
 -1       405 1.36955E+00 5.14458E-01 8.38579E-17
 -1       406 1.36162E+00 5.81018E-01 8.33723E-17
 -1       407 1.30163E+00 5.67917E-01 7.96992E-17
 -1       408 1.30956E+00 5.01357E-01 8.01848E-17
 -1       409 1.24943E+00 4.85835E-01 7.65028E-17
 -1       410 1.25750E+00 4.21696E-01 7.69973E-17
 -1       411 1.68352E+00 4.68870E-01 1.03082E-16
 -1       412 1.68471E+00 3.95400E-01 1.03155E-16
 -1       413 1.75578E+00 3.98452E-01 1.07507E-16
 -1       414 1.75459E+00 4.71922E-01 1.07434E-16
 -1       415 1.61880E+00 3.95292E-01 9.91196E-17
 -1       416 1.61483E+00 3.18878E-01 9.88766E-17
 -1       417 1.68074E+00 3.18985E-01 1.02912E-16
 -1       418 1.67161E+00 2.39626E-01 1.02353E-16
 -1       419 1.75181E+00 3.22037E-01 1.07264E-16
 -1       420 1.83200E+00 4.04448E-01 1.12174E-16
 -1       421 1.03159E+00 1.80036E-01 6.31645E-17
 -1       422 1.07173E+00 1.92177E-01 6.56222E-17
 -1       423 1.04014E+00 2.62140E-01 6.36881E-17
 -1       424 1.02304E+00 9.79320E-02 6.26408E-17
 -1       425 1.05462E+00 1.27969E-01 6.45749E-17
 -1       426 1.06911E+00 9.37970E-02 6.54617E-17
 -1       427 1.10925E+00 1.05938E-01 6.79195E-17
 -1       428 1.09476E+00 1.40109E-01 6.70327E-17
 -1       429 1.14346E+00 1.34354E-01 7.00142E-17
 -1       430 1.12042E+00 1.86421E-01 6.86037E-17
 -1       431 1.17382E+00 3.00360E-02 7.18734E-17
 -1       432 1.12703E+00 5.29690E-02 6.90086E-17
 -1       433 1.09803E+00 2.29320E-02 6.72330E-17
 -1       434 1.24961E+00 3.71400E-02 7.65139E-17
 -1       435 1.18896E+00 6.71770E-02 7.28005E-17
 -1       436 1.19024E+00 1.11421E-01 7.28790E-17
 -1       437 1.14217E+00 9.01090E-02 6.99357E-17
 -1       438 1.09411E+00 6.87970E-02 6.69925E-17
 -1       439 1.50664E+00 9.31398E-01 9.22523E-17
 -1       440 1.52292E+00 8.51292E-01 9.32491E-17
 -1       441 1.58825E+00 8.47928E-01 9.72489E-17
 -1       442 1.46135E+00 8.52771E-01 8.94791E-17
 -1       443 1.47388E+00 7.74551E-01 9.02463E-17
 -1       444 1.53545E+00 7.73073E-01 9.40163E-17
 -1       445 1.54423E+00 6.96739E-01 9.45538E-17
 -1       446 1.60956E+00 6.93374E-01 9.85536E-17
 -1       447 1.60078E+00 7.69708E-01 9.80161E-17
 -1       448 1.66985E+00 7.64458E-01 1.02246E-16
 -1       449 1.75093E+00 6.81420E-01 1.07210E-16
 -1       450 1.75490E+00 6.07834E-01 1.07453E-16
 -1       451 1.83200E+00 5.98381E-01 1.12174E-16
 -1       452 1.67810E+00 6.88556E-01 1.02751E-16
 -1       453 1.61352E+00 6.19789E-01 9.87966E-17
 -1       454 1.68207E+00 6.14970E-01 1.02994E-16
 -1       455 1.68176E+00 5.43702E-01 1.02975E-16
 -1       456 1.75459E+00 5.36566E-01 1.07434E-16
 -1       457 1.59310E+00 1.58518E-01 9.75462E-17
 -1       458 1.53573E+00 1.63962E-01 9.40334E-17
 -1       459 1.51460E+00 7.74110E-02 9.27392E-17
 -1       460 1.60739E+00 2.40822E-01 9.84211E-17
 -1       461 1.55746E+00 3.24322E-01 9.53637E-17
 -1       462 1.55002E+00 2.46266E-01 9.49082E-17
 -1       463 1.49950E+00 2.55958E-01 9.18147E-17
 -1       464 1.48521E+00 1.73654E-01 9.09399E-17
 -1       465 1.38626E+00 1.54530E-02 8.48814E-17
 -1       466 1.36635E+00 4.54000E-02 8.36619E-17
 -1       467 1.30420E+00 2.99460E-02 7.98563E-17
 -1       468 1.44084E+00 1.64140E-02 8.82232E-17
 -1       469 1.46736E+00 3.56550E-02 8.98471E-17
 -1       470 1.42074E+00 4.73030E-02 8.69922E-17
 -1       471 1.40840E+00 9.17420E-02 8.62365E-17
 -1       472 1.35401E+00 8.98390E-02 8.29063E-17
 -1       473 1.28539E+00 2.65806E-01 7.87050E-17
 -1       474 1.28163E+00 3.17482E-01 7.84747E-17
 -1       475 1.23364E+00 3.11141E-01 7.55360E-17
 -1       476 1.23740E+00 2.59465E-01 7.57663E-17
 -1       477 1.33516E+00 3.23536E-01 8.17522E-17
 -1       478 1.27234E+00 3.69446E-01 7.79055E-17
 -1       479 1.20951E+00 4.15355E-01 7.40587E-17
 -1       480 1.22434E+00 3.63104E-01 7.49668E-17
 -1       481 1.18189E+00 3.56475E-01 7.23672E-17
 -1       482 1.19118E+00 3.04512E-01 7.29364E-17
 -1       483 1.40681E+00 8.18662E-01 8.61395E-17
 -1       484 1.34813E+00 7.82364E-01 8.25466E-17
 -1       485 1.35229E+00 7.26035E-01 8.28008E-17
 -1       486 1.41096E+00 7.62332E-01 8.63937E-17
 -1       487 1.34302E+00 8.29071E-01 8.22335E-17
 -1       488 1.28530E+00 8.02396E-01 7.86996E-17
 -1       489 1.29042E+00 7.55690E-01 7.90126E-17
 -1       490 1.23366E+00 7.38639E-01 7.55375E-17
 -1       491 1.23781E+00 6.82309E-01 7.57917E-17
 -1       492 1.29457E+00 6.99361E-01 7.92669E-17
 -1       493 1.29776E+00 6.33408E-01 7.94622E-17
 -1       494 1.35548E+00 6.60083E-01 8.29962E-17
 -1       495 1.14677E+00 3.89436E-01 7.02173E-17
 -1       496 1.09094E+00 3.53237E-01 6.67987E-17
 -1       497 1.12605E+00 3.20276E-01 6.89486E-17
 -1       498 1.16749E+00 4.58596E-01 7.14860E-17
 -1       499 1.10476E+00 4.32677E-01 6.76445E-17
 -1       500 1.05583E+00 4.86199E-01 6.46489E-17
 -1       501 1.04892E+00 3.96479E-01 6.42259E-17
 -1       502 1.04202E+00 3.06759E-01 6.38031E-17
 -1       503 1.49786E+00 9.64514E-01 9.17142E-17
 -1       504 1.48279E+00 9.18982E-01 9.07915E-17
 -1       505 1.47983E+00 9.71979E-01 9.06106E-17
 -1       506 1.45361E+00 9.53364E-01 8.90051E-17
 -1       507 1.46511E+00 9.26304E-01 8.97092E-17
 -1       508 1.44368E+00 8.60093E-01 8.83967E-17
 -1       509 1.10793E+00 7.83592E-01 6.78390E-17
 -1       510 1.07995E+00 7.17641E-01 6.61254E-17
 -1       511 1.13191E+00 7.19331E-01 6.93070E-17
 -1       512 1.15989E+00 7.85282E-01 7.10206E-17
 -1       513 1.03598E+00 7.27864E-01 6.34332E-17
 -1       514 1.04397E+00 6.39777E-01 6.39226E-17
 -1       515 1.05196E+00 5.51690E-01 6.44118E-17
 -1       516 1.09593E+00 6.41467E-01 6.71041E-17
 -1       517 1.15588E+00 6.55070E-01 7.07750E-17
 -1       518 1.19186E+00 7.32934E-01 7.29778E-17
 -1       519 1.49927E+00 3.23805E-01 9.18010E-17
 -1       520 1.44267E+00 3.22279E-01 8.83354E-17
 -1       521 1.44290E+00 2.54432E-01 8.83492E-17
 -1       522 1.55565E+00 3.93177E-01 9.52528E-17
 -1       523 1.49746E+00 3.92660E-01 9.16901E-17
 -1       524 1.49407E+00 4.62524E-01 9.14821E-17
 -1       525 1.44086E+00 3.91135E-01 8.82246E-17
 -1       526 1.38766E+00 3.19745E-01 8.49669E-17
 -1       527 1.06504E+00 7.91717E-01 6.52126E-17
 -1       528 1.02906E+00 8.13853E-01 6.30097E-17
 -1       529 1.08718E+00 8.41559E-01 6.65684E-17
 -1       530 1.06643E+00 8.99526E-01 6.52977E-17
 -1       531 1.05120E+00 8.63695E-01 6.43654E-17
 -1       532 1.02214E+00 8.99842E-01 6.25861E-17
 -1       533 1.55037E+00 6.17674E-01 9.49299E-17
 -1       534 1.55379E+00 5.41157E-01 9.51394E-17
 -1       535 1.61695E+00 5.43272E-01 9.90061E-17
 -1       536 1.49231E+00 5.37357E-01 9.13745E-17
 -1       537 1.55555E+00 4.66325E-01 9.52471E-17
 -1       538 1.61870E+00 4.68440E-01 9.91138E-17
 -1       539 1.11378E+00 2.38708E-01 6.81973E-17
 -1       540 1.11566E+00 2.83326E-01 6.83123E-17
 -1       541 1.18555E+00 1.70657E-01 7.25915E-17
 -1       542 1.17891E+00 2.22943E-01 7.21850E-17
 -1       543 1.23552E+00 2.14847E-01 7.56514E-17
 -1       544 1.18079E+00 2.67561E-01 7.23000E-17
 -1       545 1.44762E+00 1.96278E-01 8.86380E-17
 -1       546 1.44707E+00 1.32298E-01 8.86046E-17
 -1       547 1.48467E+00 1.09674E-01 9.09065E-17
 -1       548 1.40181E+00 1.45283E-01 8.58335E-17
 -1       549 1.45365E+00 7.87570E-02 8.90076E-17
 -1       550 1.49178E+00 5.53350E-02 9.13422E-17
 -1       551 1.22357E+00 8.71925E-01 7.49196E-17
 -1       552 1.26537E+00 8.77630E-01 7.74793E-17
 -1       553 1.28725E+00 9.58569E-01 7.88186E-17
 -1       554 1.20571E+00 7.98615E-01 7.38259E-17
 -1       555 1.24751E+00 8.04320E-01 7.63856E-17
 -1       556 1.30317E+00 8.75706E-01 7.97933E-17
 -1       557 1.05561E+00 9.69940E-01 6.46355E-17
 -1       558 1.07189E+00 9.48588E-01 6.56321E-17
 -1       559 1.02855E+00 9.42880E-01 6.29786E-17
 -1       560 1.04689E+00 9.23588E-01 6.41013E-17
 -1       561 1.15069E+00 5.18763E-01 7.04573E-17
 -1       562 1.14682E+00 5.84254E-01 7.02203E-17
 -1       563 1.23263E+00 5.46002E-01 7.54741E-17
 -1       564 1.22876E+00 6.11493E-01 7.52371E-17
 -1       565 1.24487E+00 1.00302E-01 7.62239E-17
 -1       566 1.24018E+00 1.59537E-01 7.59364E-17
 -1       567 1.29946E+00 9.31070E-02 7.95664E-17
 -1       568 1.34931E+00 1.49074E-01 8.26188E-17
 -1       569 1.29476E+00 1.52343E-01 7.92788E-17
 -1       570 1.29011E+00 2.07652E-01 7.89938E-17
 -1       571 1.37043E+00 9.55967E-01 8.39119E-17
 -1       572 1.41028E+00 9.09331E-01 8.63521E-17
 -1       573 1.33357E+00 9.14535E-01 8.16547E-17
 -1       574 1.37342E+00 8.67900E-01 8.40949E-17
 -1       575 1.07323E+00 4.80730E-02 6.57141E-17
 -1       576 1.05606E+00 2.89470E-02 6.46628E-17
 -1       577 1.04823E+00 7.30730E-02 6.41833E-17
 -1       578 1.02900E+00 5.60070E-02 6.30059E-17
 -1       579 1.41775E+00 6.77784E-01 8.68093E-17
 -1       580 1.48067E+00 6.90003E-01 9.06618E-17
 -1       581 1.42389E+00 5.98720E-01 8.71854E-17
 -1       582 1.48681E+00 6.10938E-01 9.10379E-17
 -1       583 1.33888E+00 2.63699E-01 8.19804E-17
 -1       584 1.39139E+00 2.59907E-01 8.51951E-17
 -1       585 1.34360E+00 2.05545E-01 8.22692E-17
 -1       586 1.39611E+00 2.01753E-01 8.54840E-17
 -1       587 1.92355E+00 4.84232E-01 1.17779E-16
 -1       588 1.97650E+00 4.92116E-01 1.21022E-16
 -1       589 1.97650E+00 5.42116E-01 1.21022E-16
 -1       590 1.92355E+00 5.34232E-01 1.17779E-16
 -1       591 1.93546E+00 4.28077E-01 1.18509E-16
 -1       592 2.02946E+00 4.50000E-01 1.24264E-16
 -1       593 2.07050E+00 5.14039E-01 1.26777E-16
 -1       594 2.20553E+00 5.50000E-01 1.35045E-16
 -1       595 2.07050E+00 5.64039E-01 1.26777E-16
 -1       596 1.93546E+00 5.78077E-01 1.18509E-16
 -1       597 3.45625E+00 5.00000E-02 2.11627E-16
 -1       598 3.47187E+00 0.00000E+00 2.12584E-16
 -1       599 3.47813E+00 5.00000E-02 2.12967E-16
 -1       600 3.46250E+00 1.00000E-01 2.12010E-16
 -1       601 3.46875E+00-5.00000E-02 2.12393E-16
 -1       602 3.48438E+00-5.00000E-02 2.13349E-16
 -1       603 3.49062E+00 0.00000E+00 2.13732E-16
 -1       604 3.48750E+00 1.00000E-01 2.13541E-16
 -1       605 3.49375E+00 9.50000E-01 2.13923E-16
 -1       606 3.47813E+00 1.00000E+00 2.12967E-16
 -1       607 3.47187E+00 9.50000E-01 2.12584E-16
 -1       608 3.48750E+00 9.00000E-01 2.13541E-16
 -1       609 3.48125E+00 1.05000E+00 2.13158E-16
 -1       610 3.46563E+00 1.05000E+00 2.12201E-16
 -1       611 3.45937E+00 1.00000E+00 2.11819E-16
 -1       612 3.46250E+00 9.00000E-01 2.12010E-16
 -1       613 2.90982E+00 4.50000E-01 1.78169E-16
 -1       614 2.73375E+00 5.00000E-01 1.67388E-16
 -1       615 2.73375E+00 4.50000E-01 1.67388E-16
 -1       616 2.73375E+00 5.50000E-01 1.67388E-16
 -1       617 2.55767E+00 5.50000E-01 1.56607E-16
 -1       618 2.38160E+00 5.50000E-01 1.45826E-16
 -1       619 2.55767E+00 5.00000E-01 1.56607E-16
 -1       620 2.55767E+00 4.50000E-01 1.56607E-16
 -1       621 3.26196E+00 4.50000E-01 1.99731E-16
 -1       622 3.08589E+00 5.00000E-01 1.88950E-16
 -1       623 3.08589E+00 4.50000E-01 1.88950E-16
 -1       624 3.08589E+00 5.50000E-01 1.88950E-16
 -1       625 2.90982E+00 5.50000E-01 1.78169E-16
 -1       626 2.90982E+00 5.00000E-01 1.78169E-16
 -1       627 3.46250E+00 5.25000E-01 2.12010E-16
 -1       628 3.36223E+00 5.37500E-01 2.05871E-16
 -1       629 3.36223E+00 4.87500E-01 2.05871E-16
 -1       630 3.46250E+00 4.75000E-01 2.12010E-16
 -1       631 3.38750E+00 5.75000E-01 2.07418E-16
 -1       632 3.23670E+00 5.62500E-01 1.98184E-16
 -1       633 3.23670E+00 5.12500E-01 1.98184E-16
 -1       634 3.38750E+00 4.25000E-01 2.07418E-16
 -1       635 1.81851E+00 5.35983E-01 1.11348E-16
 -1       636 1.86894E+00 5.37646E-01 1.14436E-16
 -1       637 1.88243E+00 6.00044E-01 1.15262E-16
 -1       638 1.81851E+00 4.71338E-01 1.11348E-16
 -1       639 1.88243E+00 4.06111E-01 1.15262E-16
 -1       640 1.86894E+00 4.73001E-01 1.14436E-16
 -1       641 1.90587E+00 4.76910E-01 1.16697E-16
 -1       642 1.90587E+00 5.41554E-01 1.16697E-16
 -1       643 3.46042E+00-1.66670E-02 2.11882E-16
 -1       644 3.46042E+00-6.66670E-02 2.11882E-16
 -1       645 3.45417E+00-1.66670E-02 2.11500E-16
 -1       646 3.49167E+00 8.16667E-01 2.13796E-16
 -1       647 3.47917E+00 8.16667E-01 2.13031E-16
 -1       648 3.48750E+00 7.50000E-01 2.13541E-16
 -1       649 3.47917E+00 8.66667E-01 2.13031E-16
 -1       650 3.46250E+00 8.50000E-01 2.12010E-16
 -1       651 3.49583E+00 1.01667E+00 2.14051E-16
 -1       652 3.48958E+00 1.01667E+00 2.13668E-16
 -1       653 3.48958E+00 1.06667E+00 2.13668E-16
 -1       654 3.47083E+00 1.33333E-01 2.12520E-16
 -1       655 3.45833E+00 1.83333E-01 2.11755E-16
 -1       656 3.48750E+00 1.50000E-01 2.13541E-16
 -1       657 3.47083E+00 1.83333E-01 2.12520E-16
 -1       658 3.46250E+00 2.50000E-01 2.12010E-16
 -1       659 1.89142E+00 5.99828E-01 1.15812E-16
 -1       660 1.90367E+00 5.71382E-01 1.16562E-16
 -1       661 1.90676E+00 5.83786E-01 1.16752E-16
 -1       662 1.89556E+00 5.76801E-01 1.16066E-16
 -1       663 1.91398E+00 5.36135E-01 1.17194E-16
 -1       664 1.92508E+00 5.64574E-01 1.17873E-16
 -1       665 1.91551E+00 5.66477E-01 1.17288E-16
 -1       666 1.92129E+00 5.87457E-01 1.17641E-16
 -1       667 3.47083E+00 7.83333E-01 2.12520E-16
 -1       668 3.47083E+00 7.33333E-01 2.12520E-16
 -1       669 3.48750E+00 7.00000E-01 2.13541E-16
 -1       670 3.45833E+00 7.83333E-01 2.11755E-16
 -1       671 3.46250E+00 7.00000E-01 2.12010E-16
 -1       672 3.45023E+00 6.68838E-01 2.11259E-16
 -1       673 3.46654E+00 6.87972E-01 2.12257E-16
 -1       674 3.44053E+00 6.46967E-01 2.10665E-16
 -1       675 3.45922E+00 6.70294E-01 2.11809E-16
 -1       676 3.48018E+00 6.82322E-01 2.13092E-16
 -1       677 3.47917E+00 2.16667E-01 2.13031E-16
 -1       678 3.47917E+00 2.66667E-01 2.13031E-16
 -1       679 3.46250E+00 3.00000E-01 2.12010E-16
 -1       680 3.49167E+00 2.16667E-01 2.13796E-16
 -1       681 3.48750E+00 3.00000E-01 2.13541E-16
 -1       682 3.48018E+00 3.17678E-01 2.13092E-16
 -1       683 3.45922E+00 3.29706E-01 2.11809E-16
 -1       684 3.46654E+00 3.12028E-01 2.12257E-16
 -1       685 3.44053E+00 3.53033E-01 2.10665E-16
 -1       686 3.45023E+00 3.31162E-01 2.11259E-16
 -1       687 3.46696E+00 3.62796E-01 2.12283E-16
 -1       688 3.46696E+00 4.12796E-01 2.12283E-16
 -1       689 3.44053E+00 4.03033E-01 2.10665E-16
 -1       690 3.48678E+00 3.95118E-01 2.13497E-16
 -1       691 3.48018E+00 4.67678E-01 2.13092E-16
 -1       692 3.42453E+00 4.37371E-01 2.09685E-16
 -1       693 3.44221E+00 4.30049E-01 2.10767E-16
 -1       694 3.40616E+00 4.08565E-01 2.08560E-16
 -1       695 3.48678E+00 6.04882E-01 2.13497E-16
 -1       696 3.46696E+00 5.87204E-01 2.12283E-16
 -1       697 3.48018E+00 5.32322E-01 2.13092E-16
 -1       698 3.46696E+00 6.37204E-01 2.12283E-16
 -1       699 3.44053E+00 5.96967E-01 2.10665E-16
 -1       700 3.40616E+00 5.91435E-01 2.08560E-16
 -1       701 3.44221E+00 5.69951E-01 2.10767E-16
 -1       702 3.42453E+00 5.62629E-01 2.09685E-16
 -1       703 2.44029E+00 4.33333E-01 1.49420E-16
 -1       704 2.35226E+00 4.83333E-01 1.44029E-16
 -1       705 2.29357E+00 4.50000E-01 1.40436E-16
 -1       706 2.44029E+00 4.83333E-01 1.49420E-16
 -1       707 2.29357E+00 5.50000E-01 1.40436E-16
 -1       708 2.14684E+00 4.83333E-01 1.31452E-16
 -1       709 2.23487E+00 4.83333E-01 1.36842E-16
 -1       710 2.14684E+00 4.33333E-01 1.31452E-16
 -1       711 1.89556E+00 4.33456E-01 1.16066E-16
 -1       712 1.90367E+00 4.38875E-01 1.16562E-16
 -1       713 1.91398E+00 4.82329E-01 1.17194E-16
 -1       714 1.89142E+00 4.04275E-01 1.15812E-16
 -1       715 1.90676E+00 4.22368E-01 1.16752E-16
 -1       716 1.92129E+00 4.16646E-01 1.17641E-16
 -1       717 1.91551E+00 4.43781E-01 1.17288E-16
 -1       718 1.92508E+00 4.45684E-01 1.17873E-16
 -1       719 3.74841E+00 5.01500E-01 2.29516E-16
 -1       720 4.24933E+00 5.01500E-01 2.60188E-16
 -1       721 3.99883E+00 5.01381E-01 2.44849E-16
 -1       722 3.99941E+00 4.00690E-01 2.44885E-16
 -1       723 4.24967E+00 4.00750E-01 2.60208E-16
 -1       724 4.12408E+00 5.01441E-01 2.52519E-16
 -1       725 4.12454E+00 4.00720E-01 2.52547E-16
 -1       726 4.24967E+00 6.00750E-01 2.60208E-16
 -1       727 3.99941E+00 6.00690E-01 2.44885E-16
 -1       728 4.12454E+00 6.00720E-01 2.52547E-16
 -1       729 3.74920E+00 4.00750E-01 2.29565E-16
 -1       730 3.62420E+00 5.00750E-01 2.21911E-16
 -1       731 3.62460E+00 4.00375E-01 2.21936E-16
 -1       732 4.37467E+00 5.00750E-01 2.67862E-16
 -1       733 4.37483E+00 4.00375E-01 2.67872E-16
 -1       734 3.74920E+00 6.00750E-01 2.29565E-16
 -1       735 3.62460E+00 6.00375E-01 2.21936E-16
 -1       736 4.37483E+00 6.00375E-01 2.67872E-16
 -1       737 3.87362E+00 5.01441E-01 2.37183E-16
 -1       738 3.87431E+00 4.00720E-01 2.37225E-16
 -1       739 3.87431E+00 6.00720E-01 2.37225E-16
 -1       740 3.99912E+00 4.51035E-01 2.44867E-16
 -1       741 4.06198E+00 4.00705E-01 2.48716E-16
 -1       742 4.12431E+00 4.51080E-01 2.52533E-16
 -1       743 4.06145E+00 5.01411E-01 2.48684E-16
 -1       744 3.99971E+00 3.50345E-01 2.44903E-16
 -1       745 4.12477E+00 3.50360E-01 2.52561E-16
 -1       746 4.24983E+00 3.50375E-01 2.60219E-16
 -1       747 4.18710E+00 4.00735E-01 2.56378E-16
 -1       748 4.24950E+00 4.51125E-01 2.60198E-16
 -1       749 4.18671E+00 5.01470E-01 2.56353E-16
 -1       750 4.12431E+00 5.51080E-01 2.52533E-16
 -1       751 4.06198E+00 6.00705E-01 2.48716E-16
 -1       752 3.99912E+00 5.51035E-01 2.44867E-16
 -1       753 4.24950E+00 5.51125E-01 2.60198E-16
 -1       754 4.18710E+00 6.00735E-01 2.56378E-16
 -1       755 4.24983E+00 6.50375E-01 2.60219E-16
 -1       756 4.12477E+00 6.50360E-01 2.52561E-16
 -1       757 3.99971E+00 6.50345E-01 2.44903E-16
 -1       758 3.74960E+00 3.50375E-01 2.29589E-16
 -1       759 3.68690E+00 4.00563E-01 2.25750E-16
 -1       760 3.62480E+00 3.50188E-01 2.21948E-16
 -1       761 3.74881E+00 4.51125E-01 2.29541E-16
 -1       762 3.68631E+00 5.01125E-01 2.25714E-16
 -1       763 3.62440E+00 4.50563E-01 2.21923E-16
 -1       764 3.56210E+00 5.00375E-01 2.18109E-16
 -1       765 3.56230E+00 4.00188E-01 2.18121E-16
 -1       766 4.37492E+00 3.50188E-01 2.67878E-16
 -1       767 4.31225E+00 4.00563E-01 2.64040E-16
 -1       768 4.43742E+00 4.00188E-01 2.71704E-16
 -1       769 4.43733E+00 5.00375E-01 2.71699E-16
 -1       770 4.37475E+00 4.50563E-01 2.67867E-16
 -1       771 4.31200E+00 5.01125E-01 2.64025E-16
 -1       772 3.62480E+00 6.50188E-01 2.21948E-16
 -1       773 3.68690E+00 6.00563E-01 2.25750E-16
 -1       774 3.74960E+00 6.50375E-01 2.29589E-16
 -1       775 3.56230E+00 6.00188E-01 2.18121E-16
 -1       776 3.62440E+00 5.50563E-01 2.21923E-16
 -1       777 3.74881E+00 5.51125E-01 2.29541E-16
 -1       778 4.31225E+00 6.00563E-01 2.64040E-16
 -1       779 4.37492E+00 6.50188E-01 2.67878E-16
 -1       780 4.37475E+00 5.50563E-01 2.67867E-16
 -1       781 4.43742E+00 6.00188E-01 2.71704E-16
 -1       782 3.93686E+00 4.00705E-01 2.41055E-16
 -1       783 3.87465E+00 3.50360E-01 2.37246E-16
 -1       784 3.93622E+00 5.01411E-01 2.41016E-16
 -1       785 3.87396E+00 4.51080E-01 2.37204E-16
 -1       786 3.81101E+00 5.01470E-01 2.33350E-16
 -1       787 3.81176E+00 4.00735E-01 2.33395E-16
 -1       788 3.87465E+00 6.50360E-01 2.37246E-16
 -1       789 3.93686E+00 6.00705E-01 2.41055E-16
 -1       790 3.81176E+00 6.00735E-01 2.33395E-16
 -1       791 3.87396E+00 5.51080E-01 2.37204E-16
 -3
    3C                           222                                     1
 -1         1   10    0    1
 -2         1       290       293       135       389       390       391       139
 -1         2   10    0    1
 -2       290       253       291       293       392       393       394       390
 -1         3   10    0    1
 -2       293       291       266       292       394       395       396       397
 -1         4   10    0    1
 -2       135       293       292       134       391       397       398       138
 -1         5   10    0    1
 -2       262       294       298       297       399       400       401       402
 -1         6   10    0    1
 -2       294       265       295       298       403       404       405       400
 -1         7   10    0    1
 -2       298       295       264       296       405       406       407       408
 -1         8   10    0    1
 -2       297       298       296       254       401       408       409       410
 -1         9   10    0    1
 -2       259       299       302       301       411       412       413       414
 -1        10   10    0    1
 -2       299       256       300       302       415       416       417       412
 -1        11   10    0    1
 -2       302       300        41        42       417       418        45       419
 -1        12   10    0    1
 -2       301       302        42        25       413       419        46       420
 -1        13   10    0    1
 -2       145       146       306       305       153       421       422       423
 -1        14   10    0    1
 -2       146        16       303       306       154       424       425       421
 -1        15   10    0    1
 -2       306       303       252       304       425       426       427       428
 -1        16   10    0    1
 -2       305       306       304       258       422       428       429       430
 -1        17   10    0    1
 -2        18        33       309       308        36       431       432       433
 -1        18   10    0    1
 -2        33        34       307       309        37       434       435       431
 -1        19   10    0    1
 -2       309       307       258       304       435       436       429       437
 -1        20   10    0    1
 -2       308       309       304       252       432       437       427       438
 -1        21   10    0    1
 -2         2       310       313       128       439       440       441       132
 -1        22   10    0    1
 -2       310       257       311       313       442       443       444       440
 -1        23   10    0    1
 -2       313       311       248       312       444       445       446       447
 -1        24   10    0    1
 -2       128       313       312       127       441       447       448       131
 -1        25   10    0    1
 -2        28       126       316       315       129       449       450       451
 -1        26   10    0    1
 -2       126       127       312       316       130       448       452       449
 -1        27   10    0    1
 -2       316       312       248       314       452       446       453       454
 -1        28   10    0    1
 -2       315       316       314       259       450       454       455       456
 -1        29   10    0    1
 -2        22        40       319       318        43       457       458       459
 -1        30   10    0    1
 -2        40        41       300       319        44       418       460       457
 -1        31   10    0    1
 -2       319       300       256       317       460       416       461       462
 -1        32   10    0    1
 -2       318       319       317       249       458       462       463       464
 -1        33   10    0    1
 -2        34        35       322       321        38       465       466       467
 -1        34   10    0    1
 -2        35        21       206       322        39       209       468       465
 -1        35   10    0    1
 -2       322       206       207       320       468       210       469       470
 -1        36   10    0    1
 -2       321       322       320       260       466       470       471       472
 -1        37   10    0    1
 -2       263       323       326       325       473       474       475       476
 -1        38   10    0    1
 -2       323       262       297       326       477       402       478       474
 -1        39   10    0    1
 -2       326       297       254       324       478       410       479       480
 -1        40   10    0    1
 -2       325       326       324       261       475       480       481       482
 -1        41   10    0    1
 -2       257       327       331       330       483       484       485       486
 -1        42   10    0    1
 -2       327       255       328       331       487       488       489       484
 -1        43   10    0    1
 -2       331       328       251       329       489       490       491       492
 -1        44   10    0    1
 -2       330       331       329       264       485       492       493       494
 -1        45   10    0    1
 -2       261       324       334       333       481       495       496       497
 -1        46   10    0    1
 -2       324       254       332       334       479       498       499       495
 -1        47   10    0    1
 -2       334       332       143       144       499       500       151       501
 -1        48   10    0    1
 -2       333       334       144       145       496       501       152       502
 -1        49   10    0    1
 -2         2       213       336       310       216       503       504       439
 -1        50   10    0    1
 -2       213       214       215       336       217       218       505       503
 -1        51   10    0    1
 -2       336       215        24       335       505       219       506       507
 -1        52   10    0    1
 -2       310       336       335       257       504       507       508       442
 -1        53   10    0    1
 -2       266       337       340       339       509       510       511       512
 -1        54   10    0    1
 -2       337       141       142       340       513       149       514       510
 -1        55   10    0    1
 -2       340       142       143       338       514       150       515       516
 -1        56   10    0    1
 -2       339       340       338       251       511       516       517       518
 -1        57   10    0    1
 -2       249       317       343       342       463       519       520       521
 -1        58   10    0    1
 -2       317       256       341       343       461       522       523       519
 -1        59   10    0    1
 -2       343       341       265       294       523       524       403       525
 -1        60   10    0    1
 -2       342       343       294       262       520       525       399       526
 -1        61   10    0    1
 -2       141       337       345       140       513       527       528       148
 -1        62   10    0    1
 -2       337       266       291       345       509       395       529       527
 -1        63   10    0    1
 -2       345       291       253       344       529       393       530       531
 -1        64   10    0    1
 -2       140       345       344        20       528       531       532       147
 -1        65   10    0    1
 -2       248       346       347       314       533       534       535       453
 -1        66   10    0    1
 -2       346       265       341       347       536       524       537       534
 -1        67   10    0    1
 -2       347       341       256       299       537       522       415       538
 -1        68   10    0    1
 -2       314       347       299       259       535       538       411       455
 -1        69   10    0    1
 -2       145       305       349       333       423       539       540       502
 -1        70   10    0    1
 -2       305       258       348       349       430       541       542       539
 -1        71   10    0    1
 -2       349       348       263       325       542       543       476       544
 -1        72   10    0    1
 -2       333       349       325       261       540       544       482       497
 -1        73   10    0    1
 -2       249       350       351       318       545       546       547       464
 -1        74   10    0    1
 -2       350       260       320       351       548       471       549       546
 -1        75   10    0    1
 -2       351       320       207       208       549       469       211       550
 -1        76   10    0    1
 -2       318       351       208        22       547       550       212       459
 -1        77   10    0    1
 -2       134       292       353       352       398       551       552       553
 -1        78   10    0    1
 -2       292       266       339       353       396       512       554       551
 -1        79   10    0    1
 -2       353       339       251       328       554       518       490       555
 -1        80   10    0    1
 -2       352       353       328       255       552       555       488       556
 -1        81   10    0    1
 -2         1       199       354       290       202       557       558       389
 -1        82   10    0    1
 -2       199       200       201       354       203       204       559       557
 -1        83   10    0    1
 -2       354       201        20       344       559       205       532       560
 -1        84   10    0    1
 -2       290       354       344       253       558       560       530       392
 -1        85   10    0    1
 -2       143       332       355       338       500       561       562       515
 -1        86   10    0    1
 -2       332       254       296       355       498       409       563       561
 -1        87   10    0    1
 -2       355       296       264       329       563       407       493       564
 -1        88   10    0    1
 -2       338       355       329       251       562       564       491       517
 -1        89   10    0    1
 -2       258       307       357       348       436       565       566       541
 -1        90   10    0    1
 -2       307        34       321       357       434       467       567       565
 -1        91   10    0    1
 -2       357       321       260       356       567       472       568       569
 -1        92   10    0    1
 -2       348       357       356       263       566       569       570       543
 -1        93   10    0    1
 -2        24       133       358       335       136       571       572       506
 -1        94   10    0    1
 -2       133       134       352       358       137       553       573       571
 -1        95   10    0    1
 -2       358       352       255       327       573       556       487       574
 -1        96   10    0    1
 -2       335       358       327       257       572       574       483       508
 -1        97   10    0    1
 -2        18       308       359       194       433       575       576       198
 -1        98   10    0    1
 -2       308       252       303       359       438       426       577       575
 -1        99   10    0    1
 -2       359       303        16       192       577       424       195       578
 -1       100   10    0    1
 -2       194       359       192       193       576       578       196       197
 -1       101   10    0    1
 -2       257       330       360       311       486       579       580       443
 -1       102   10    0    1
 -2       330       264       295       360       494       406       581       579
 -1       103   10    0    1
 -2       360       295       265       346       581       404       536       582
 -1       104   10    0    1
 -2       311       360       346       248       580       582       533       445
 -1       105   10    0    1
 -2       262       323       361       342       477       583       584       526
 -1       106   10    0    1
 -2       323       263       356       361       473       570       585       583
 -1       107   10    0    1
 -2       361       356       260       350       585       568       548       586
 -1       108   10    0    1
 -2       342       361       350       249       584       586       545       521
 -1       109   10    0    1
 -2       250       289       362       275       587       588       589       590
 -1       110   10    0    1
 -2       289        27       286       362       591       592       593       588
 -1       111   10    0    1
 -2       362       286       116       117       593       594       124       595
 -1       112   10    0    1
 -2       275       362       117         3       589       595       125       596
 -1       113   10    0    1
 -2        63       267       363       271       597       598       599       600
 -1       114   10    0    1
 -2       267        70        71       363       601        74       602       598
 -1       115   10    0    1
 -2       363        71         6        76       602        75        79       603
 -1       116   10    0    1
 -2       271       363        76        77       599       603        80       604
 -1       117   10    0    1
 -2        91       270       364       268       605       606       607       608
 -1       118   10    0    1
 -2       270        98        99       364       609       102       610       606
 -1       119   10    0    1
 -2       364        99        10       104       610       103       107       611
 -1       120   10    0    1
 -2       268       364       104       105       607       611       108       612
 -1       121   10    0    1
 -2        52       365       366        51       613       614       615        59
 -1       122   10    0    1
 -2       365       114       115       366       616       122       617       614
 -1       123   10    0    1
 -2       366       115       116       284       617       123       618       619
 -1       124   10    0    1
 -2        51       366       284        50       615       619       620        58
 -1       125   10    0    1
 -2        11       367       368        53       621       622       623        61
 -1       126   10    0    1
 -2       367       112       113       368       624       120       625       622
 -1       127   10    0    1
 -2       368       113       114       365       625       121       616       626
 -1       128   10    0    1
 -2        53       368       365        52       623       626       613        60
 -1       129   10    0    1
 -2        84       283       369       281       627       628       629       630
 -1       130   10    0    1
 -2       283        32       111       369       631       118       632       628
 -1       131   10    0    1
 -2       369       111       112       367       632       119       624       633
 -1       132   10    0    1
 -2       281       369       367        11       629       633       621       634
 -1       133   10    0    1
 -2        28       315       370       273       451       635       636       637
 -1       134   10    0    1
 -2       315       259       301       370       456       414       638       635
 -1       135   10    0    1
 -2       370       301        25       287       638       420       639       640
 -1       136   10    0    1
 -2       273       370       287       250       636       640       641       642
 -1       137   10    0    1
 -2        70       267       371        69       601       643       644        73
 -1       138   10    0    1
 -2       267        63        64       371       597        67       645       643
 -1       139   10    0    1
 -2        69       371        64         5       644       645        68        72
 -1       140   10    0    1
 -2         8        90       372       269        93       646       647       648
 -1       141   10    0    1
 -2        90        91       268       372        94       608       649       646
 -1       142   10    0    1
 -2       269       372       268       105       647       649       612       650
 -1       143   10    0    1
 -2        91        92       373       270        95       651       652       605
 -1       144   10    0    1
 -2        92         9        97       373        96       100       653       651
 -1       145   10    0    1
 -2       270       373        97        98       652       653       101       609
 -1       146   10    0    1
 -2        63       271       374        62       600       654       655        66
 -1       147   10    0    1
 -2       271        77       272       374       604       656       657       654
 -1       148   10    0    1
 -2        62       374       272        30       655       657       658        65
 -1       149   10    0    1
 -2       228       229       375       274       232       659       660       661
 -1       150   10    0    1
 -2       229        28       273       375       233       637       662       659
 -1       151   10    0    1
 -2       274       375       273       250       660       662       642       663
 -1       152   10    0    1
 -2       250       275       376       274       590       664       665       663
 -1       153   10    0    1
 -2       275         3       227       376       596       230       666       664
 -1       154   10    0    1
 -2       274       376       227       228       665       666       231       661
 -1       155   10    0    1
 -2         8       269       377       276       648       667       668       669
 -1       156   10    0    1
 -2       269       105       106       377       650       109       670       667
 -1       157   10    0    1
 -2       276       377       106         4       668       670       110       671
 -1       158   10    0    1
 -2         4       241       378       276       244       672       673       671
 -1       159   10    0    1
 -2       241       242       277       378       245       674       675       672
 -1       160   10    0    1
 -2       276       378       277         8       673       675       676       669
 -1       161   10    0    1
 -2        30       272       379       278       658       677       678       679
 -1       162   10    0    1
 -2       272        77        78       379       656        81       680       677
 -1       163   10    0    1
 -2       278       379        78         7       678       680        82       681
 -1       164   10    0    1
 -2         7       279       380       278       682       683       684       681
 -1       165   10    0    1
 -2       279       235       236       380       685       239       686       683
 -1       166   10    0    1
 -2       278       380       236        30       684       686       240       679
 -1       167   10    0    1
 -2       235       279       381       280       685       687       688       689
 -1       168   10    0    1
 -2       279         7        83       381       682        86       690       687
 -1       169   10    0    1
 -2       280       381        83        84       688       690        87       691
 -1       170   10    0    1
 -2        84       281       382       280       630       692       693       691
 -1       171   10    0    1
 -2       281        11       234       382       634       237       694       692
 -1       172   10    0    1
 -2       280       382       234       235       693       694       238       689
 -1       173   10    0    1
 -2        84        85       383       282        88       695       696       697
 -1       174   10    0    1
 -2        85         8       277       383        89       676       698       695
 -1       175   10    0    1
 -2       282       383       277       242       696       698       674       699
 -1       176   10    0    1
 -2       242       243       384       282       246       700       701       699
 -1       177   10    0    1
 -2       243        32       283       384       247       631       702       700
 -1       178   10    0    1
 -2       282       384       283        84       701       702       627       697
 -1       179   10    0    1
 -2        48        49       385       285        56       703       704       705
 -1       180   10    0    1
 -2        49        50       284       385        57       620       706       703
 -1       181   10    0    1
 -2       285       385       284       116       704       706       618       707
 -1       182   10    0    1
 -2       116       286       386       285       594       708       709       707
 -1       183   10    0    1
 -2       286        27        47       386       592        54       710       708
 -1       184   10    0    1
 -2       285       386        47        48       709       710        55       705
 -1       185   10    0    1
 -2       250       287       387       288       641       711       712       713
 -1       186   10    0    1
 -2       287        25       220       387       639       223       714       711
 -1       187   10    0    1
 -2       288       387       220       221       712       714       224       715
 -1       188   10    0    1
 -2       221       222       388       288       225       716       717       715
 -1       189   10    0    1
 -2       222        27       289       388       226       591       718       716
 -1       190   10    0    1
 -2       288       388       289       250       717       718       587       713
 -1       191   10    0    1
 -2       721       722       725       724       740       741       742       743
 -1       192   10    0    1
 -2       722       158       159       725       744       166       745       741
 -1       193   10    0    1
 -2       725       159       160       723       745       167       746       747
 -1       194   10    0    1
 -2       724       725       723       720       742       747       748       749
 -1       195   10    0    1
 -2       721       724       728       727       743       750       751       752
 -1       196   10    0    1
 -2       724       720       726       728       749       753       754       750
 -1       197   10    0    1
 -2       728       726       178       179       754       755       186       756
 -1       198   10    0    1
 -2       727       728       179       180       751       756       187       757
 -1       199   10    0    1
 -2       156       729       731       155       758       759       760       163
 -1       200   10    0    1
 -2       729       719       730       731       761       762       763       759
 -1       201   10    0    1
 -2       731       730        84        83       763       764        87       765
 -1       202   10    0    1
 -2       155       731        83         7       760       765        86       162
 -1       203   10    0    1
 -2       160       161       733       723       168       766       767       746
 -1       204   10    0    1
 -2       161        14       170       733       169       173       768       766
 -1       205   10    0    1
 -2       733       170       171       732       768       174       769       770
 -1       206   10    0    1
 -2       723       733       732       720       767       770       771       748
 -1       207   10    0    1
 -2       182       183       735       734       190       772       773       774
 -1       208   10    0    1
 -2       183         8        85       735       191        89       775       772
 -1       209   10    0    1
 -2       735        85        84       730       775        88       764       776
 -1       210   10    0    1
 -2       734       735       730       719       773       776       762       777
 -1       211   10    0    1
 -2       178       726       736       177       755       778       779       185
 -1       212   10    0    1
 -2       726       720       732       736       753       771       780       778
 -1       213   10    0    1
 -2       736       732       171       172       780       769       175       781
 -1       214   10    0    1
 -2       177       736       172        15       779       781       176       184
 -1       215   10    0    1
 -2       158       722       738       157       744       782       783       165
 -1       216   10    0    1
 -2       722       721       737       738       740       784       785       782
 -1       217   10    0    1
 -2       738       737       719       729       785       786       761       787
 -1       218   10    0    1
 -2       157       738       729       156       783       787       758       164
 -1       219   10    0    1
 -2       180       181       739       727       188       788       789       757
 -1       220   10    0    1
 -2       181       182       734       739       189       774       790       788
 -1       221   10    0    1
 -2       739       734       719       737       790       777       786       791
 -1       222   10    0    1
 -2       727       739       737       721       789       791       784       752
 -3
    1PSTEP                         1           1           1          
  100CL  101 1.000000000         783                     0    1           1
 -4  DISP        4    1
 -5  D1          1    2    1    0
 -5  D2          1    2    2    0
 -5  D3          1    2    3    0
 -5  ALL         1    2    0    0    1ALL
 -1         1 2.09094E+00-5.91169E-01 1.28029E-16
 -1         2 1.95415E+00-5.47312E-01 1.19653E-16
 -1         3 2.71174E+00-3.49205E-01 1.66041E-16
 -1         4 6.02995E+00-4.45794E-01 3.69216E-16
 -1         5 4.48559E+00 0.00000E+00 2.74654E-16
 -1         6 4.46680E+00 0.00000E+00 2.73503E-16
 -1         7 6.00590E+00-2.43275E-01 4.20002E-16
 -1         8 6.03084E+00-3.19756E-01 4.37011E-16
 -1         9 2.84549E+00-3.10006E-01 1.74230E-16
 -1        10 2.85759E+00-7.85415E-01 1.74971E-16
 -1        11 5.82575E+00-1.39467E-01 3.56712E-16
 -1        14 6.10750E+00-3.43887E-01-8.19428E-17
 -1        15 6.13218E+00-3.43255E-01 1.41396E-16
 -1        16 2.15017E+00 1.01591E-01 1.31656E-16
 -1        18 2.08965E+00 1.58008E-01 1.27950E-16
 -1        20 2.15122E+00-5.34456E-01 1.31720E-16
 -1        21 1.96986E+00 1.42646E-01 1.20615E-16
 -1        22 1.95294E+00 1.13051E-01 1.19579E-16
 -1        24 1.97110E+00-5.76759E-01 1.20691E-16
 -1        25 2.41358E+00-1.13082E-01 1.47785E-16
 -1        27 2.70972E+00-8.71664E-02 1.65917E-16
 -1        28 2.41354E+00-3.21728E-01 1.47782E-16
 -1        30 6.01171E+00-1.21734E-01 3.68099E-16
 -1        32 5.83831E+00-4.08953E-01 3.57482E-16
 -1        33 2.05424E+00 1.54763E-01 1.25782E-16
 -1        34 2.02667E+00 1.53694E-01 1.24094E-16
 -1        35 2.00019E+00 1.51772E-01 1.22472E-16
 -1        36 2.07022E+00 1.55971E-01 1.26760E-16
 -1        37 2.03972E+00 1.54065E-01 1.24893E-16
 -1        38 2.01343E+00 1.53221E-01 1.23283E-16
 -1        39 1.98561E+00 1.48703E-01 1.21580E-16
 -1        40 1.98029E+00 5.15653E-02 1.21253E-16
 -1        41 2.05020E+00-7.10249E-03 1.25534E-16
 -1        42 2.17318E+00-6.68299E-02 1.33065E-16
 -1        43 1.96116E+00 8.22343E-02 1.20083E-16
 -1        44 2.00939E+00 2.15665E-02 1.23035E-16
 -1        45 2.10193E+00-3.65901E-02 1.28702E-16
 -1        46 2.26877E+00-9.19460E-02 1.38918E-16
 -1        47 3.14681E+00-5.33167E-02 1.92680E-16
 -1        48 3.55932E+00-5.95896E-02 2.17938E-16
 -1        49 3.96030E+00-6.53555E-02 2.42490E-16
 -1        50 4.34991E+00-7.19245E-02 2.66346E-16
 -1        51 4.72992E+00-7.93429E-02 2.89615E-16
 -1        52 5.10175E+00-8.78746E-02 3.12382E-16
 -1        53 5.46137E+00-9.72183E-02 3.34402E-16
 -1        54 2.93501E+00-5.91489E-02 1.79712E-16
 -1        55 3.35433E+00-5.74517E-02 2.05387E-16
 -1        56 3.76087E+00-6.25116E-02 2.30279E-16
 -1        57 4.15588E+00-6.84759E-02 2.54466E-16
 -1        58 4.54060E+00-7.55648E-02 2.78023E-16
 -1        59 4.91628E+00-8.34305E-02 3.01025E-16
 -1        60 5.28282E+00-9.25524E-02 3.23469E-16
 -1        61 5.64012E+00-1.10344E-01 3.45346E-16
 -1        62 5.61251E+00-4.37381E-04 3.43656E-16
 -1        63 5.07260E+00 4.75765E-02 3.10597E-16
 -1        64 4.64532E+00 3.76468E-02 2.84434E-16
 -1        65 5.83780E+00-5.40754E-02 3.57450E-16
 -1        66 5.34126E+00 2.96568E-02 3.27047E-16
 -1        67 4.83342E+00 4.65602E-02 2.95952E-16
 -1        68 4.52795E+00 2.02097E-02 2.77248E-16
 -1        69 4.47798E+00 0.00000E+00 2.74188E-16
 -1        70 4.47180E+00 0.00000E+00 2.73810E-16
 -1        71 4.46835E+00 0.00000E+00 2.73598E-16
 -1        72 4.48160E+00 0.00000E+00 2.74410E-16
 -1        73 4.47483E+00 0.00000E+00 2.73995E-16
 -1        74 4.46937E+00 0.00000E+00 2.73661E-16
 -1        75 4.46687E+00 0.00000E+00 2.73508E-16
 -1        76 4.62570E+00-1.15195E-01 2.83233E-16
 -1        77 5.04899E+00-2.08255E-01 3.09151E-16
 -1        78 5.58381E+00-2.51907E-01 3.41898E-16
 -1        79 4.50814E+00-5.87572E-02 2.76035E-16
 -1        80 4.81237E+00-1.65001E-01 2.94663E-16
 -1        81 5.32063E+00-2.35110E-01 3.25784E-16
 -1        82 5.81483E+00-2.49273E-01 3.56044E-16
 -1        83 6.02499E+00-2.58974E-01 2.37290E-16
 -1        84 6.02670E+00-2.81905E-01 3.74717E-16
 -1        85 6.03734E+00-3.04838E-01 4.77871E-16
 -1        86 6.02272E+00-2.49586E-01 3.11527E-16
 -1        87 6.02481E+00-2.69825E-01 2.22317E-16
 -1        88 6.03098E+00-2.94012E-01 5.21067E-16
 -1        89 6.04127E+00-3.13929E-01 8.00120E-16
 -1        90 5.51502E+00-2.68344E-01 3.37686E-16
 -1        91 4.71365E+00-2.61364E-01 2.88618E-16
 -1        92 3.79350E+00-2.83414E-01 2.32278E-16
 -1        93 5.80975E+00-2.90225E-01 3.55733E-16
 -1        94 5.13652E+00-2.61128E-01 3.14511E-16
 -1        95 4.25807E+00-2.71619E-01 2.60723E-16
 -1        96 3.31943E+00-2.97061E-01 2.03250E-16
 -1        97 2.84852E+00-4.28641E-01 1.74415E-16
 -1        98 2.85156E+00-5.47426E-01 1.74602E-16
 -1        99 2.85452E+00-6.66292E-01 1.74783E-16
 -1       100 2.84670E+00-3.69339E-01 1.74304E-16
 -1       101 2.84973E+00-4.87961E-01 1.74490E-16
 -1       102 2.85274E+00-6.06863E-01 1.74674E-16
 -1       103 2.85575E+00-7.25822E-01 1.74858E-16
 -1       104 3.80921E+00-7.54161E-01 2.33239E-16
 -1       105 4.73308E+00-7.02822E-01 2.89808E-16
 -1       106 5.53673E+00-6.06497E-01 3.39016E-16
 -1       107 3.33391E+00-7.71641E-01 2.04136E-16
 -1       108 4.27705E+00-7.31596E-01 2.61885E-16
 -1       109 5.15912E+00-6.60397E-01 3.15894E-16
 -1       110 5.83695E+00-5.35313E-01 3.57398E-16
 -1       111 5.47668E+00-4.22412E-01 3.35339E-16
 -1       112 5.11128E+00-4.13170E-01 3.12965E-16
 -1       113 4.73811E+00-4.06379E-01 2.90116E-16
 -1       114 4.35702E+00-4.00472E-01 2.66782E-16
 -1       115 3.96627E+00-3.95429E-01 2.42856E-16
 -1       116 3.56431E+00-3.91460E-01 2.18244E-16
 -1       117 3.15005E+00-3.88063E-01 1.92879E-16
 -1       118 5.65414E+00-4.24829E-01 3.46205E-16
 -1       119 5.29406E+00-4.16941E-01 3.24157E-16
 -1       120 4.92501E+00-4.09827E-01 3.01560E-16
 -1       121 4.54826E+00-4.03270E-01 2.78491E-16
 -1       122 4.16250E+00-3.97842E-01 2.54871E-16
 -1       123 3.76642E+00-3.93303E-01 2.30619E-16
 -1       124 3.35860E+00-3.89211E-01 2.05648E-16
 -1       125 2.94026E+00-3.82218E-01 1.80033E-16
 -1       126 2.17390E+00-3.68256E-01 1.33109E-16
 -1       127 2.05102E+00-4.27525E-01 1.25585E-16
 -1       128 1.98123E+00-4.85965E-01 1.21311E-16
 -1       129 2.26881E+00-3.42821E-01 1.38920E-16
 -1       130 2.10281E+00-3.98305E-01 1.28756E-16
 -1       131 2.01026E+00-4.56080E-01 1.23089E-16
 -1       132 1.96220E+00-5.16605E-01 1.20146E-16
 -1       133 2.00152E+00-5.85694E-01 1.22554E-16
 -1       134 2.02785E+00-5.87373E-01 1.24166E-16
 -1       135 2.05555E+00-5.88230E-01 1.25862E-16
 -1       136 1.98672E+00-5.82667E-01 1.21647E-16
 -1       137 2.01464E+00-5.86933E-01 1.23357E-16
 -1       138 2.04098E+00-5.87628E-01 1.24970E-16
 -1       139 2.07155E+00-5.89265E-01 1.26842E-16
 -1       140 2.16635E+00-4.69037E-01 1.32646E-16
 -1       141 2.18589E+00-3.93491E-01 1.33843E-16
 -1       142 2.20146E+00-3.07888E-01 1.34796E-16
 -1       143 2.20742E+00-2.16482E-01 1.35161E-16
 -1       144 2.20124E+00-1.24786E-01 1.34783E-16
 -1       145 2.18536E+00-3.93416E-02 1.33810E-16
 -1       146 2.16558E+00 3.61905E-02 1.32599E-16
 -1       147 2.15741E+00-5.02727E-01 1.32099E-16
 -1       148 2.17587E+00-4.32550E-01 1.33229E-16
 -1       149 2.19439E+00-3.51696E-01 1.34363E-16
 -1       150 2.20564E+00-2.62559E-01 1.35052E-16
 -1       151 2.20560E+00-1.70337E-01 1.35050E-16
 -1       152 2.19400E+00-8.11106E-02 1.34339E-16
 -1       153 2.17518E+00-3.21581E-04 1.33187E-16
 -1       154 2.15650E+00 6.98678E-02 1.32043E-16
 -1       155 6.03443E+00-2.76518E-01 2.12931E-16
 -1       156 6.05520E+00-2.88900E-01 4.24538E-16
 -1       157 6.07146E+00-2.98108E-01 2.78950E-16
 -1       158 6.08432E+00-3.07021E-01 1.99506E-16
 -1       159 6.09430E+00-3.16047E-01 1.76048E-16
 -1       160 6.10150E+00-3.25204E-01 3.55423E-17
 -1       161 6.10589E+00-3.34487E-01 1.36937E-17
 -1       162 6.01965E+00-2.66260E-01 3.61646E-16
 -1       163 6.04546E+00-2.83432E-01 2.45265E-16
 -1       164 6.06378E+00-2.93616E-01 3.60012E-16
 -1       165 6.07828E+00-3.02555E-01-5.28322E-17
 -1       166 6.08966E+00-3.11516E-01-1.54484E-16
 -1       167 6.09825E+00-3.20611E-01-4.57535E-16
 -1       168 6.10404E+00-3.29828E-01-5.84682E-16
 -1       169 6.10704E+00-3.39178E-01-7.89413E-16
 -1       170 6.11467E+00-3.43713E-01 8.13433E-17
 -1       171 6.12116E+00-3.43571E-01 2.49901E-16
 -1       172 6.12701E+00-3.43430E-01-1.22165E-16
 -1       173 6.11118E+00-3.43797E-01-7.51429E-16
 -1       174 6.11800E+00-3.43641E-01-3.19716E-16
 -1       175 6.12417E+00-3.43502E-01-5.58080E-16
 -1       176 6.12969E+00-3.43346E-01-7.43140E-16
 -1       177 6.13058E+00-3.37228E-01 8.65456E-17
 -1       178 6.12618E+00-3.31084E-01 1.09478E-16
 -1       179 6.11898E+00-3.24813E-01 4.81353E-16
 -1       180 6.10901E+00-3.18411E-01 3.08787E-16
 -1       181 6.09614E+00-3.11898E-01 2.54440E-16
 -1       182 6.07989E+00-3.05675E-01 3.51891E-16
 -1       183 6.05913E+00-3.02619E-01 6.36415E-16
 -1       184 6.13173E+00-3.40251E-01-4.98203E-16
 -1       185 6.12873E+00-3.34173E-01-4.27913E-16
 -1       186 6.12293E+00-3.27963E-01 1.80186E-16
 -1       187 6.11434E+00-3.21630E-01 3.03259E-16
 -1       188 6.10296E+00-3.15164E-01 7.79161E-17
 -1       189 6.08847E+00-3.08676E-01 2.21010E-16
 -1       190 6.07016E+00-3.03434E-01 7.75868E-16
 -1       191 6.04440E+00-3.05103E-01 1.30512E-15
 -1       192 2.14265E+00 1.24623E-01 1.31195E-16
 -1       193 2.12858E+00 1.43327E-01 1.30333E-16
 -1       194 2.10983E+00 1.55134E-01 1.29186E-16
 -1       195 2.14705E+00 1.13492E-01 1.31465E-16
 -1       196 2.13612E+00 1.34677E-01 1.30795E-16
 -1       197 2.11940E+00 1.50243E-01 1.29771E-16
 -1       198 2.09937E+00 1.57812E-01 1.28545E-16
 -1       199 2.11111E+00-5.88202E-01 1.29264E-16
 -1       200 2.12982E+00-5.76306E-01 1.30409E-16
 -1       201 2.14381E+00-5.57528E-01 1.31266E-16
 -1       202 2.10065E+00-5.90929E-01 1.28624E-16
 -1       203 2.12066E+00-5.83267E-01 1.29849E-16
 -1       204 2.13732E+00-5.67613E-01 1.30869E-16
 -1       205 2.14816E+00-5.46370E-01 1.31533E-16
 -1       206 1.96296E+00 1.38136E-01 1.20193E-16
 -1       207 1.95732E+00 1.31383E-01 1.19847E-16
 -1       208 1.95371E+00 1.22804E-01 1.19627E-16
 -1       209 1.96617E+00 1.40683E-01 1.20389E-16
 -1       210 1.95978E+00 1.35031E-01 1.19998E-16
 -1       211 1.95503E+00 1.27302E-01 1.19707E-16
 -1       212 1.95276E+00 1.18040E-01 1.19568E-16
 -1       213 1.95495E+00-5.57028E-01 1.19702E-16
 -1       214 1.95857E+00-5.65529E-01 1.19924E-16
 -1       215 1.96417E+00-5.72246E-01 1.20267E-16
 -1       216 1.95395E+00-5.52200E-01 1.19641E-16
 -1       217 1.95630E+00-5.61408E-01 1.19785E-16
 -1       218 1.96102E+00-5.69087E-01 1.20074E-16
 -1       219 1.96738E+00-5.74757E-01 1.20463E-16
 -1       220 2.48305E+00-1.19277E-01 1.52038E-16
 -1       221 2.55906E+00-1.10334E-01 1.56692E-16
 -1       222 2.63667E+00-9.84237E-02 1.61444E-16
 -1       223 2.44748E+00-1.17675E-01 1.49860E-16
 -1       224 2.52130E+00-1.14579E-01 1.54380E-16
 -1       225 2.59634E+00-1.05532E-01 1.58975E-16
 -1       226 2.67515E+00-9.35410E-02 1.63800E-16
 -1       227 2.63857E+00-3.36205E-01 1.61561E-16
 -1       228 2.56005E+00-3.24577E-01 1.56753E-16
 -1       229 2.48376E+00-3.15694E-01 1.52081E-16
 -1       230 2.67703E+00-3.42050E-01 1.63916E-16
 -1       231 2.59799E+00-3.29344E-01 1.59075E-16
 -1       232 2.52195E+00-3.20356E-01 1.54420E-16
 -1       233 2.44795E+00-3.17093E-01 1.49889E-16
 -1       234 5.93189E+00-1.49718E-01 3.63211E-16
 -1       235 6.00864E+00-1.60864E-01 3.67911E-16
 -1       236 6.04102E+00-1.61589E-01 3.69893E-16
 -1       237 5.87723E+00-1.45452E-01 3.59865E-16
 -1       238 5.97520E+00-1.56995E-01 3.65864E-16
 -1       239 6.02933E+00-1.62896E-01 3.69178E-16
 -1       240 6.03369E+00-1.48429E-01 3.69445E-16
 -1       241 6.06066E+00-3.98293E-01 3.71096E-16
 -1       242 6.02428E+00-3.94860E-01 3.68868E-16
 -1       243 5.94494E+00-4.02580E-01 3.64010E-16
 -1       244 6.05471E+00-4.14246E-01 3.70732E-16
 -1       245 6.04689E+00-3.94869E-01 3.70253E-16
 -1       246 5.98930E+00-3.96916E-01 3.66727E-16
 -1       247 5.88976E+00-4.04987E-01 3.60632E-16
 -1       248 2.19245E+00-3.72431E-01 1.34244E-16
 -1       249 2.07675E+00 2.55238E-02 1.27160E-16
 -1       250 2.69028E+00-2.29388E-01 1.64727E-16
 -1       251 2.11068E+00-3.91003E-01 1.29237E-16
 -1       252 2.09957E+00 1.00560E-01 1.28557E-16
 -1       253 2.10329E+00-5.27994E-01 1.28785E-16
 -1       254 2.13911E+00-1.68331E-01 1.30979E-16
 -1       255 2.05571E+00-4.90365E-01 1.25872E-16
 -1       256 2.20832E+00-7.54993E-02 1.35216E-16
 -1       257 2.05540E+00-4.82150E-01 1.25853E-16
 -1       258 2.08319E+00 6.16790E-02 1.27554E-16
 -1       259 2.39022E+00-2.23637E-01 1.46354E-16
 -1       260 2.02749E+00 8.80268E-02 1.24144E-16
 -1       261 2.12559E+00-7.06648E-02 1.30150E-16
 -1       262 2.12913E+00-8.16383E-02 1.30367E-16
 -1       263 2.08624E+00 3.64864E-03 1.27741E-16
 -1       264 2.13582E+00-3.16297E-01 1.30777E-16
 -1       265 2.19325E+00-2.14190E-01 1.34293E-16
 -1       266 2.09826E+00-4.67103E-01 1.28477E-16
 -1       267 4.63767E+00-1.01316E-03 2.83966E-16
 -1       268 4.72464E+00-4.81790E-01 2.89291E-16
 -1       269 5.53046E+00-4.36033E-01 3.38632E-16
 -1       270 3.79773E+00-4.01100E-01 2.32536E-16
 -1       271 5.05964E+00-8.00899E-02 3.09803E-16
 -1       272 5.59927E+00-1.26320E-01 3.42845E-16
 -1       273 2.61332E+00-2.80757E-01 1.60014E-16
 -1       274 2.65538E+00-2.73771E-01 1.62589E-16
 -1       275 2.69837E+00-2.76887E-01 1.65222E-16
 -1       276 6.02855E+00-3.84015E-01 3.69130E-16
 -1       277 6.05381E+00-3.90269E-01 3.70677E-16
 -1       278 6.00494E+00-1.79306E-01 3.67685E-16
 -1       279 6.03335E+00-1.71822E-01 3.69424E-16
 -1       280 5.98933E+00-2.32384E-01 3.66729E-16
 -1       281 5.93988E+00-2.28764E-01 3.63701E-16
 -1       282 5.99729E+00-3.27314E-01 3.67216E-16
 -1       283 5.94553E+00-3.26422E-01 3.64047E-16
 -1       284 3.96351E+00-2.30301E-01 2.42687E-16
 -1       285 3.56210E+00-2.25666E-01 2.18108E-16
 -1       286 3.14720E+00-2.20689E-01 1.92704E-16
 -1       287 2.62578E+00-1.65260E-01 1.60777E-16
 -1       288 2.66267E+00-1.73088E-01 1.63036E-16
 -1       289 2.70212E+00-1.71899E-01 1.65452E-16
 -1       290 2.09592E+00-5.60215E-01 1.28334E-16
 -1       291 2.09870E+00-4.97764E-01 1.28504E-16
 -1       292 2.05787E+00-5.31288E-01 1.26004E-16
 -1       293 2.07381E+00-5.44649E-01 1.26980E-16
 -1       294 2.16311E+00-1.44461E-01 1.32448E-16
 -1       295 2.16238E+00-2.67825E-01 1.32403E-16
 -1       296 2.14199E+00-2.40956E-01 1.31155E-16
 -1       297 2.13337E+00-1.25730E-01 1.30627E-16
 -1       298 2.15174E+00-1.94269E-01 1.31752E-16
 -1       299 2.30316E+00-1.43653E-01 1.41023E-16
 -1       300 2.15006E+00-2.03546E-02 1.31649E-16
 -1       301 2.46129E+00-1.52698E-01 1.50705E-16
 -1       302 2.28274E+00-7.65095E-02 1.39773E-16
 -1       303 2.12250E+00 1.00363E-01 1.29961E-16
 -1       304 2.08957E+00 8.08409E-02 1.27945E-16
 -1       305 2.12891E+00 9.32688E-03 1.30354E-16
 -1       306 2.12332E+00 5.62368E-02 1.30012E-16
 -1       307 2.05102E+00 1.10299E-01 1.25585E-16
 -1       308 2.09365E+00 1.29798E-01 1.28195E-16
 -1       309 2.06949E+00 1.18901E-01 1.26716E-16
 -1       310 2.00559E+00-5.23820E-01 1.22803E-16
 -1       311 2.11119E+00-4.30656E-01 1.29269E-16
 -1       312 2.14049E+00-4.18953E-01 1.31063E-16
 -1       313 2.05432E+00-4.72073E-01 1.25787E-16
 -1       314 2.29196E+00-3.04825E-01 1.40337E-16
 -1       315 2.45546E+00-2.87776E-01 1.50349E-16
 -1       316 2.27235E+00-3.63153E-01 1.39136E-16
 -1       317 2.13383E+00-2.19629E-02 1.30655E-16
 -1       318 2.01228E+00 7.88379E-02 1.23213E-16
 -1       319 2.06456E+00 2.98264E-02 1.26413E-16
 -1       320 1.99396E+00 1.16386E-01 1.22091E-16
 -1       321 2.01944E+00 1.21090E-01 1.23651E-16
 -1       322 1.99372E+00 1.34893E-01 1.22076E-16
 -1       323 2.10413E+00-3.71602E-02 1.28837E-16
 -1       324 2.13320E+00-1.18439E-01 1.30616E-16
 -1       325 2.10604E+00-3.32367E-02 1.28953E-16
 -1       326 2.11871E+00-7.79508E-02 1.29729E-16
 -1       327 2.05329E+00-4.87127E-01 1.25723E-16
 -1       328 2.08453E+00-4.42585E-01 1.27637E-16
 -1       329 2.11929E+00-3.54850E-01 1.29765E-16
 -1       330 2.10702E+00-4.06532E-01 1.29014E-16
 -1       331 2.09130E+00-4.24962E-01 1.28051E-16
 -1       332 2.15969E+00-1.92834E-01 1.32238E-16
 -1       333 2.14726E+00-5.93766E-02 1.31477E-16
 -1       334 2.15657E+00-1.24918E-01 1.32048E-16
 -1       335 2.00493E+00-5.34753E-01 1.22763E-16
 -1       336 1.97981E+00-5.49400E-01 1.21224E-16
 -1       337 2.13764E+00-4.28071E-01 1.30888E-16
 -1       338 2.15531E+00-3.04987E-01 1.31970E-16
 -1       339 2.10260E+00-4.29761E-01 1.28743E-16
 -1       340 2.14772E+00-3.68049E-01 1.31506E-16
 -1       341 2.21361E+00-1.43162E-01 1.35540E-16
 -1       342 2.10966E+00-2.38786E-02 1.29175E-16
 -1       343 2.15879E+00-7.94501E-02 1.32183E-16
 -1       344 2.12497E+00-5.30576E-01 1.30113E-16
 -1       345 2.12887E+00-4.81120E-01 1.30351E-16
 -1       346 2.20999E+00-2.96147E-01 1.35318E-16
 -1       347 2.26798E+00-2.22277E-01 1.38869E-16
 -1       348 2.08083E+00 3.26539E-02 1.27410E-16
 -1       349 2.11244E+00-1.33532E-02 1.29346E-16
 -1       350 2.04639E+00 5.79549E-02 1.25301E-16
 -1       351 1.99990E+00 9.84065E-02 1.22454E-16
 -1       352 2.03371E+00-5.40870E-01 1.24525E-16
 -1       353 2.06762E+00-4.88522E-01 1.26601E-16
 -1       354 2.11858E+00-5.60916E-01 1.29722E-16
 -1       355 2.14101E+00-2.73046E-01 1.31095E-16
 -1       356 2.05858E+00 4.88189E-02 1.26047E-16
 -1       357 2.04954E+00 7.98045E-02 1.25494E-16
 -1       358 2.01828E+00-5.39807E-01 1.23580E-16
 -1       359 2.11683E+00 1.29249E-01 1.29614E-16
 -1       360 2.15252E+00-3.55141E-01 1.31799E-16
 -1       361 2.07926E+00 1.40777E-02 1.27314E-16
 -1       362 2.91907E+00-2.64339E-01 1.78736E-16
 -1       363 4.62985E+00-5.77526E-02 2.83487E-16
 -1       364 3.80351E+00-5.77344E-01 2.32890E-16
 -1       365 4.73424E+00-2.42817E-01 2.89879E-16
 -1       366 4.35367E+00-2.36099E-01 2.66577E-16
 -1       367 5.47156E+00-2.59454E-01 3.35025E-16
 -1       368 5.10627E+00-2.50331E-01 3.12659E-16
 -1       369 5.72704E+00-3.07343E-01 3.50669E-16
 -1       370 2.56669E+00-2.21539E-01 1.57159E-16
 -1       371 4.55303E+00 8.78761E-03 2.78783E-16
 -1       372 5.27890E+00-3.89967E-01 3.23229E-16
 -1       373 3.48031E+00-3.71535E-01 2.13100E-16
 -1       374 5.42455E+00-6.80070E-02 3.32147E-16
 -1       375 2.60036E+00-2.92356E-01 1.59221E-16
 -1       376 2.66609E+00-2.91923E-01 1.63246E-16
 -1       377 5.74391E+00-4.67515E-01 3.51702E-16
 -1       378 6.05451E+00-3.97883E-01 3.70719E-16
 -1       379 5.75506E+00-1.77689E-01 3.52384E-16
 -1       380 6.03287E+00-1.64771E-01 3.69394E-16
 -1       381 6.01335E+00-2.14686E-01 3.68200E-16
 -1       382 5.94784E+00-2.02939E-01 3.64188E-16
 -1       383 6.02701E+00-3.46735E-01 3.69036E-16
 -1       384 5.95716E+00-3.52720E-01 3.64759E-16
 -1       385 3.83011E+00-1.73466E-01 2.34519E-16
 -1       386 3.28736E+00-1.67345E-01 2.01286E-16
 -1       387 2.61147E+00-1.50734E-01 1.59901E-16
 -1       388 2.67122E+00-1.52827E-01 1.63560E-16
 -1       389 2.09311E+00-5.75835E-01 1.28162E-16
 -1       390 2.08385E+00-5.52195E-01 1.27595E-16
 -1       391 2.06342E+00-5.66663E-01 1.26344E-16
 -1       392 2.09904E+00-5.44255E-01 1.28525E-16
 -1       393 2.10021E+00-5.12922E-01 1.28597E-16
 -1       394 2.08536E+00-5.21676E-01 1.27687E-16
 -1       395 2.09776E+00-4.82486E-01 1.28447E-16
 -1       396 2.07707E+00-5.00079E-01 1.27180E-16
 -1       397 2.06485E+00-5.37665E-01 1.26432E-16
 -1       398 2.04072E+00-5.60388E-01 1.24954E-16
 -1       399 2.14587E+00-1.12116E-01 1.31392E-16
 -1       400 2.15734E+00-1.69679E-01 1.32095E-16
 -1       401 2.14284E+00-1.59248E-01 1.31207E-16
 -1       402 2.13112E+00-1.03773E-01 1.30489E-16
 -1       403 2.17906E+00-1.78520E-01 1.33424E-16
 -1       404 2.17746E+00-2.41645E-01 1.33326E-16
 -1       405 2.15832E+00-2.30593E-01 1.32155E-16
 -1       406 2.14809E+00-2.92715E-01 1.31528E-16
 -1       407 2.14020E+00-2.78478E-01 1.31045E-16
 -1       408 2.14618E+00-2.18049E-01 1.31411E-16
 -1       409 2.14113E+00-2.04123E-01 1.31102E-16
 -1       410 2.13561E+00-1.47284E-01 1.30764E-16
 -1       411 2.35016E+00-1.82706E-01 1.43901E-16
 -1       412 2.30302E+00-1.06810E-01 1.41015E-16
 -1       413 2.36974E+00-1.09829E-01 1.45100E-16
 -1       414 2.43292E+00-1.86107E-01 1.48969E-16
 -1       415 2.25480E+00-1.07668E-01 1.38062E-16
 -1       416 2.18489E+00-4.34559E-02 1.33781E-16
 -1       417 2.20972E+00-4.77508E-02 1.35302E-16
 -1       418 2.10340E+00-8.10057E-03 1.28792E-16
 -1       419 2.23886E+00-5.97128E-02 1.37086E-16
 -1       420 2.46401E+00-1.23449E-01 1.50872E-16
 -1       421 2.14295E+00 4.51970E-02 1.31214E-16
 -1       422 2.12546E+00 3.30600E-02 1.30143E-16
 -1       423 2.15548E+00-1.57111E-02 1.31981E-16
 -1       424 2.13541E+00 1.00741E-01 1.30752E-16
 -1       425 2.12199E+00 7.85991E-02 1.29930E-16
 -1       426 2.11033E+00 1.00300E-01 1.29216E-16
 -1       427 2.09390E+00 9.06214E-02 1.28210E-16
 -1       428 2.10536E+00 6.82399E-02 1.28912E-16
 -1       429 2.08571E+00 7.11733E-02 1.27708E-16
 -1       430 2.10469E+00 3.54581E-02 1.28871E-16
 -1       431 2.06088E+00 1.36970E-01 1.26189E-16
 -1       432 2.08058E+00 1.24110E-01 1.27395E-16
 -1       433 2.09137E+00 1.44025E-01 1.28055E-16
 -1       434 2.03724E+00 1.32667E-01 1.24741E-16
 -1       435 2.05939E+00 1.14311E-01 1.26097E-16
 -1       436 2.06622E+00 8.65835E-02 1.26516E-16
 -1       437 2.07882E+00 1.00199E-01 1.27287E-16
 -1       438 2.09610E+00 1.15306E-01 1.28345E-16
 -1       439 1.97947E+00-5.37996E-01 1.21204E-16
 -1       440 2.02530E+00-4.98255E-01 1.24010E-16
 -1       441 2.01905E+00-4.82785E-01 1.23627E-16
 -1       442 2.03084E+00-5.05057E-01 1.24349E-16
 -1       443 2.07988E+00-4.57142E-01 1.27352E-16
 -1       444 2.08504E+00-4.54415E-01 1.27668E-16
 -1       445 2.14852E+00-4.02569E-01 1.31555E-16
 -1       446 2.17130E+00-3.99718E-01 1.32949E-16
 -1       447 2.09203E+00-4.45602E-01 1.28096E-16
 -1       448 2.09905E+00-4.28387E-01 1.28525E-16
 -1       449 2.23288E+00-3.76708E-01 1.36720E-16
 -1       450 2.36041E+00-3.30329E-01 1.44528E-16
 -1       451 2.45947E+00-3.13948E-01 1.50594E-16
 -1       452 2.19941E+00-3.91592E-01 1.34670E-16
 -1       453 2.24045E+00-3.40538E-01 1.37184E-16
 -1       454 2.29083E+00-3.37152E-01 1.40268E-16
 -1       455 2.34380E+00-2.65617E-01 1.43511E-16
 -1       456 2.42936E+00-2.57758E-01 1.48750E-16
 -1       457 2.02308E+00 4.45378E-02 1.23874E-16
 -1       458 2.03432E+00 5.45370E-02 1.24562E-16
 -1       459 1.98096E+00 9.82276E-02 1.21295E-16
 -1       460 2.10249E+00 4.87903E-03 1.28736E-16
 -1       461 2.16885E+00-4.77728E-02 1.32800E-16
 -1       462 2.10183E+00 7.50110E-03 1.28696E-16
 -1       463 2.10278E+00 2.39883E-03 1.28754E-16
 -1       464 2.04466E+00 5.46921E-02 1.25195E-16
 -1       465 1.99609E+00 1.43376E-01 1.22221E-16
 -1       466 2.00674E+00 1.28891E-01 1.22873E-16
 -1       467 2.02109E+00 1.37255E-01 1.23752E-16
 -1       468 1.97911E+00 1.38220E-01 1.21182E-16
 -1       469 1.97589E+00 1.25834E-01 1.20984E-16
 -1       470 1.99285E+00 1.25756E-01 1.22023E-16
 -1       471 2.01096E+00 1.03590E-01 1.23132E-16
 -1       472 2.02130E+00 1.04769E-01 1.23765E-16
 -1       473 2.09397E+00-1.63671E-02 1.28215E-16
 -1       474 2.11138E+00-5.74995E-02 1.29281E-16
 -1       475 2.11179E+00-5.52425E-02 1.29306E-16
 -1       476 2.09603E+00-1.46621E-02 1.28341E-16
 -1       477 2.11566E+00-5.88613E-02 1.29542E-16
 -1       478 2.12574E+00-1.01419E-01 1.30160E-16
 -1       479 2.13626E+00-1.43120E-01 1.30804E-16
 -1       480 2.12561E+00-9.83152E-02 1.30152E-16
 -1       481 2.12927E+00-9.42904E-02 1.30376E-16
 -1       482 2.11558E+00-5.19450E-02 1.29538E-16
 -1       483 2.05358E+00-4.84904E-01 1.25741E-16
 -1       484 2.07321E+00-4.57351E-01 1.26944E-16
 -1       485 2.09771E+00-4.15869E-01 1.28444E-16
 -1       486 2.08347E+00-4.46882E-01 1.27572E-16
 -1       487 2.05366E+00-4.88823E-01 1.25746E-16
 -1       488 2.07030E+00-4.67099E-01 1.26765E-16
 -1       489 2.08655E+00-4.33788E-01 1.27760E-16
 -1       490 2.09770E+00-4.17128E-01 1.28443E-16
 -1       491 2.11373E+00-3.73155E-01 1.29424E-16
 -1       492 2.10635E+00-3.90583E-01 1.28973E-16
 -1       493 2.12641E+00-3.35952E-01 1.30201E-16
 -1       494 2.12423E+00-3.62504E-01 1.30067E-16
 -1       495 2.14211E+00-1.22307E-01 1.31162E-16
 -1       496 2.15227E+00-9.18179E-02 1.31784E-16
 -1       497 2.13429E+00-6.56808E-02 1.30683E-16
 -1       498 2.14596E+00-1.80900E-01 1.31398E-16
 -1       499 2.15886E+00-1.58725E-01 1.32188E-16
 -1       500 2.17987E+00-2.04298E-01 1.33474E-16
 -1       501 2.17599E+00-1.26085E-01 1.33237E-16
 -1       502 2.16392E+00-5.08886E-02 1.32497E-16
 -1       503 1.96733E+00-5.53959E-01 1.20460E-16
 -1       504 1.99156E+00-5.36821E-01 1.21944E-16
 -1       505 1.97062E+00-5.60998E-01 1.20662E-16
 -1       506 1.98471E+00-5.56927E-01 1.21524E-16
 -1       507 1.99226E+00-5.42724E-01 1.21986E-16
 -1       508 2.02869E+00-5.09913E-01 1.24217E-16
 -1       509 2.11673E+00-4.47224E-01 1.29608E-16
 -1       510 2.14251E+00-3.98475E-01 1.31187E-16
 -1       511 2.12398E+00-3.98684E-01 1.30052E-16
 -1       512 2.09968E+00-4.48570E-01 1.28564E-16
 -1       513 2.16035E+00-4.09999E-01 1.32279E-16
 -1       514 2.17323E+00-3.38000E-01 1.33067E-16
 -1       515 2.17994E+00-2.61833E-01 1.33478E-16
 -1       516 2.15184E+00-3.36835E-01 1.31758E-16
 -1       517 2.13228E+00-3.47854E-01 1.30560E-16
 -1       518 2.10603E+00-4.10601E-01 1.28953E-16
 -1       519 2.14906E+00-4.90922E-02 1.31588E-16
 -1       520 2.13287E+00-5.07103E-02 1.30596E-16
 -1       521 2.09475E+00 2.29462E-03 1.28262E-16
 -1       522 2.21497E+00-1.08136E-01 1.35624E-16
 -1       523 2.18587E+00-1.10160E-01 1.33841E-16
 -1       524 2.20548E+00-1.78900E-01 1.35042E-16
 -1       525 2.16287E+00-1.11561E-01 1.32433E-16
 -1       526 2.12070E+00-5.20923E-02 1.29851E-16
 -1       527 2.13266E+00-4.55007E-01 1.30583E-16
 -1       528 2.14632E+00-4.74186E-01 1.31420E-16
 -1       529 2.11280E+00-4.89061E-01 1.29367E-16
 -1       530 2.11344E+00-5.29126E-01 1.29406E-16
 -1       531 2.12592E+00-5.06260E-01 1.30171E-16
 -1       532 2.13721E+00-5.32325E-01 1.30862E-16
 -1       533 2.20631E+00-3.36043E-01 1.35093E-16
 -1       534 2.24006E+00-2.60362E-01 1.37160E-16
 -1       535 2.28566E+00-2.64030E-01 1.39952E-16
 -1       536 2.20468E+00-2.54975E-01 1.34993E-16
 -1       537 2.24266E+00-1.81607E-01 1.37319E-16
 -1       538 2.29017E+00-1.82810E-01 1.40228E-16
 -1       539 2.11924E+00-2.45468E-03 1.29761E-16
 -1       540 2.12915E+00-3.64446E-02 1.30369E-16
 -1       541 2.08085E+00 4.71123E-02 1.27411E-16
 -1       542 2.09620E+00 9.78408E-03 1.28351E-16
 -1       543 2.08239E+00 1.82192E-02 1.27505E-16
 -1       544 2.10783E+00-2.35334E-02 1.29063E-16
 -1       545 2.05995E+00 4.20288E-02 1.26131E-16
 -1       546 2.02340E+00 8.00426E-02 1.23893E-16
 -1       547 2.00523E+00 8.87099E-02 1.22781E-16
 -1       548 2.03528E+00 7.32549E-02 1.24621E-16
 -1       549 1.99607E+00 1.07521E-01 1.22220E-16
 -1       550 1.97626E+00 1.12732E-01 1.21007E-16
 -1       551 2.06153E+00-5.10260E-01 1.26228E-16
 -1       552 2.05017E+00-5.15662E-01 1.25532E-16
 -1       553 2.02831E+00-5.64377E-01 1.24194E-16
 -1       554 2.08489E+00-4.59727E-01 1.27658E-16
 -1       555 2.07518E+00-4.66021E-01 1.27064E-16
 -1       556 2.04296E+00-5.16315E-01 1.25091E-16
 -1       557 2.11434E+00-5.74697E-01 1.29462E-16
 -1       558 2.10655E+00-5.60528E-01 1.28985E-16
 -1       559 2.13045E+00-5.59133E-01 1.30448E-16
 -1       560 2.12116E+00-5.45865E-01 1.29879E-16
 -1       561 2.15023E+00-2.32770E-01 1.31659E-16
 -1       562 2.14605E+00-2.88716E-01 1.31403E-16
 -1       563 2.13953E+00-2.57203E-01 1.31004E-16
 -1       564 2.13082E+00-3.13840E-01 1.30471E-16
 -1       565 2.04882E+00 9.50218E-02 1.25450E-16
 -1       566 2.06492E+00 5.68227E-02 1.26436E-16
 -1       567 2.03400E+00 1.01333E-01 1.24543E-16
 -1       568 2.04329E+00 6.93869E-02 1.25111E-16
 -1       569 2.05253E+00 6.44857E-02 1.25677E-16
 -1       570 2.07257E+00 2.67764E-02 1.26904E-16
 -1       571 2.00649E+00-5.63369E-01 1.22858E-16
 -1       572 2.01119E+00-5.38056E-01 1.23146E-16
 -1       573 2.02541E+00-5.40580E-01 1.24016E-16
 -1       574 2.03401E+00-5.14461E-01 1.24543E-16
 -1       575 2.10454E+00 1.29493E-01 1.28861E-16
 -1       576 2.11285E+00 1.42319E-01 1.29370E-16
 -1       577 2.11908E+00 1.14918E-01 1.29752E-16
 -1       578 2.12897E+00 1.26838E-01 1.30358E-16
 -1       579 2.12782E+00-3.81722E-01 1.30287E-16
 -1       580 2.13578E+00-3.95410E-01 1.30775E-16
 -1       581 2.16081E+00-3.12051E-01 1.32307E-16
 -1       582 2.18000E+00-3.26745E-01 1.33482E-16
 -1       583 2.09239E+00-1.08981E-02 1.28118E-16
 -1       584 2.09310E+00-4.44342E-03 1.28161E-16
 -1       585 2.06742E+00 3.17970E-02 1.26589E-16
 -1       586 2.06366E+00 3.72460E-02 1.26359E-16
 -1       587 2.69944E+00-2.02015E-01 1.65288E-16
 -1       588 2.81060E+00-2.09487E-01 1.72094E-16
 -1       589 2.80663E+00-2.75551E-01 1.71851E-16
 -1       590 2.69590E+00-2.51757E-01 1.65071E-16
 -1       591 2.69976E+00-1.35054E-01 1.65307E-16
 -1       592 2.93230E+00-1.42173E-01 1.79546E-16
 -1       593 3.03338E+00-2.43191E-01 1.85735E-16
 -1       594 3.35755E+00-3.06288E-01 2.05584E-16
 -1       595 3.03527E+00-3.27437E-01 1.85851E-16
 -1       596 2.69788E+00-3.08930E-01 1.65192E-16
 -1       597 4.82956E+00 1.98728E-02 2.95715E-16
 -1       598 4.63270E+00-2.93015E-02 2.83661E-16
 -1       599 4.81874E+00-7.24935E-02 2.95053E-16
 -1       600 5.06534E+00-1.71407E-02 3.10153E-16
 -1       601 4.51662E+00-9.39452E-03 2.76554E-16
 -1       602 4.51068E+00-3.39740E-02 2.76190E-16
 -1       603 4.62672E+00-8.64689E-02 2.83295E-16
 -1       604 5.05348E+00-1.43113E-01 3.09426E-16
 -1       605 4.26073E+00-3.29071E-01 2.60886E-16
 -1       606 3.80028E+00-4.89122E-01 2.32692E-16
 -1       607 4.26958E+00-5.29984E-01 2.61428E-16
 -1       608 4.71887E+00-3.71969E-01 2.88938E-16
 -1       609 3.32491E+00-4.74849E-01 2.03585E-16
 -1       610 3.32946E+00-6.23092E-01 2.03864E-16
 -1       611 3.80602E+00-6.65683E-01 2.33044E-16
 -1       612 4.72855E+00-5.91865E-01 2.89531E-16
 -1       613 4.91851E+00-1.64865E-01 3.01162E-16
 -1       614 4.54464E+00-2.39367E-01 2.78270E-16
 -1       615 4.54267E+00-1.57444E-01 2.78149E-16
 -1       616 4.54651E+00-3.21296E-01 2.78384E-16
 -1       617 4.16103E+00-3.15425E-01 2.54781E-16
 -1       618 3.76525E+00-3.10521E-01 2.30548E-16
 -1       619 4.15943E+00-2.33065E-01 2.54683E-16
 -1       620 4.15770E+00-1.50747E-01 2.54577E-16
 -1       621 5.64635E+00-1.90515E-01 3.45728E-16
 -1       622 5.28970E+00-2.54533E-01 3.23890E-16
 -1       623 5.28651E+00-1.73359E-01 3.23695E-16
 -1       624 5.29175E+00-3.35542E-01 3.24015E-16
 -1       625 4.92292E+00-3.28117E-01 3.01432E-16
 -1       626 4.92057E+00-2.46453E-01 3.01288E-16
 -1       627 5.98873E+00-2.98251E-01 3.66692E-16
 -1       628 5.84345E+00-3.20572E-01 3.57797E-16
 -1       629 5.83697E+00-2.59351E-01 3.57400E-16
 -1       630 5.98594E+00-2.61479E-01 3.66521E-16
 -1       631 5.90159E+00-3.61991E-01 3.61356E-16
 -1       632 5.60310E+00-3.65029E-01 3.43080E-16
 -1       633 5.60004E+00-2.84805E-01 3.42892E-16
 -1       634 5.89190E+00-1.90345E-01 3.60763E-16
 -1       635 2.51631E+00-2.53465E-01 1.54075E-16
 -1       636 2.59657E+00-2.51156E-01 1.58989E-16
 -1       637 2.53138E+00-3.04131E-01 1.54997E-16
 -1       638 2.51939E+00-1.88786E-01 1.54263E-16
 -1       639 2.54458E+00-1.36102E-01 1.55805E-16
 -1       640 2.60055E+00-1.93078E-01 1.59232E-16
 -1       641 2.66520E+00-1.96237E-01 1.63191E-16
 -1       642 2.65895E+00-2.55604E-01 1.62809E-16
 -1       643 4.59161E+00 5.24664E-03 2.81146E-16
 -1       644 4.49833E+00 2.61102E-03 2.75434E-16
 -1       645 4.59544E+00 2.12270E-02 2.81380E-16
 -1       646 5.39910E+00-3.25855E-01 3.30589E-16
 -1       647 5.40621E+00-4.15820E-01 3.31024E-16
 -1       648 5.82043E+00-3.53784E-01 3.56387E-16
 -1       649 5.01183E+00-4.33211E-01 3.06876E-16
 -1       650 5.15557E+00-5.60125E-01 3.15677E-16
 -1       651 3.63665E+00-3.27436E-01 2.22673E-16
 -1       652 3.63864E+00-3.86523E-01 2.22795E-16
 -1       653 3.16427E+00-4.00306E-01 1.93749E-16
 -1       654 5.24216E+00-7.31370E-02 3.20979E-16
 -1       655 5.51787E+00-3.36306E-02 3.37861E-16
 -1       656 5.32601E+00-1.68858E-01 3.26113E-16
 -1       657 5.51148E+00-9.87282E-02 3.37470E-16
 -1       658 5.83486E+00-1.02808E-01 3.57270E-16
 -1       659 2.55106E+00-3.07333E-01 1.56202E-16
 -1       660 2.63064E+00-2.82937E-01 1.61075E-16
 -1       661 2.62069E+00-2.96890E-01 1.60466E-16
 -1       662 2.60691E+00-2.86485E-01 1.59622E-16
 -1       663 2.67672E+00-2.51681E-01 1.63897E-16
 -1       664 2.68222E+00-2.84557E-01 1.64233E-16
 -1       665 2.66020E+00-2.82210E-01 1.62885E-16
 -1       666 2.65353E+00-3.09196E-01 1.62476E-16
 -1       667 5.64059E+00-4.54911E-01 3.45375E-16
 -1       668 5.91081E+00-4.23533E-01 3.61921E-16
 -1       669 6.02931E+00-3.52328E-01 3.69176E-16
 -1       670 5.64447E+00-5.31079E-01 3.45613E-16
 -1       671 6.02891E+00-4.15765E-01 3.69152E-16
 -1       672 6.05735E+00-4.00848E-01 3.70893E-16
 -1       673 6.04472E+00-3.94596E-01 3.70120E-16
 -1       674 6.04764E+00-3.94390E-01 3.70299E-16
 -1       675 6.05382E+00-3.93551E-01 3.70677E-16
 -1       676 6.04458E+00-3.61816E-01 3.70111E-16
 -1       677 5.67929E+00-1.53555E-01 3.47745E-16
 -1       678 5.89441E+00-1.73492E-01 3.60917E-16
 -1       679 6.00759E+00-1.50412E-01 3.67847E-16
 -1       680 5.67160E+00-2.11802E-01 3.47274E-16
 -1       681 6.00484E+00-2.10179E-01 3.67679E-16
 -1       682 6.02190E+00-2.00751E-01 3.68723E-16
 -1       683 6.03271E+00-1.68824E-01 3.69385E-16
 -1       684 6.02230E+00-1.69061E-01 3.68747E-16
 -1       685 6.02971E+00-1.64499E-01 3.69201E-16
 -1       686 6.03678E+00-1.60597E-01 3.69634E-16
 -1       687 6.02310E+00-1.91550E-01 3.68796E-16
 -1       688 6.00016E+00-2.19955E-01 3.67392E-16
 -1       689 5.98099E+00-1.91143E-01 3.66218E-16
 -1       690 6.01867E+00-2.35851E-01 3.68525E-16
 -1       691 6.00617E+00-2.62930E-01 3.67760E-16
 -1       692 5.94258E+00-2.15527E-01 3.63866E-16
 -1       693 5.96788E+00-2.15831E-01 3.65415E-16
 -1       694 5.93397E+00-1.80812E-01 3.63339E-16
 -1       695 6.03174E+00-3.26789E-01 3.69325E-16
 -1       696 6.01097E+00-3.40611E-01 3.68054E-16
 -1       697 6.01004E+00-2.98815E-01 3.67997E-16
 -1       698 6.04026E+00-3.69804E-01 3.69847E-16
 -1       699 5.99291E+00-3.66641E-01 3.66948E-16
 -1       700 5.94519E+00-3.73055E-01 3.64026E-16
 -1       701 5.97649E+00-3.41844E-01 3.65942E-16
 -1       702 5.95014E+00-3.39881E-01 3.64329E-16
 -1       703 3.89492E+00-1.19429E-01 2.38487E-16
 -1       704 3.69648E+00-1.99371E-01 2.26337E-16
 -1       705 3.56061E+00-1.42365E-01 2.18017E-16
 -1       706 3.89648E+00-2.01951E-01 2.38583E-16
 -1       707 3.56292E+00-3.08385E-01 2.18159E-16
 -1       708 3.21632E+00-1.94825E-01 1.96937E-16
 -1       709 3.42514E+00-1.96062E-01 2.09722E-16
 -1       710 3.21566E+00-1.11284E-01 1.96896E-16
 -1       711 2.61899E+00-1.58089E-01 1.60361E-16
 -1       712 2.64010E+00-1.62109E-01 1.61654E-16
 -1       713 2.68118E+00-2.00785E-01 1.64169E-16
 -1       714 2.55910E+00-1.31756E-01 1.56694E-16
 -1       715 2.62753E+00-1.45212E-01 1.60885E-16
 -1       716 2.65631E+00-1.31964E-01 1.62647E-16
 -1       717 2.66656E+00-1.63550E-01 1.63274E-16
 -1       718 2.68671E+00-1.62099E-01 1.64508E-16
 -1       719 6.07105E+00-2.97245E-01 4.33315E-16
 -1       720 6.11510E+00-3.28125E-01 4.54010E-16
 -1       721 6.09781E+00-3.12682E-01 1.81900E-16
 -1       722 6.09131E+00-3.09894E-01 1.21655E-16
 -1       723 6.10860E+00-3.26658E-01 5.31080E-17
 -1       724 6.10780E+00-3.20405E-01 1.89018E-16
 -1       725 6.10133E+00-3.18227E-01 8.02012E-17
 -1       726 6.12094E+00-3.29610E-01 2.54657E-16
 -1       727 6.10365E+00-3.15505E-01 2.52298E-16
 -1       728 6.11366E+00-3.22608E-01 3.55693E-16
 -1       729 6.06365E+00-2.93374E-01 5.25669E-16
 -1       730 6.05399E+00-2.89579E-01 4.12321E-16
 -1       731 6.04696E+00-2.82311E-01 2.70077E-16
 -1       732 6.11955E+00-3.35842E-01 4.59719E-17
 -1       733 6.11305E+00-3.35162E-01 4.53570E-17
 -1       734 6.07595E+00-3.01165E-01 4.54865E-16
 -1       735 6.05926E+00-2.96846E-01 4.66420E-16
 -1       736 6.12539E+00-3.36538E-01 7.23501E-17
 -1       737 6.08541E+00-3.04964E-01 3.53963E-16
 -1       738 6.07872E+00-3.01697E-01 2.99777E-16
 -1       739 6.09105E+00-3.08273E-01 3.26119E-16
 -1       740 6.09464E+00-3.11297E-01-2.57395E-16
 -1       741 6.09666E+00-3.14045E-01-4.64571E-16
 -1       742 6.10464E+00-3.19316E-01-3.73877E-16
 -1       743 6.10312E+00-3.16544E-01-2.80295E-16
 -1       744 6.08787E+00-3.08458E-01-2.70820E-16
 -1       745 6.09788E+00-3.17136E-01-3.26586E-16
 -1       746 6.10513E+00-3.25927E-01-6.54439E-16
 -1       747 6.10531E+00-3.22433E-01-4.63607E-16
 -1       748 6.11193E+00-3.27391E-01 2.77244E-17
 -1       749 6.11180E+00-3.24265E-01 2.28510E-16
 -1       750 6.11080E+00-3.21506E-01 1.59459E-17
 -1       751 6.10899E+00-3.19072E-01 1.71093E-16
 -1       752 6.10080E+00-3.14085E-01-8.35454E-17
 -1       753 6.11809E+00-3.28868E-01 3.19535E-16
 -1       754 6.11765E+00-3.26119E-01 1.98077E-16
 -1       755 6.12363E+00-3.30351E-01-2.26563E-16
 -1       756 6.11639E+00-3.23711E-01 4.95072E-16
 -1       757 6.10637E+00-3.16958E-01 1.35371E-16
 -1       758 6.05940E+00-2.91170E-01 6.91943E-16
 -1       759 6.05542E+00-2.88599E-01 4.33226E-16
 -1       760 6.04052E+00-2.79873E-01 5.24084E-17
 -1       761 6.06767E+00-2.95389E-01 6.89847E-16
 -1       762 6.06320E+00-2.93414E-01 5.39520E-16
 -1       763 6.05096E+00-2.85607E-01 1.82285E-16
 -1       764 6.04297E+00-2.85755E-01 5.03587E-16
 -1       765 6.03723E+00-2.72466E-01-2.12338E-16
 -1       766 6.10956E+00-3.34823E-01-7.54348E-16
 -1       767 6.11118E+00-3.30901E-01-6.17205E-16
 -1       768 6.11421E+00-3.39438E-01-5.72133E-16
 -1       769 6.12071E+00-3.39705E-01-3.39283E-16
 -1       770 6.11638E+00-3.35502E-01-5.85662E-16
 -1       771 6.11768E+00-3.31982E-01-4.17460E-17
 -1       772 6.05900E+00-2.99250E-01 9.48657E-16
 -1       773 6.06772E+00-2.98243E-01 6.47349E-16
 -1       774 6.07789E+00-3.03398E-01 5.00521E-16
 -1       775 6.04955E+00-2.98942E-01 8.60475E-16
 -1       776 6.05711E+00-2.93548E-01 5.62566E-16
 -1       777 6.07381E+00-2.99125E-01 6.24304E-16
 -1       778 6.12352E+00-3.33082E-01-2.49556E-16
 -1       779 6.12807E+00-3.36884E-01-5.23797E-16
 -1       780 6.12255E+00-3.36190E-01-5.44084E-16
 -1       781 6.12655E+00-3.39981E-01-7.75425E-16
 -1       782 6.08533E+00-3.05782E-01-1.53015E-16
 -1       783 6.07508E+00-2.99957E-01 1.36924E-16
 -1       784 6.09188E+00-3.08823E-01 4.86145E-17
 -1       785 6.08218E+00-3.03351E-01 2.54453E-16
 -1       786 6.07842E+00-3.01103E-01 3.99939E-16
 -1       787 6.07149E+00-2.97620E-01 4.29005E-16
 -1       788 6.09358E+00-3.10030E-01 1.37189E-16
 -1       789 6.09766E+00-3.11902E-01 5.07029E-17
 -1       790 6.08381E+00-3.04633E-01 4.07208E-16
 -1       791 6.08834E+00-3.06597E-01 3.05137E-16
 -3
    1PSTEP                         2           1           1          
  100CL  101 1.000000000         783                     0    1           1
 -4  STRESS      6    1
 -5  SXX         1    4    1    1
 -5  SYY         1    4    2    2
 -5  SZZ         1    4    3    3
 -5  SXY         1    4    1    2
 -5  SYZ         1    4    2    3
 -5  SZX         1    4    3    1
 -1         1 2.18043E+10 3.23487E+08 4.01983E+11 1.23726E+09 2.58208E-04 7.42347E-05
 -1         2 5.68976E+09 5.09086E+09 2.68999E+11-7.27991E+09-3.24639E-04-6.08354E-04
 -1         3 7.81931E+11 8.13290E+09 5.27617E+11-4.27558E+10-6.80043E-05-1.11406E-03
 -1         4-4.05516E+10-3.38944E+11 2.49683E+11 4.58445E+09 1.48956E-06 1.14821E-03
 -1         5 8.26167E+10 2.22628E+11 3.61992E+11 8.32501E+09-2.56977E-05-1.22529E-03
 -1         6-2.21878E+09-1.87350E+11 2.08576E+11 6.21817E+09 2.19539E-05-4.42591E-05
 -1         7 1.25407E+11 1.24019E+11 3.40891E+11-5.95901E+10-1.37483E-04-2.64376E-04
 -1         8 1.10618E+11 1.76400E+11 3.71508E+11 4.50538E+10 1.60743E-05-2.92078E-04
 -1         9 3.85121E+08-1.66669E+09 1.68708E+11 2.15111E+08-4.69273E-05-7.84942E-05
 -1        10 3.75649E+08 2.46152E+09 1.73125E+11-6.54622E+08 5.64541E-06 1.17377E-03
 -1        11 6.38825E+11 1.46216E+10 5.57792E+11-5.02779E+10 4.53800E-05 9.03114E-04
 -1        14-2.58197E+07-1.72557E+07-1.32234E+09-1.10134E+07 1.30849E-04-2.73664E-04
 -1        15-2.56336E+07-1.72224E+07-1.32229E+09 1.10213E+07 2.71459E-04 2.24146E-04
 -1        16 1.29262E+09 7.05410E+09 4.49711E+11 1.58420E+08-7.74684E-05 2.85574E-03
 -1        18 2.14630E+10 2.32750E+08 4.01610E+11-1.12561E+09-5.54202E-05 4.25904E-04
 -1        20 1.06179E+09 6.97686E+09 4.49839E+11-8.71025E+07-2.96967E-04 1.72251E-03
 -1        21 7.75152E+09 1.23101E+08 2.83259E+11 2.04216E+09-2.50780E-04 2.56954E-04
 -1        22 3.96923E+09 4.81968E+09 2.68238E+11 6.83009E+09 3.17479E-05 1.50541E-03
 -1        24 9.87303E+09 1.27796E+09 2.84418E+11-1.59749E+09-2.71922E-04-1.57213E-03
 -1        25 3.69217E+11 1.62373E+11 4.27844E+11 2.75373E+11 3.47425E-05-5.02630E-04
 -1        27 7.50098E+11 2.12965E+10 5.21811E+11 4.51982E+10 6.55240E-06 1.78114E-03
 -1        28 3.59894E+11 1.78686E+11 4.29935E+11-2.82625E+11-1.37587E-04-7.05209E-04
 -1        30-2.41565E+10-2.30563E+11 2.86015E+11 8.81250E+08-6.73445E-06 1.80336E-03
 -1        32 6.56270E+11 9.63336E+09 5.62309E+11 6.42620E+10-8.22237E-05-1.29565E-03
 -1        33 4.33262E+10 3.77261E+08 3.72262E+11 8.25860E+08 1.38786E-04 6.94280E-04
 -1        34 4.25703E+10 6.34044E+08 3.42463E+11 7.82959E+08 6.48177E-05 1.34345E-04
 -1        35 3.07861E+10-2.84013E+08 3.13047E+11 6.87683E+08-4.51098E-05-3.80394E-04
 -1        36 3.41904E+10 5.97890E+08 3.86510E+11-4.13249E+08-4.31046E-05-1.85358E-03
 -1        37 4.31946E+10 1.64971E+08 3.56637E+11 5.97479E+08 1.90352E-04-6.21914E-04
 -1        38 3.73753E+10 1.38775E+09 3.27860E+11-3.38055E+07 2.05364E-05 1.29556E-04
 -1        39 1.89229E+10 2.96541E+08 2.97850E+11-1.12577E+09-5.47655E-05-2.36646E-03
 -1        40 3.03753E+10 3.19300E+10 2.73779E+11 3.37552E+10 3.26738E-05-4.17831E-04
 -1        41 5.43956E+10 5.76242E+10 2.84436E+11 6.48990E+10-7.93292E-08-8.82048E-04
 -1        42 9.28390E+10 1.11482E+11 3.14453E+11 1.05721E+11-2.05872E-05 4.87770E-05
 -1        43 1.79885E+10 1.91540E+10 2.70595E+11 2.04111E+10-2.71518E-05-1.39400E-03
 -1        44 4.65211E+10 4.80870E+10 2.80527E+11 4.97595E+10 2.41468E-05 5.67413E-04
 -1        45 7.29408E+10 8.18479E+10 2.97277E+11 8.60074E+10 1.21804E-05 7.99748E-04
 -1        46 1.78740E+11 1.38931E+11 3.53420E+11 1.77783E+11-7.49450E-05 3.04732E-04
 -1        47 6.30523E+11-2.04651E+10 4.92176E+11-6.99365E+09-9.02040E-05-2.81560E-03
 -1        48 6.34474E+11 9.59235E+08 5.13460E+11 1.02023E+09-5.85838E-05-1.40529E-04
 -1        49 6.22175E+11-8.83481E+08 5.19974E+11-3.42116E+08-5.79909E-05-1.52123E-03
 -1        50 6.12301E+11 8.15801E+07 5.25729E+11-8.38943E+07 3.23301E-06 8.39789E-05
 -1        51 6.02248E+11-4.44633E+08 5.29227E+11 1.39409E+08-3.52764E-06-1.14891E-03
 -1        52 5.93805E+11 1.54656E+08 5.32194E+11-1.03643E+09-2.35486E-05-2.92925E-03
 -1        53 5.73863E+11-4.60929E+09 5.28709E+11 3.93428E+09 3.98631E-05 2.80448E-04
 -1        54 6.72760E+11 1.21319E+10 5.06389E+11 1.19888E+10-8.51413E-05-7.96860E-04
 -1        55 6.38031E+11-3.26859E+09 5.06885E+11-2.38564E+09-2.99484E-05-1.86281E-04
 -1        56 6.29535E+11 1.44941E+09 5.17865E+11 4.74494E+08 6.49404E-05 4.58889E-03
 -1        57 6.17029E+11-3.57773E+08 5.23076E+11 2.39431E+08 1.12404E-05-2.82273E-03
 -1        58 6.07344E+11 1.82363E+08 5.27832E+11 7.57088E+07 8.17796E-05-1.99606E-03
 -1        59 5.98573E+11-6.49761E+07 5.31073E+11-2.66547E+06 2.75624E-05-9.52283E-04
 -1        60 5.83649E+11-1.49757E+09 5.30818E+11 4.03483E+08-3.32992E-06-2.02779E-03
 -1        61 5.85747E+11-1.37431E+10 5.31335E+11-5.65884E+09 3.55057E-05-3.07066E-03
 -1        62-1.38086E+11-1.37812E+11 2.55579E+11-2.76934E+10 3.11740E-06-3.37889E-03
 -1        63 6.41438E+08 7.58307E+10 3.28745E+11-1.05606E+09-1.06110E-05-1.67194E-04
 -1        64 1.97469E+11 2.42808E+11 4.12142E+11-7.46104E+09 1.55135E-05 1.35629E-04
 -1        65 4.72459E+10-1.43770E+11 3.22960E+11 2.60885E+09-3.64822E-05 2.34203E-03
 -1        66-4.58497E+09-5.55486E+09 3.18918E+11 4.38902E+09-8.06846E-06 2.85368E-04
 -1        67-1.97821E+11 3.35044E+10 2.42024E+11-7.90751E+09 1.07513E-05-1.84765E-04
 -1        68-4.84316E+10 1.55453E+11 3.05020E+11 1.06207E+10-5.71249E-06-2.02840E-04
 -1        69 9.65414E+09 9.84818E+10 3.01424E+11 7.09819E+09 8.56321E-06-1.46876E-03
 -1        70-3.73303E+10-1.14524E+10 2.53011E+11 5.58538E+09 3.98719E-06 4.36648E-04
 -1        71 3.33094E+09-8.94149E+10 2.40662E+11 6.26396E+09-1.30029E-06 1.08803E-03
 -1        72 8.38176E+09 1.48814E+11 3.16797E+11 5.30375E+09-1.00167E-05-8.64317E-04
 -1        73 3.73414E+08 4.43629E+10 2.81694E+11 4.57883E+09-1.17374E-05-1.28418E-03
 -1        74 7.01491E+09-4.00170E+10 2.57094E+11 7.10420E+09-1.46971E-05-1.21217E-03
 -1        75 3.30224E+08-1.38495E+11 2.24451E+11 6.17896E+09-1.63780E-05 4.49047E-04
 -1        76 2.06088E+09-1.56164E+11 2.28658E+11 8.53140E+09-1.45948E-05 1.03958E-03
 -1        77 3.91272E+08-5.30628E+10 2.84236E+11 2.36369E+09 5.17760E-06-1.60501E-03
 -1        78-3.80729E+10 6.73749E+10 3.40601E+11-2.44252E+10 1.84124E-05 5.84543E-04
 -1        79 1.19223E+09-1.74491E+11 2.15892E+11 1.92556E+08 3.04241E-05-1.20405E-03
 -1        80-4.82916E+09-1.20538E+11 2.48339E+11-7.45391E+09-2.22964E-06-5.83891E-04
 -1        81-4.36209E+10-1.58043E+10 2.98308E+11-9.63704E+09 1.02213E-04-2.54293E-03
 -1        82 1.05173E+10 1.38306E+11 3.90138E+11 2.11478E+10-4.06953E-06-2.31969E-03
 -1        83 1.66278E+11 8.09878E+10 2.50169E+11-8.49894E+10 7.07696E-05 7.20170E-04
 -1        84 3.25479E+11 1.53959E+11 3.97928E+11 4.62761E+08-4.63067E-06 7.67667E-05
 -1        85 1.64500E+11 8.08910E+10 2.49963E+11 8.65897E+10 1.31038E-04 1.49466E-03
 -1        86 8.34489E+10 5.77997E+10 2.18184E+11-9.14421E+10-5.28391E-04-5.13012E-04
 -1        87 2.19870E+11 1.00207E+11 2.72010E+11-4.32381E+10 3.56971E-04-9.78597E-05
 -1        88 2.19941E+11 1.00285E+11 2.72233E+11 4.43750E+10 2.67639E-04-1.92866E-03
 -1        89 8.31933E+10 5.96183E+10 2.19185E+11 9.37638E+10 1.76896E-04-8.62551E-04
 -1        90 1.53109E+11 2.40311E+11 4.45761E+11 1.69102E+10 8.34090E-05 7.87459E-04
 -1        91 8.84645E+09 6.02236E+10 3.00827E+11-5.58481E+09 6.44552E-06 1.02401E-03
 -1        92 4.04924E+10 3.10481E+10 2.46894E+11 4.81244E+09-6.35311E-06 2.86696E-04
 -1        93-9.61499E+10 1.91796E+11 3.73855E+11-8.00736E+09 8.56980E-05-1.02346E-03
 -1        94-1.47811E+10 1.10331E+11 3.33848E+11 1.79936E+09-1.66493E-06-2.22100E-03
 -1        95-1.75964E+10 2.57764E+10 2.55449E+11-5.22170E+07 3.86884E-05-1.77482E-03
 -1        96 1.64001E+08 4.33327E+09 1.98579E+11 3.72825E+07 4.36403E-05-3.98056E-05
 -1        97 3.56611E+08-1.23996E+09 1.69615E+11-1.80129E+09 3.35002E-05 1.44251E-04
 -1        98 3.62327E+08-7.27515E+08 1.70564E+11 2.21501E+08-5.25293E-05-3.17564E-04
 -1        99 1.94665E+09 1.65237E+09 1.72547E+11-1.59761E+09-2.27597E-04 1.64017E-04
 -1       100-1.68008E+08-1.83220E+09 1.68847E+11-6.13470E+08 4.19092E-05 9.68121E-04
 -1       101 4.59443E+08-3.43344E+08 1.70270E+11-7.80415E+08-4.63047E-05 8.21089E-05
 -1       102 2.17940E+09 5.39182E+08 1.71845E+11-1.15512E+09 1.49813E-04 1.26225E-04
 -1       103 1.29679E+09 2.12476E+09 1.72856E+11-9.66035E+08-1.73518E-04 9.58428E-04
 -1       104 3.61643E+09-1.14249E+10 2.27301E+11-3.24481E+09 1.81152E-04 4.45498E-04
 -1       105-1.21627E+10-7.76499E+10 2.58401E+11 5.65280E+08-1.27995E-04-4.87205E-04
 -1       106-1.04315E+11-2.11977E+11 2.38900E+11 2.11594E+10-7.20330E-05 6.73617E-04
 -1       107-7.51463E+07-5.21938E+09 1.99374E+11 2.77686E+08-2.52679E-05-1.08891E-03
 -1       108-2.84332E+09-3.35696E+10 2.46892E+11 1.91980E+09 5.37114E-05-4.08205E-04
 -1       109 1.23689E+11-6.30006E+10 3.29214E+11 1.79925E+10-7.34339E-05 1.77912E-04
 -1       110 3.72957E+10-2.36250E+11 2.92186E+11-3.03086E+10-1.35383E-05 1.61776E-04
 -1       111 5.71342E+11-2.41659E+10 5.23092E+11-1.10421E+10 1.17423E-04-2.03314E-03
 -1       112 5.95601E+11-5.50267E+08 5.33185E+11 1.30485E+09 1.37783E-05-1.84219E-03
 -1       113 6.03680E+11-4.48048E+08 5.30263E+11-3.75913E+08-8.50742E-05 1.80717E-04
 -1       114 6.13663E+11 8.68656E+07 5.26703E+11 4.01969E+07-8.39995E-05-3.09716E-04
 -1       115 6.24033E+11-1.51693E+08 5.21257E+11-2.22989E+07 9.85228E-05-2.31286E-03
 -1       116 6.35554E+11-9.80061E+06 5.13944E+11-4.12248E+08 2.65100E-05 1.11550E-03
 -1       117 6.27510E+11-1.98001E+10 4.91771E+11 1.20307E+10 6.15855E-05 4.88546E-04
 -1       118 5.75389E+11-2.87722E+10 5.24622E+11-3.95268E+09-9.75988E-05-3.17728E-03
 -1       119 5.93233E+11 2.85879E+09 5.35762E+11-2.74604E+09-1.64815E-04-1.76131E-03
 -1       120 5.99689E+11-2.00205E+09 5.31456E+11 3.10807E+08 3.74121E-05-2.43699E-03
 -1       121 6.09067E+11 5.11787E+08 5.29037E+11 2.04059E+08 1.25859E-04-2.12024E-03
 -1       122 6.18878E+11-5.09135E+07 5.24268E+11 6.23206E+07-1.53238E-04-7.53570E-04
 -1       123 6.30339E+11 8.48960E+07 5.18187E+11 1.90054E+08-3.05409E-04-2.31200E-06
 -1       124 6.45533E+11 7.64015E+09 5.12807E+11-4.68011E+08-7.76605E-05-1.08311E-03
 -1       125 6.58472E+11-1.60384E+10 4.94209E+11 1.49415E+09 4.94955E-04-6.13884E-04
 -1       126 9.52788E+10 1.10912E+11 3.15098E+11-1.03923E+11 3.24394E-05 1.13035E-03
 -1       127 5.61168E+10 5.79368E+10 2.85147E+11-6.50896E+10 1.10843E-04-1.27240E-03
 -1       128 3.11670E+10 3.18317E+10 2.74108E+11-3.36470E+10-5.30867E-06-6.87454E-04
 -1       129 1.75069E+11 1.40237E+11 3.52715E+11-1.77333E+11-1.80374E-04 2.17471E-03
 -1       130 7.57337E+10 8.20714E+10 2.98287E+11-8.58242E+10-1.23987E-04-7.41853E-05
 -1       131 4.71711E+10 4.79985E+10 2.80805E+11-4.98197E+10 8.27440E-06 3.23057E-04
 -1       132 1.85421E+10 1.86243E+10 2.70739E+11-2.03627E+10-2.02144E-04 2.92855E-03
 -1       133 3.06549E+10 9.83704E+08 3.13593E+11-1.52252E+09 3.18139E-04 7.93299E-04
 -1       134 4.26958E+10 1.32414E+09 3.42902E+11-1.75506E+09 4.54202E-05-4.38833E-04
 -1       135 4.30482E+10 1.59718E+08 3.72341E+11-9.14376E+08 4.77320E-05 2.62482E-04
 -1       136 1.89671E+10 1.59086E+08 2.97984E+11-1.43516E+09 3.52693E-04-1.59494E-03
 -1       137 3.81624E+10 1.84763E+09 3.28425E+11-9.25138E+08 2.36076E-04-2.30135E-03
 -1       138 4.29833E+10 2.79160E+08 3.56822E+11-9.19631E+08 3.36344E-04 8.37660E-04
 -1       139 3.43920E+10 7.18552E+08 3.86849E+11 5.23799E+08 1.59837E-04-1.78063E-03
 -1       140 1.10392E+09-1.07043E+10 4.47683E+11-7.40074E+08-1.73479E-05 7.52285E-04
 -1       141 8.03578E+08-3.52447E+10 4.44291E+11-2.78348E+08-2.11350E-04 1.34016E-04
 -1       142 5.99543E+08-5.40099E+10 4.41832E+11 7.28732E+08-1.79773E-04-1.30351E-03
 -1       143 8.01032E+08-5.85145E+10 4.41741E+11 7.96786E+08 2.80111E-04 6.47923E-05
 -1       144 4.81578E+07-5.45900E+10 4.41436E+11 4.12172E+08 3.15826E-05 7.45688E-04
 -1       145 9.50950E+08-3.42141E+10 4.44516E+11 1.12873E+09-1.82658E-05-1.05093E-03
 -1       146 1.05453E+09-1.08817E+10 4.47451E+11 6.83709E+08-4.22092E-05-7.89319E-04
 -1       147 6.53346E+08-1.31235E+09 4.48452E+11-2.38008E+08 6.72171E-04 1.45984E-03
 -1       148 1.05054E+08-2.35155E+10 4.45463E+11-3.54961E+08 6.92854E-05 4.52843E-03
 -1       149-4.96653E+08-4.54983E+10 4.42533E+11 1.96132E+08-8.70075E-06 1.98083E-03
 -1       150 2.78533E+08-5.76445E+10 4.41454E+11 1.13343E+09-5.65169E-04 2.39866E-03
 -1       151-3.36154E+08-5.86841E+10 4.40936E+11 3.50666E+08-1.53874E-04-2.17183E-03
 -1       152 8.10397E+08-4.46222E+10 4.43099E+11 8.64115E+08-5.25771E-05 2.82345E-03
 -1       153-1.87354E+08-2.36952E+10 4.45176E+11 4.72921E+08-4.08050E-06 4.46215E-03
 -1       154 5.54516E+08-1.37186E+09 4.48217E+11 3.40511E+08 4.93879E-05-4.91499E-03
 -1       155 4.75843E+10 6.96935E+08 7.67814E+09 2.11016E+09 2.55379E-04 1.54860E-04
 -1       156 3.12826E+10 6.54114E+08 3.02579E+09 5.90653E+08 1.05442E-04 1.11641E-04
 -1       157 2.43730E+10-2.28194E+08 1.43091E+09 1.41566E+08 5.90066E-05-1.10950E-04
 -1       158 1.91494E+10 1.95550E+06 9.48500E+08 2.51359E+07-7.76556E-05-9.74716E-05
 -1       159 1.44841E+10-2.14914E+07 6.58773E+08 3.84079E+06 2.69252E-05-1.66285E-04
 -1       160 9.74781E+09-1.86014E+06 3.29730E+08 1.56753E+06-1.10946E-04 2.87811E-04
 -1       161 4.90587E+09-1.27718E+07-2.39413E+08-7.53298E+06-2.59613E-04-1.94056E-04
 -1       162 5.46366E+10 1.18642E+10 1.32726E+10 4.55576E+09-4.10039E-04-8.63672E-04
 -1       163 3.52259E+10-1.24051E+09 3.44729E+09-2.42203E+08 2.78458E-04 3.72120E-04
 -1       164 2.77825E+10 2.38968E+08 2.17463E+09 2.34533E+08 1.09218E-04-3.31503E-04
 -1       165 2.17042E+10-1.36721E+08 1.14451E+09-1.13724E+05-7.95168E-05-6.58560E-05
 -1       166 1.68417E+10-5.44051E+06 8.07903E+08 4.56253E+06-2.12159E-04-3.79057E-04
 -1       167 1.21300E+10-1.17235E+07 5.11209E+08-3.08367E+05-3.18034E-05 3.24211E-05
 -1       168 7.33662E+09-9.76518E+06 8.62859E+07 4.85499E+05-2.52766E-04 7.71571E-06
 -1       169 2.47773E+09 5.44677E+06-6.76056E+08-8.46379E+06 1.26852E-05 2.65384E-05
 -1       170-2.25830E+07-8.56105E+07-1.34186E+09-1.75632E+07 3.16983E-05-7.20315E-05
 -1       171-2.56402E+07-1.35034E+08-1.35753E+09-1.50411E+04 2.37063E-05 1.79974E-04
 -1       172-2.22991E+07-8.55221E+07-1.34177E+09 1.75923E+07-7.28005E-05-3.58795E-04
 -1       173-5.62209E+06-3.62577E+07-1.32208E+09-1.49145E+07 3.95937E-04-2.26492E-04
 -1       174-2.52421E+07-1.18091E+08-1.35238E+09-5.75026E+06 4.13169E-04 4.20681E-04
 -1       175-2.52303E+07-1.18123E+08-1.35240E+09 5.76526E+06-8.71589E-04 1.92269E-04
 -1       176-5.66175E+06-3.63048E+07-1.32213E+09 1.49675E+07 6.29422E-04-3.09064E-05
 -1       177 4.90591E+09-1.27386E+07-2.39413E+08 7.51039E+06 6.39502E-05-3.42854E-05
 -1       178 9.74785E+09-1.40441E+06 3.29840E+08-1.47171E+06-4.55377E-05-2.49346E-04
 -1       179 1.44843E+10-2.24727E+07 6.58444E+08-3.86599E+06 1.36299E-04 2.34318E-04
 -1       180 1.91499E+10 7.65551E+06 9.49991E+08-2.44434E+07-9.88123E-05-2.66018E-05
 -1       181 2.43732E+10-2.49138E+08 1.42362E+09-1.40024E+08-1.10588E-04-3.16556E-04
 -1       182 3.12756E+10 7.39591E+08 3.04509E+09-5.70480E+08-2.04894E-04 3.95477E-05
 -1       183 4.75363E+10 4.75614E+08 7.58509E+09-1.90919E+09 2.63774E-05-1.98213E-04
 -1       184 2.47782E+09 5.55642E+06-6.75992E+08 8.37826E+06 2.75712E-04 4.48370E-05
 -1       185 7.33663E+09-9.61006E+06 8.63199E+07-5.94223E+05-1.01014E-04 3.70412E-05
 -1       186 1.21302E+10-1.18637E+07 5.11150E+08 3.84091E+05 3.64110E-05-6.61854E-04
 -1       187 1.68416E+10-3.45362E+06 8.08283E+08-4.64253E+06 4.94413E-05 4.56600E-04
 -1       188 2.17047E+10-1.42861E+08 1.14222E+09 2.29344E+06-8.56964E-05-5.03586E-05
 -1       189 2.77818E+10 2.69615E+08 2.18128E+09-2.35258E+08-2.19908E-04-3.12549E-04
 -1       190 3.51403E+10-1.38760E+09 3.37128E+09 2.90075E+08-9.08685E-06-3.25403E-04
 -1       191 5.42893E+10 1.21454E+10 1.32254E+10-4.80575E+09 2.63635E-04-4.83442E-04
 -1       192 7.69077E+08 6.12947E+09 4.44351E+11-2.49608E+09-1.45269E-05-1.34180E-03
 -1       193 2.15985E+09 3.67712E+09 4.31871E+11-4.48190E+09-5.08005E-05-2.13322E-03
 -1       194 7.84659E+09 1.31557E+09 4.16051E+11-3.97335E+09-2.92447E-05-5.72880E-04
 -1       195 1.70823E+09 6.30736E+09 4.48039E+11-1.21658E+09 2.16216E-05-2.17739E-03
 -1       196 2.85983E+09 5.28450E+09 4.39308E+11-3.10577E+09-9.92866E-05 1.09718E-03
 -1       197 6.75772E+09 2.79973E+09 4.24860E+11-4.35534E+09-9.43824E-05 4.14997E-04
 -1       198 1.32796E+10-5.41820E+08 4.07887E+11-2.51691E+09-3.76827E-05 1.70388E-04
 -1       199 7.80064E+09 1.28993E+09 4.16280E+11 3.96509E+09 7.55503E-04 1.52113E-03
 -1       200 2.00587E+09 3.51221E+09 4.32026E+11 4.49928E+09-6.75505E-04-3.95402E-04
 -1       201 6.86374E+08 6.02667E+09 4.44535E+11 2.54355E+09-4.82968E-04 1.14682E-04
 -1       202 1.33045E+10-5.58028E+08 4.08136E+11 2.54380E+09 2.88758E-04-6.00467E-03
 -1       203 6.76751E+09 2.78994E+09 4.25111E+11 4.33694E+09-6.94449E-04 1.25517E-03
 -1       204 2.81417E+09 5.28757E+09 4.39541E+11 3.08954E+09-3.27104E-04-1.72190E-03
 -1       205 1.61266E+09 6.22602E+09 4.48216E+11 1.21522E+09-4.83767E-05 3.19607E-03
 -1       206 3.70242E+09-1.65931E+09 2.76829E+11 6.66882E+08 3.45373E-05-8.78964E-04
 -1       207 1.93908E+09-1.12935E+09 2.72213E+11 1.91991E+09 9.23800E-05-4.22218E-04
 -1       208 1.66446E+09 8.13151E+08 2.69114E+11 4.02099E+09 1.65499E-05 9.70319E-04
 -1       209 6.01697E+09-1.33084E+09 2.79870E+11 4.97518E+08-7.79669E-05 2.01742E-03
 -1       210 4.00332E+09-1.22172E+09 2.74805E+11 1.52622E+09 1.50803E-05 7.51603E-04
 -1       211 2.82757E+09 2.18988E+08 2.70933E+11 3.14802E+09 1.56770E-04-3.17165E-03
 -1       212 3.51601E+09 3.15105E+09 2.68816E+11 5.62634E+09-5.71740E-05 7.36682E-04
 -1       213 9.57034E+08-1.90090E+08 2.68768E+11-3.42753E+09 1.39919E-04-1.05030E-03
 -1       214-1.28422E+09-6.21873E+09 2.69892E+11-2.92252E+09-2.84230E-04-1.97390E-03
 -1       215 4.30678E+09-5.57314E+08 2.77510E+11-1.45170E+09 4.25035E-04 7.36436E-04
 -1       216 4.27095E+09 3.41849E+09 2.69286E+11-4.87845E+09-3.27893E-04 8.77236E-05
 -1       217 4.37897E+09 2.38718E+09 2.72223E+11-2.03805E+09-1.73559E-04-3.96439E-04
 -1       218 4.92718E+09 1.60794E+09 2.76103E+11-9.31870E+08-2.87232E-05-2.19861E-03
 -1       219 6.25499E+09 9.21086E+08 2.80786E+11-1.26188E+09 1.31433E-04-4.20214E-04
 -1       220 6.89631E+11 2.42448E+11 5.53529E+11 3.47347E+11 8.46875E-05 4.55964E-04
 -1       221 8.31447E+11 1.29231E+11 5.67945E+11 2.78717E+11 5.61666E-05 1.47287E-03
 -1       222 1.03822E+12 5.61251E+10 6.13737E+11 1.92832E+11 2.06286E-05 1.00208E-03
 -1       223 4.61216E+11 1.76043E+11 4.62324E+11 3.15177E+11 2.74046E-05 1.95768E-03
 -1       224 8.14123E+11 1.71540E+11 5.72693E+11 3.32759E+11 1.56065E-05 3.05185E-05
 -1       225 9.50569E+11 1.14648E+11 6.02144E+11 2.59103E+11 4.06605E-05-4.62179E-04
 -1       226 9.76623E+11 8.10439E+10 6.05563E+11 1.07994E+11 6.63363E-05 4.73339E-03
 -1       227 1.03296E+12 4.37498E+10 6.08651E+11-1.94735E+11 8.95234E-05 4.03158E-04
 -1       228 8.32954E+11 1.27955E+11 5.68123E+11-2.91831E+11-1.14548E-04 1.75834E-03
 -1       229 6.52031E+11 2.52313E+11 5.45282E+11-3.62564E+11-1.07558E-05-1.42416E-04
 -1       230 9.73948E+11 6.75264E+10 6.00910E+11-1.06857E+11-3.41998E-04-2.36611E-03
 -1       231 9.52687E+11 1.09292E+11 6.01354E+11-2.64734E+11-2.87530E-04 4.55434E-04
 -1       232 7.89111E+11 1.65490E+11 5.63441E+11-3.47313E+11 3.98827E-04 1.22451E-03
 -1       233 4.35128E+11 1.96795E+11 4.60764E+11-3.26552E+11-3.67132E-04-7.00375E-04
 -1       234 6.00599E+11 9.45327E+10 5.72718E+11-2.52580E+11 4.44242E-06-1.74919E-03
 -1       235 2.03678E+11 2.05270E+11 4.88033E+11-1.55743E+11 6.65194E-05-1.86682E-03
 -1       236-5.91321E+10 6.84908E+10 3.67793E+11-1.89667E+10-8.70665E-05-1.06517E-03
 -1       237 7.19085E+11 7.59873E+10 6.01436E+11-1.70961E+11-2.02432E-05-1.68402E-03
 -1       238 4.33883E+11 1.70291E+11 5.46227E+11-2.17920E+11-1.71580E-05-2.63044E-03
 -1       239 1.47624E+11 2.49712E+11 4.84428E+11-6.84066E+10 5.24359E-05 1.04082E-03
 -1       240-3.25778E+10-2.01807E+11 2.93598E+11-5.45729E+10-1.96136E-05 1.75768E-03
 -1       241-7.36655E+10 5.80506E+10 3.61487E+11 1.63847E+10 1.68357E-05-1.84959E-03
 -1       242 2.03789E+11 2.09072E+11 4.90157E+11 1.53176E+11 1.36933E-04-1.44828E-03
 -1       243 5.99991E+11 9.29970E+10 5.72876E+11 2.54404E+11 4.38298E-05 9.24594E-04
 -1       244-1.30223E+10-2.35203E+11 2.90722E+11 4.24042E+10 1.41597E-05 2.46523E-04
 -1       245 1.47150E+11 2.49090E+11 4.85163E+11 6.36561E+10-1.06371E-04-6.11498E-04
 -1       246 4.35169E+11 1.70585E+11 5.47563E+11 2.18719E+11 7.25200E-05 1.32767E-03
 -1       247 7.18761E+11 7.69677E+10 6.02406E+11 1.69739E+11-1.88686E-04-4.09512E-04
 -1       248 1.91027E+11-1.39421E+10 3.41862E+11-6.88137E+10 1.57226E-04 9.43572E-05
 -1       249 1.03493E+11-9.75905E+09 3.21861E+11 5.31444E+10-1.78162E-05 1.25311E-03
 -1       250 5.40003E+11 1.10263E+11 4.86921E+11-1.32935E+10 1.60616E-05-4.06323E-04
 -1       251 7.49290E+10-2.79078E+10 3.77571E+11-2.58189E+10 1.40070E-04-1.60449E-03
 -1       252 2.80579E+10-5.47714E+09 4.06617E+11 6.03782E+09 9.65312E-06-1.62297E-03
 -1       253 2.78891E+10-5.90243E+09 4.08462E+11-6.75218E+09-8.21426E-05-1.57755E-03
 -1       254 9.33533E+10-3.93505E+10 3.79908E+11 9.32776E+09 4.18027E-05-1.59600E-03
 -1       255 7.10255E+10-1.22261E+10 3.43748E+11-3.43288E+10-4.14253E-04-1.60814E-03
 -1       256 2.04966E+11-1.65709E+10 3.46057E+11 6.71063E+10-3.54387E-05-1.52874E-03
 -1       257 8.75981E+10-8.49440E+09 3.20876E+11-4.79164E+10-7.04064E-05 1.12941E-03
 -1       258 4.66176E+10-1.18074E+10 3.83781E+11 1.83469E+10-2.00884E-05-6.55553E-04
 -1       259 3.70425E+11-9.56824E+09 3.98024E+11-5.18200E+09 1.08329E-04-5.26166E-04
 -1       260 6.14649E+10-6.37804E+09 3.22346E+11 3.34379E+10-2.84255E-05 1.60694E-04
 -1       261 6.50182E+10-3.14188E+10 3.88576E+11 2.04500E+10 6.28014E-05 1.75080E-03
 -1       262 1.30609E+11-3.44615E+10 3.54461E+11 3.30732E+10-3.65838E-05 8.22570E-05
 -1       263 7.88561E+10-2.15694E+10 3.61427E+11 3.21921E+10-1.93226E-05 8.52807E-04
 -1       264 1.26480E+11-3.91373E+10 3.60787E+11-2.39236E+10-2.60071E-05-1.61545E-03
 -1       265 1.94721E+11-4.44046E+10 3.56862E+11 1.19722E+09 4.20755E-05-6.24992E-05
 -1       266 4.71778E+10-1.63067E+10 3.90775E+11-1.96720E+10-4.10852E-04 1.11641E-04
 -1       267-9.38199E+10 4.21543E+10 2.63066E+11 2.51061E+09 9.14471E-06-1.42969E-04
 -1       268 3.22610E+09-4.56635E+09 2.82380E+11-1.94582E+10-7.93257E-05 1.10765E-03
 -1       269-3.27193E+10-2.28955E+10 3.14326E+11-1.31704E+10-1.91721E-05-8.19952E-04
 -1       270-1.62064E+10-3.61451E+09 2.20541E+11-5.72848E+09 8.03353E-05 7.97984E-05
 -1       271-5.88208E+09 8.87730E+09 3.03729E+11 3.34138E+10-1.32725E-05-1.91096E-04
 -1       272 1.26247E+10 3.01459E+10 3.47960E+11 1.43799E+10-1.76417E-05 1.98707E-03
 -1       273 5.64347E+11 1.30655E+11 4.95497E+11-1.06662E+11-1.79146E-04 1.03034E-03
 -1       274 5.91759E+11 1.34695E+11 5.07083E+11-7.66498E+10 8.18825E-05 9.61750E-04
 -1       275 6.21293E+11 1.02399E+11 5.08029E+11-8.96065E+10-8.73509E-06 1.56841E-04
 -1       276 1.30629E+11 1.37615E+10 4.04152E+11 2.53997E+10-1.32565E-05-2.84611E-04
 -1       277 4.97100E+10 6.05476E+10 3.96948E+11 9.64218E+10 4.05619E-06-1.01702E-03
 -1       278 1.09393E+11 3.16881E+10 4.01744E+11-4.47502E+09 4.16430E-05-5.93086E-04
 -1       279 5.24946E+10 7.41847E+10 4.00644E+11-8.99576E+10 1.05237E-04-1.83747E-03
 -1       280 4.46077E+11 1.14192E+11 5.28112E+11-6.46669E+10-4.44609E-05 9.54075E-04
 -1       281 4.62737E+11 7.84511E+10 5.23101E+11-4.27692E+10 8.98923E-06 8.42630E-04
 -1       282 4.45661E+11 1.12151E+11 5.27853E+11 6.60247E+10 1.08972E-05-2.97840E-04
 -1       283 4.65252E+11 7.70890E+10 5.23789E+11 4.76505E+10-2.33680E-05-1.16388E-03
 -1       284 6.23729E+11 4.84434E+08 5.21122E+11 3.42487E+08-5.62194E-05 3.19723E-05
 -1       285 6.34519E+11-1.27956E+09 5.13054E+11-7.09727E+08 1.03350E-05-1.26435E-04
 -1       286 6.46111E+11-5.00749E+09 5.01524E+11-1.75244E+09-3.06025E-05 7.49024E-04
 -1       287 5.26853E+11 1.19793E+11 4.82355E+11 7.21295E+10-4.55620E-05-1.45519E-03
 -1       288 5.45785E+11 1.27710E+11 4.91985E+11 5.40007E+10-5.36756E-05-1.08631E-03
 -1       289 5.81595E+11 1.01471E+11 4.96243E+11 6.44566E+10-1.34281E-05-3.89334E-06
 -1       290 2.58261E+10-2.17264E+09 4.05458E+11-1.35426E+09 1.01127E-04-3.63468E-04
 -1       291 3.70143E+10-1.13490E+10 3.98749E+11-1.37060E+10-2.75021E-04-1.90353E-04
 -1       292 4.78033E+10-5.23579E+09 3.66035E+11-1.73044E+10 8.77290E-05 8.77207E-04
 -1       293 3.73902E+10-3.77396E+09 3.84193E+11-8.57305E+09 1.46073E-04-5.08562E-04
 -1       294 1.64550E+11-4.13234E+10 3.55690E+11 2.20466E+10 8.31871E-05 6.94612E-04
 -1       295 1.60432E+11-4.35693E+10 3.57361E+11-1.48608E+10 1.05267E-05 4.77415E-04
 -1       296 1.14370E+11-4.15550E+10 3.71127E+11-5.30329E+09 5.32245E-05-7.07960E-05
 -1       297 1.15516E+11-3.80640E+10 3.66764E+11 2.01281E+10-1.68874E-05-2.21139E-04
 -1       298 1.41935E+11-4.30974E+10 3.62755E+11 6.05134E+09 1.91311E-05 5.89559E-04
 -1       299 2.92751E+11-2.06765E+10 3.71774E+11 4.73475E+10 4.73940E-05-3.58115E-04
 -1       300 1.40023E+11 2.41196E+10 3.21391E+11 8.48366E+10 1.32412E-05-7.46090E-04
 -1       301 4.35230E+11 2.65443E+10 4.24044E+11 6.75630E+10 3.83500E-05 6.46412E-04
 -1       302 2.51751E+11 2.86844E+10 3.60473E+11 1.17948E+11 3.63090E-05 4.15940E-04
 -1       303 1.70464E+10-2.23230E+09 4.26457E+11 3.34975E+09-4.68434E-05-1.57629E-04
 -1       304 3.71506E+10-9.10920E+09 3.94268E+11 1.20528E+10-1.33326E-06-2.47172E-04
 -1       305 3.17743E+10-1.92910E+10 4.13621E+11 1.42280E+10 2.97645E-05-6.46270E-05
 -1       306 2.42499E+10-1.10396E+10 4.19346E+11 9.77087E+09-2.17237E-05-1.87527E-03
 -1       307 4.61300E+10-3.53411E+09 3.62465E+11 1.46014E+10 4.51281E-05 5.94559E-04
 -1       308 2.58178E+10-1.98423E+09 4.04434E+11 1.01723E+09 6.04790E-06-1.23149E-03
 -1       309 3.78805E+10-2.50753E+09 3.82312E+11 7.47191E+09 3.05504E-05 8.02382E-05
 -1       310 5.17730E+10 2.54707E+09 2.97387E+11-3.50827E+10-1.25306E-04-6.67233E-04
 -1       311 1.28193E+11-1.11084E+10 3.26114E+11-5.99854E+10 3.55028E-04 6.36857E-04
 -1       312 1.33957E+11 2.52287E+10 3.19274E+11-8.23660E+10 1.51836E-04-2.85648E-04
 -1       313 8.35151E+10 1.19588E+10 3.02216E+11-5.61939E+10-9.66624E-05 8.60294E-04
 -1       314 2.81512E+11-1.80944E+10 3.68379E+11-5.54493E+10-2.61662E-04 8.63031E-04
 -1       315 4.35150E+11 2.96059E+10 4.24263E+11-7.66293E+10-6.07204E-05-2.95300E-04
 -1       316 2.40395E+11 3.17531E+10 3.57008E+11-1.18175E+11-2.10607E-04 1.39452E-03
 -1       317 1.45569E+11-1.18509E+10 3.30490E+11 6.28282E+10-2.74156E-05-4.96624E-04
 -1       318 5.58409E+10 3.15308E+09 2.96736E+11 3.90827E+10-2.74987E-05 1.68832E-04
 -1       319 8.90676E+10 1.35864E+10 3.04034E+11 5.99785E+10-1.65037E-05 1.53847E-03
 -1       320 3.80761E+10-1.39390E+09 2.99431E+11 2.25822E+10-1.36898E-05-8.09341E-04
 -1       321 4.62536E+10-2.22341E+09 3.29229E+11 1.80721E+10-4.78885E-05 2.17410E-03
 -1       322 3.20519E+10-1.25873E+09 3.04673E+11 1.16118E+10 2.46188E-06-1.52114E-04
 -1       323 1.02854E+11-2.81667E+10 3.56418E+11 3.49183E+10-2.64275E-05 1.45647E-03
 -1       324 7.92821E+10-3.63486E+10 3.83961E+11 1.66822E+10 3.11144E-05-3.04758E-04
 -1       325 7.47039E+10-2.66986E+10 3.75138E+11 2.68701E+10 2.88101E-05 1.01968E-03
 -1       326 9.46669E+10-3.27526E+10 3.70277E+11 2.57112E+10-3.04036E-05-2.00994E-03
 -1       327 7.99350E+10-1.18668E+10 3.31034E+11-4.12183E+10-3.05107E-04-1.34337E-03
 -1       328 7.68859E+10-2.10387E+10 3.60994E+11-3.19665E+10-2.00336E-04-2.94081E-04
 -1       329 9.86310E+10-3.40089E+10 3.67073E+11-2.66147E+10-1.78268E-04-3.50104E-04
 -1       330 1.18151E+11-2.71598E+10 3.44130E+11-4.33312E+10 6.79932E-05 9.66703E-05
 -1       331 9.57371E+10-2.46331E+10 3.50521E+11-3.77604E+10 4.47160E-05 1.85086E-03
 -1       332 4.90827E+10-4.14453E+10 4.06357E+11 2.90149E+09 4.55107E-05-2.00147E-03
 -1       333 3.45425E+10-3.20457E+10 4.12728E+11 1.38529E+10-2.41634E-05-3.90321E-04
 -1       334 4.11492E+10-4.00302E+10 4.08907E+11 1.03942E+10 1.03365E-04-1.52491E-03
 -1       335 5.08112E+10 3.26038E+08 3.03202E+11-3.14325E+10 7.89887E-05-7.34763E-04
 -1       336 2.99636E+10 2.85642E+09 2.87778E+11-1.91403E+10 2.26808E-04-7.71931E-04
 -1       337 2.90159E+10-2.25135E+10 4.16712E+11-1.33285E+10 2.65275E-05 1.48712E-03
 -1       338 4.55011E+10-3.80301E+10 4.08310E+11-9.57742E+09 1.61066E-05-4.61382E-04
 -1       339 6.02021E+10-2.21248E+10 3.83340E+11-2.41680E+10-3.99147E-04-1.27303E-03
 -1       340 3.67676E+10-3.22596E+10 4.11952E+11-1.34606E+10-5.32316E-05 3.75425E-04
 -1       341 2.15100E+11-3.76523E+10 3.55190E+11 3.10838E+10 2.82485E-05 8.03655E-04
 -1       342 1.25203E+11-2.44128E+10 3.40281E+11 4.67280E+10-5.09605E-06-5.01331E-04
 -1       343 1.67119E+11-3.13700E+10 3.46171E+11 4.47107E+10-2.63643E-05 1.24339E-04
 -1       344 1.66733E+10-2.28178E+09 4.27545E+11-3.54825E+09 2.53112E-04-1.15574E-03
 -1       345 2.31080E+10-1.18743E+10 4.21828E+11-9.85603E+09 5.80713E-04-5.39777E-05
 -1       346 2.10973E+11-3.80755E+10 3.54028E+11-3.26284E+10-9.15091E-05-1.53062E-04
 -1       347 2.64005E+11-3.75838E+10 3.65331E+11-2.49818E+09-3.30184E-05-2.84975E-04
 -1       348 6.10804E+10-1.68605E+10 3.70787E+11 2.62076E+10-2.68714E-05-6.53157E-04
 -1       349 5.26706E+10-2.37510E+10 3.91632E+11 2.11490E+10 2.08825E-05 9.09793E-04
 -1       350 8.02236E+10-8.69446E+09 3.20209E+11 4.39490E+10-1.06455E-05 7.57305E-04
 -1       351 4.62810E+10 5.43951E+07 2.96976E+11 3.10802E+10 2.09677E-06 2.24392E-05
 -1       352 5.15713E+10-3.34031E+09 3.41051E+11-2.16966E+10 3.88911E-04-1.32927E-03
 -1       353 6.05632E+10-1.28702E+10 3.62370E+11-2.68954E+10 6.61982E-05 9.88243E-04
 -1       354 1.40067E+10-8.46457E+06 4.24062E+11 6.07759E+08-9.93996E-05 2.47405E-04
 -1       355 7.97100E+10-3.84431E+10 3.86666E+11-9.69337E+09 1.25530E-05-8.58744E-04
 -1       356 7.51697E+10-1.39511E+10 3.42806E+11 3.58626E+10 1.34165E-05-1.70129E-03
 -1       357 5.77578E+10-8.63755E+09 3.50442E+11 2.60951E+10-8.02834E-06 7.02222E-04
 -1       358 5.26894E+10-2.61002E+09 3.21005E+11-2.79732E+10 2.79353E-04-1.26300E-03
 -1       359 1.40230E+10 5.95202E+07 4.23382E+11-7.27407E+08 5.64864E-06 1.15916E-03
 -1       360 1.59463E+11-3.37194E+10 3.46011E+11-4.27433E+10-1.86587E-04 2.02320E-04
 -1       361 9.76457E+10-1.94191E+10 3.39719E+11 4.28828E+10 1.01955E-05-6.21836E-04
 -1       362 6.55572E+11 3.93531E+09 4.97957E+11-1.13676E+10-9.06677E-06-8.45676E-04
 -1       363 3.21531E+09-3.56403E+10 2.66884E+11 1.04163E+10-4.42860E-06-6.77995E-04
 -1       364 3.66798E+09-3.45524E+09 2.28124E+11-4.29172E+09 9.08038E-05 2.49828E-04
 -1       365 6.02394E+11-7.69522E+08 5.29493E+11-7.00251E+07-4.04354E-05 1.25521E-04
 -1       366 6.12818E+11 1.27807E+07 5.26161E+11-1.55924E+07 3.37617E-06 2.14042E-04
 -1       367 5.81331E+11-1.31487E+10 5.29059E+11 1.37220E+09 3.26030E-06 2.21549E-05
 -1       368 5.97003E+11 5.96830E+08 5.33603E+11-3.20598E+08 9.79453E-05 7.65033E-04
 -1       369 5.75342E+11 1.73807E+10 5.38884E+11 1.13803E+10 4.25579E-05-1.00644E-03
 -1       370 5.07580E+11 1.00880E+11 4.72120E+11-1.82128E+09 1.90141E-05-6.37118E-04
 -1       371-1.22833E+09 1.16230E+11 3.08319E+11 5.44132E+09 6.30295E-06 1.28853E-03
 -1       372 4.38349E+09 4.82139E+10 3.30977E+11-5.89120E+09-2.22373E-04-1.24618E-03
 -1       373 2.02733E+09 5.58590E+09 2.09595E+11 7.26597E+07-1.84732E-05 4.69850E-04
 -1       374-1.02851E+10-2.14254E+10 3.15939E+11 2.47424E+09-2.76969E-05 4.26822E-04
 -1       375 6.42189E+11 1.18823E+11 5.13466E+11-1.53620E+11 6.09098E-06-1.07817E-03
 -1       376 6.51079E+11 1.57601E+11 5.31369E+11-1.08335E+11-1.90312E-05 1.37353E-03
 -1       377-7.26936E+09-5.70070E+10 3.25334E+11-3.12118E+10 1.11368E-04 6.48692E-05
 -1       378-2.57354E+08-7.21801E+10 3.42422E+11 9.31077E+10-1.46470E-04-1.48595E-03
 -1       379-1.16129E+10 4.80744E+10 3.54565E+11 1.74740E+10 5.60552E-05 4.97093E-04
 -1       380-8.52308E+09-5.63125E+10 3.43400E+11-9.48761E+10 9.82604E-05-3.18379E-04
 -1       381 3.03719E+11 1.26689E+11 4.89207E+11-1.50601E+11 7.21986E-05 1.86888E-04
 -1       382 4.62082E+11 1.14040E+11 5.34165E+11-4.99906E+10 8.12200E-05-3.71370E-04
 -1       383 3.03865E+11 1.25334E+11 4.89662E+11 1.53018E+11-8.82631E-05-1.16282E-03
 -1       384 4.60172E+11 1.09504E+11 5.32797E+11 5.04910E+10-4.23570E-05 9.18561E-04
 -1       385 6.26573E+11 3.94912E+07 5.18459E+11-1.54373E+08-9.74480E-06 1.18912E-03
 -1       386 6.48438E+11 5.37118E+08 5.08952E+11 8.40001E+08-3.72667E-05-5.91738E-04
 -1       387 6.07434E+11 1.19089E+11 5.04333E+11 1.22296E+11-1.03932E-05-5.80554E-04
 -1       388 6.08674E+11 1.57569E+11 5.19190E+11 8.94211E+10 1.06416E-04 1.30192E-05
 -1       389 2.30705E+10-1.18349E+09 4.03313E+11 2.44038E+08-1.41132E-04 2.52806E-04
 -1       390 3.19250E+10-2.90850E+09 3.94398E+11-5.04904E+09 3.37351E-04 1.63295E-04
 -1       391 4.02779E+10-1.08327E+09 3.78127E+11-5.02306E+09 5.05203E-05 1.42392E-04
 -1       392 2.69327E+10-4.01685E+09 4.06834E+11-4.38341E+09 1.81690E-04-8.77754E-04
 -1       393 3.25129E+10-8.66037E+09 4.03358E+11-1.02544E+10 8.07921E-05 2.36958E-03
 -1       394 3.81491E+10-7.35745E+09 3.91479E+11-1.14312E+10 2.17915E-04 1.70690E-03
 -1       395 4.16187E+10-1.40855E+10 3.94313E+11-1.66743E+10-1.91504E-06-1.07064E-03
 -1       396 4.89565E+10-1.03778E+10 3.78346E+11-1.89095E+10 1.69460E-04 1.39318E-03
 -1       397 4.24060E+10-5.18550E+09 3.74385E+11-1.27728E+10 4.87335E-04-3.63650E-04
 -1       398 4.66291E+10-1.04556E+09 3.54443E+11-1.03143E+10-4.54819E-04 8.28969E-04
 -1       399 1.45714E+11-3.89641E+10 3.54078E+11 2.80705E+10-2.42093E-05 1.03828E-04
 -1       400 1.52269E+11-4.30892E+10 3.58463E+11 1.36377E+10 2.85959E-05-5.45968E-04
 -1       401 1.27996E+11-4.12684E+10 3.64259E+11 1.35129E+10 1.49869E-04 1.88905E-04
 -1       402 1.23027E+11-3.66531E+10 3.60214E+11 2.64516E+10 6.65291E-05-8.80936E-04
 -1       403 1.77826E+11-4.40726E+10 3.55428E+11 1.21701E+10-5.76227E-05-1.51673E-03
 -1       404 1.75281E+11-4.54256E+10 3.55807E+11-7.51379E+09 6.07539E-05-8.73414E-04
 -1       405 1.51218E+11-4.36400E+10 3.60053E+11-4.11294E+09-2.80274E-04 5.02197E-04
 -1       406 1.41770E+11-4.23627E+10 3.57945E+11-1.98673E+10-8.35901E-05 1.78929E-04
 -1       407 1.21720E+11-3.99993E+10 3.66495E+11-1.45146E+10 2.85411E-05 5.82251E-04
 -1       408 1.27411E+11-4.31107E+10 3.66147E+11 5.36203E+07 6.47514E-05-4.58076E-04
 -1       409 1.03941E+11-4.08793E+10 3.75344E+11 2.32647E+09-1.55564E-04 2.03855E-03
 -1       410 1.04024E+11-3.93478E+10 3.72614E+11 1.46537E+10-1.21844E-04-9.77750E-04
 -1       411 3.22782E+11-2.18821E+10 3.80669E+11 2.48286E+10 3.21570E-05-2.02743E-04
 -1       412 2.79082E+11 6.86300E+09 3.70144E+11 8.16804E+10 4.67246E-05 2.02921E-03
 -1       413 3.30237E+11 2.43594E+10 3.87151E+11 1.01328E+11 2.71852E-05-7.23628E-04
 -1       414 3.95345E+11 8.57011E+09 4.09642E+11 2.98918E+10 8.09555E-05-9.52762E-04
 -1       415 2.40231E+11-2.13072E+10 3.55412E+11 5.90221E+10 4.98075E-05-4.46035E-05
 -1       416 1.81069E+11 6.23971E+09 3.37614E+11 7.77800E+10-4.99546E-05 3.30917E-05
 -1       417 1.83487E+11 2.11136E+10 3.34841E+11 1.00700E+11-3.60929E-06-7.05927E-04
 -1       418 1.06244E+11 4.97849E+10 3.08509E+11 7.90457E+10-2.31257E-06 8.20888E-04
 -1       419 1.90029E+11 7.83717E+10 3.46337E+11 1.18337E+11 3.43112E-06 2.33616E-04
 -1       420 4.23633E+11 9.38323E+10 4.35060E+11 1.59819E+11-7.85722E-06-3.08149E-05
 -1       421 1.35111E+10-1.03189E+10 4.32967E+11 5.96657E+09 2.86626E-05 1.62417E-03
 -1       422 2.69641E+10-1.58981E+10 4.15760E+11 1.18110E+10 3.76930E-05-1.08683E-04
 -1       423 1.73911E+10-2.52537E+10 4.28602E+11 8.12162E+09 9.88502E-06-1.13621E-03
 -1       424 8.45601E+09 9.33990E+08 4.36898E+11 1.50696E+09-8.45240E-05-1.27269E-03
 -1       425 2.04536E+10-6.41273E+09 4.22654E+11 6.48932E+09 1.09770E-06 1.53892E-03
 -1       426 2.20544E+10-4.53764E+09 4.15757E+11 4.62853E+09 9.99151E-06 8.17988E-04
 -1       427 3.29137E+10-7.16313E+09 4.00301E+11 9.01194E+09 2.22181E-05 1.54296E-03
 -1       428 3.14104E+10-9.88096E+09 4.06401E+11 1.11102E+10-2.65758E-06-1.16069E-03
 -1       429 4.17406E+10-1.06547E+10 3.88670E+11 1.51587E+10 8.34359E-05 1.17517E-04
 -1       430 4.02090E+10-1.56485E+10 3.98030E+11 1.66628E+10-1.83810E-05 2.38707E-03
 -1       431 4.04517E+10-6.33798E+08 3.77076E+11 4.32235E+09 2.50080E-05 1.25111E-03
 -1       432 3.19259E+10-2.43755E+09 3.92766E+11 4.30281E+09 6.79669E-05-1.84838E-03
 -1       433 2.31461E+10-1.08313E+09 4.02712E+11-3.16791E+08 7.02349E-05 2.70665E-03
 -1       434 4.52039E+10-5.42174E+08 3.52450E+11 8.44301E+09-1.26259E-05 6.85953E-04
 -1       435 4.21593E+10-3.50595E+09 3.71814E+11 1.09084E+10-8.49629E-06-2.87214E-04
 -1       436 4.74058E+10-7.13896E+09 3.73106E+11 1.68043E+10-4.51051E-05-5.42079E-04
 -1       437 3.79055E+10-5.64356E+09 3.88191E+11 9.90427E+09-8.53733E-05-1.39951E-03
 -1       438 2.70428E+10-3.62817E+09 4.05446E+11 3.77845E+09 1.93164E-04 9.03802E-04
 -1       439 3.17636E+10 5.16107E+09 2.84305E+11-2.17833E+10 1.50479E-04 1.43698E-03
 -1       440 6.64603E+10 6.55822E+09 2.98484E+11-4.53086E+10 6.90493E-05-9.38079E-04
 -1       441 6.07504E+10 2.46780E+10 2.90011E+11-4.60838E+10 3.43004E-04 3.52889E-04
 -1       442 7.32681E+10-1.42492E+09 3.10572E+11-4.21125E+10-1.96174E-04-3.34488E-04
 -1       443 1.05006E+11-1.09239E+10 3.21718E+11-5.38466E+10-4.26252E-04 2.68541E-04
 -1       444 1.10685E+11 3.54864E+09 3.16696E+11-5.95019E+10-2.69599E-04 1.79889E-03
 -1       445 1.55319E+11-1.36105E+10 3.31896E+11-6.45263E+10-3.22036E-05-8.25727E-04
 -1       446 1.69272E+11 7.75741E+09 3.33693E+11-7.70918E+10-1.06808E-05-1.07198E-03
 -1       447 1.07861E+11 1.97072E+10 3.10078E+11-6.92492E+10-1.12363E-04-1.02027E-04
 -1       448 1.02667E+11 4.97145E+10 3.07148E+11-7.74060E+10 7.45346E-05 1.61993E-03
 -1       449 1.83490E+11 7.89641E+10 3.43974E+11-1.17594E+11-1.98889E-04-1.43819E-03
 -1       450 3.21153E+11 2.66380E+10 3.84141E+11-1.05441E+11 2.07235E-05-1.52988E-04
 -1       451 4.17026E+11 9.48616E+10 4.32868E+11-1.64954E+11-1.20011E-04-1.06442E-03
 -1       452 1.75649E+11 2.34225E+10 3.32331E+11-9.95507E+10-4.11431E-05-3.42188E-04
 -1       453 2.27852E+11-1.83554E+10 3.51677E+11-6.37403E+10 1.00882E-04-1.04160E-03
 -1       454 2.66901E+11 9.64363E+09 3.66259E+11-8.58766E+10 3.16966E-05 5.11523E-04
 -1       455 3.16334E+11-2.07157E+10 3.78600E+11-3.43533E+10 1.59203E-06 1.04429E-04
 -1       456 3.92823E+11 9.64901E+09 4.08787E+11-3.95739E+10 9.84279E-05-9.56291E-04
 -1       457 6.38925E+10 2.58381E+10 2.91023E+11 4.81255E+10 2.11858E-05-9.08454E-04
 -1       458 7.20106E+10 8.58865E+09 2.99675E+11 4.95039E+10-3.28695E-06 2.68591E-03
 -1       459 3.51676E+10 7.05197E+09 2.84664E+11 2.43202E+10 1.46618E-05 1.35658E-03
 -1       460 1.13898E+11 1.99785E+10 3.12206E+11 7.23647E+10 9.43771E-06-9.73685E-04
 -1       461 1.70527E+11-1.57690E+10 3.36073E+11 6.51930E+10 2.97410E-05 1.67724E-04
 -1       462 1.22994E+11 4.14385E+09 3.20169E+11 6.32646E+10-7.57038E-06 1.44848E-03
 -1       463 1.22257E+11-1.12928E+10 3.24952E+11 5.81366E+10 1.72688E-05 1.19911E-04
 -1       464 8.40372E+10-5.46836E+08 3.11363E+11 4.75348E+10 3.76005E-05-2.06323E-04
 -1       465 3.00703E+10-1.51823E+09 3.08019E+11 6.43176E+09-1.15105E-04 5.80935E-04
 -1       466 4.03222E+10-2.36558E+08 3.17466E+11 1.54311E+10-7.32033E-05 1.14937E-03
 -1       467 4.26579E+10-1.61971E+09 3.34596E+11 9.36738E+09-5.20871E-05-2.33054E-03
 -1       468 1.91207E+10 1.07002E+09 2.91713E+11 6.77751E+09-1.95153E-05 1.80243E-04
 -1       469 2.26894E+10 1.33848E+09 2.87245E+11 1.32585E+10-6.05761E-06-9.24574E-04
 -1       470 3.43528E+10-1.82381E+09 3.01473E+11 1.75216E+10-1.76430E-05-8.30794E-04
 -1       471 5.19023E+10-2.13138E+09 3.11879E+11 2.89744E+10 7.44918E-05-6.38174E-06
 -1       472 5.27799E+10-4.96528E+09 3.24809E+11 2.61041E+10-9.15339E-05-9.94173E-04
 -1       473 8.99338E+10-2.54457E+10 3.58152E+11 3.38279E+10 4.09785E-06-8.71869E-04
 -1       474 9.91061E+10-3.04707E+10 3.63218E+11 3.03150E+10-4.07015E-05 5.25039E-04
 -1       475 8.39402E+10-3.02912E+10 3.72116E+11 2.65629E+10 7.05048E-06 1.42240E-03
 -1       476 7.76122E+10-2.37412E+10 3.68451E+11 2.97440E+10 1.76163E-06-6.65353E-04
 -1       477 1.15460E+11-3.20650E+10 3.54583E+11 3.41782E+10 1.91993E-05 1.05228E-03
 -1       478 1.04259E+11-3.59652E+10 3.67968E+11 2.31070E+10 2.40944E-05-1.41519E-03
 -1       479 8.59162E+10-3.83747E+10 3.81604E+11 1.31049E+10-1.77495E-05-9.75594E-04
 -1       480 8.70075E+10-3.46964E+10 3.76766E+11 2.11062E+10 8.08727E-06 2.10132E-03
 -1       481 7.18166E+10-3.42704E+10 3.85954E+11 1.87768E+10 3.09818E-05-1.22325E-03
 -1       482 7.05709E+10-2.87747E+10 3.81912E+11 2.38349E+10 3.85931E-05 1.29415E-03
 -1       483 8.34386E+10-1.10639E+10 3.25305E+11-4.42232E+10 2.04955E-04-5.83199E-04
 -1       484 9.04962E+10-1.68786E+10 3.41922E+11-4.03434E+10 7.12011E-05-1.23160E-04
 -1       485 1.06043E+11-2.68226E+10 3.46394E+11-4.04504E+10 1.95530E-04 1.58316E-03
 -1       486 1.06390E+11-1.62046E+10 3.34166E+11-4.65347E+10-1.53053E-04 1.07181E-03
 -1       487 7.55485E+10-1.22966E+10 3.36998E+11-3.76409E+10-8.28306E-05 8.38007E-04
 -1       488 7.65351E+10-1.54149E+10 3.53328E+11-3.38709E+10-2.86209E-04-1.59289E-03
 -1       489 8.62004E+10-2.31586E+10 3.55201E+11-3.49693E+10 3.05222E-05 1.45266E-03
 -1       490 7.74673E+10-2.39335E+10 3.69694E+11-2.94419E+10-5.49271E-04 8.27539E-04
 -1       491 8.62472E+10-3.14710E+10 3.71589E+11-2.62922E+10-2.87384E-04-1.26678E-03
 -1       492 9.96495E+10-2.83454E+10 3.59788E+11-3.26788E+10-1.51549E-04-2.20015E-04
 -1       493 1.11929E+11-3.70122E+10 3.63262E+11-2.53388E+10 1.44718E-04-2.06197E-03
 -1       494 1.25255E+11-3.22465E+10 3.53844E+11-3.38836E+10 2.70974E-04-3.78384E-05
 -1       495 6.01748E+10-3.75333E+10 3.95271E+11 1.33668E+10-6.54023E-05-1.90259E-03
 -1       496 3.82237E+10-3.58661E+10 4.11000E+11 1.22065E+10-9.53439E-06 4.58780E-04
 -1       497 4.94011E+10-3.20044E+10 3.99399E+11 1.70593E+10-9.32666E-06-2.96089E-04
 -1       498 7.05723E+10-4.06559E+10 3.91251E+11 6.11003E+09 4.33193E-05 5.57338E-04
 -1       499 4.49825E+10-4.16532E+10 4.07405E+11 6.53594E+09 3.09103E-05 1.40260E-03
 -1       500 2.43417E+10-4.87878E+10 4.22033E+11 1.36781E+09 2.88403E-04-7.33884E-04
 -1       501 2.08302E+10-4.52934E+10 4.24085E+11 5.65475E+09-7.58583E-05-9.72167E-04
 -1       502 1.69521E+10-3.37932E+10 4.26817E+11 7.50177E+09 4.46189E-05 2.40979E-04
 -1       503 1.74491E+10 2.60922E+09 2.79163E+11-1.17976E+10 5.77200E-05 7.77432E-04
 -1       504 3.82070E+10 1.17040E+09 2.91139E+11-2.71851E+10 3.85646E-04-9.96818E-04
 -1       505 1.58943E+10 7.27336E+08 2.81922E+11-1.02631E+10-5.05152E-04-6.07567E-04
 -1       506 2.87536E+10 8.82029E+07 2.92604E+11-1.71393E+10 5.99559E-05 4.71649E-04
 -1       507 4.19466E+10 2.26848E+09 2.96060E+11-2.62792E+10 2.12610E-04-1.62155E-03
 -1       508 6.77525E+10-4.25508E+09 3.11301E+11-3.99626E+10 1.07881E-04 3.75856E-04
 -1       509 3.89716E+10-1.91094E+10 4.03284E+11-1.67598E+10 2.19124E-04-2.01121E-04
 -1       510 3.17911E+10-2.80699E+10 4.13704E+11-1.33892E+10 3.34009E-04 8.84036E-04
 -1       511 4.97773E+10-2.69471E+10 3.97094E+11-1.93946E+10-1.87299E-06-5.76305E-04
 -1       512 5.24775E+10-1.98726E+10 3.86260E+11-2.21196E+10-1.55134E-04 1.72860E-03
 -1       513 1.59412E+10-2.74283E+10 4.30225E+11-7.51834E+09 2.86625E-04-1.78013E-03
 -1       514 1.94325E+10-4.14870E+10 4.26303E+11-6.92323E+09-1.15029E-05-4.82676E-04
 -1       515 2.28137E+10-4.83027E+10 4.23309E+11-4.03789E+09-3.31688E-06 1.79747E-03
 -1       516 4.02482E+10-3.60244E+10 4.09612E+11-1.15516E+10-5.07454E-05 2.69208E-04
 -1       517 6.12800E+10-3.33409E+10 3.92032E+11-1.79912E+10 4.23800E-05-8.29922E-04
 -1       518 6.64051E+10-2.58390E+10 3.79666E+11-2.52697E+10-9.11331E-05 2.99332E-05
 -1       519 1.59510E+11-2.07831E+10 3.39754E+11 5.40459E+10-1.21284E-05 9.34532E-04
 -1       520 1.43475E+11-2.89700E+10 3.41846E+11 4.61204E+10-1.98258E-05 7.86556E-04
 -1       521 1.17352E+11-1.59067E+10 3.32376E+11 5.05268E+10 1.09616E-05-3.86768E-04
 -1       522 2.12642E+11-2.67039E+10 3.51942E+11 4.83710E+10 6.53082E-05-1.95808E-03
 -1       523 1.87504E+11-3.61344E+10 3.49029E+11 3.86422E+10-7.11106E-06 2.30913E-04
 -1       524 2.03813E+11-4.25974E+10 3.55409E+11 1.52119E+10-1.74142E-04-1.13710E-04
 -1       525 1.66638E+11-3.67389E+10 3.51186E+11 3.31119E+10 3.84459E-05 2.67173E-04
 -1       526 1.29355E+11-2.91785E+10 3.47907E+11 4.00701E+10-2.43407E-06 6.42746E-04
 -1       527 2.52050E+10-1.74627E+10 4.18758E+11-1.14903E+10-1.85402E-05-2.07974E-03
 -1       528 1.23776E+10-1.11952E+10 4.34104E+11-5.76455E+09-2.63217E-04-2.44577E-03
 -1       529 3.04159E+10-1.16699E+10 4.09778E+11-1.17616E+10-4.32943E-04 2.52077E-06
 -1       530 2.18185E+10-4.87449E+09 4.17222E+11-5.09513E+09-2.29119E-04-7.52140E-06
 -1       531 1.96210E+10-6.93656E+09 4.24386E+11-6.54269E+09-2.87024E-04-3.46172E-04
 -1       532 8.23887E+09 9.50804E+08 4.37583E+11-1.60622E+09 1.37246E-04 2.79821E-06
 -1       533 2.05572E+11-2.46974E+10 3.50266E+11-5.07100E+10 2.03196E-05-2.76450E-03
 -1       534 2.32952E+11-4.05455E+10 3.57602E+11-1.92624E+10-4.66578E-05-1.08648E-03
 -1       535 2.71240E+11-3.01245E+10 3.66379E+11-2.81657E+10 1.24429E-04 8.40584E-05
 -1       536 2.02914E+11-4.21291E+10 3.55530E+11-1.49744E+10-6.44256E-05 9.27402E-04
 -1       537 2.35550E+11-4.02905E+10 3.58467E+11 1.57816E+10 1.70894E-05-1.57835E-03
 -1       538 2.74684E+11-3.22893E+10 3.67025E+11 2.11411E+10 6.48330E-05 2.89389E-04
 -1       539 4.12432E+10-2.31909E+10 4.01131E+11 1.76137E+10-1.44187E-05-5.83273E-04
 -1       540 4.51730E+10-2.62508E+10 4.02575E+11 1.80481E+10-4.95887E-05-1.11098E-03
 -1       541 5.33092E+10-1.48221E+10 3.76574E+11 2.22387E+10 1.88556E-05-1.25576E-03
 -1       542 5.83607E+10-1.95919E+10 3.81423E+11 2.41633E+10 6.72473E-06-6.48253E-04
 -1       543 6.95489E+10-1.96277E+10 3.65502E+11 2.93437E+10-2.37560E-06-6.34672E-04
 -1       544 6.33517E+10-2.58477E+10 3.82507E+11 2.40172E+10-9.40726E-06 1.64748E-03
 -1       545 9.10039E+10-9.68882E+09 3.20346E+11 4.86838E+10 8.70297E-06 3.48592E-04
 -1       546 6.61958E+10-2.17292E+09 3.10010E+11 3.86978E+10-2.06379E-05 2.88340E-04
 -1       547 5.10807E+10 1.68200E+09 2.96719E+11 3.51656E+10-7.84919E-05-1.35591E-03
 -1       548 7.00270E+10-8.07139E+09 3.20542E+11 3.89298E+10-1.10870E-05-1.19265E-03
 -1       549 4.17580E+10-9.02010E+08 2.97827E+11 2.69816E+10-1.24024E-04 8.28323E-04
 -1       550 2.78141E+10 3.24847E+09 2.84824E+11 1.86017E+10 7.30520E-05 6.08920E-04
 -1       551 5.16837E+10-1.00589E+10 3.62885E+11-2.20226E+10-1.48006E-04-1.09671E-03
 -1       552 5.94481E+10-6.43243E+09 3.52860E+11-2.52817E+10 4.72190E-04 4.04035E-04
 -1       553 4.38884E+10-2.30286E+09 3.40169E+11-1.14622E+10 2.50725E-04-8.50699E-04
 -1       554 6.21452E+10-1.69747E+10 3.73171E+11-2.60215E+10 4.15788E-04 1.04383E-03
 -1       555 6.75653E+10-1.73329E+10 3.61023E+11-2.98348E+10-5.99413E-05 4.02602E-04
 -1       556 6.01430E+10-8.33111E+09 3.41578E+11-2.83170E+10-1.03032E-04-5.41753E-04
 -1       557 1.21007E+10 9.10665E+08 4.20438E+11 2.11711E+09-2.25914E-04 3.45023E-04
 -1       558 1.88355E+10-2.10126E+09 4.13724E+11-3.05467E+08 3.14067E-04 8.24581E-06
 -1       559 7.19986E+09 2.29013E+09 4.33594E+11 1.71895E+09-3.56687E-05-1.61159E-03
 -1       560 1.53769E+10-9.75262E+08 4.25681E+11-1.38003E+09 2.29190E-04 2.36574E-03
 -1       561 6.44013E+10-4.07752E+10 3.95730E+11-2.95790E+09-3.69609E-05-1.02498E-03
 -1       562 6.18307E+10-3.83533E+10 3.96238E+11-9.81418E+09 1.59855E-04 5.60312E-04
 -1       563 9.64680E+10-4.05086E+10 3.77794E+11-7.61355E+09 1.53284E-04 8.72017E-05
 -1       564 9.10633E+10-3.59858E+10 3.77190E+11-1.82680E+10 2.43559E-04-1.10948E-03
 -1       565 5.09218E+10-6.56074E+09 3.55586E+11 2.02536E+10-5.04073E-05-2.42768E-04
 -1       566 6.11144E+10-1.18479E+10 3.61056E+11 2.66011E+10-1.51201E-05 2.27682E-04
 -1       567 5.39614E+10-4.06722E+09 3.40496E+11 2.30432E+10 2.88291E-05 1.15493E-04
 -1       568 7.02962E+10-8.87658E+09 3.33364E+11 3.54281E+10-4.69450E-05 3.04327E-04
 -1       569 6.57622E+10-1.16809E+10 3.45914E+11 3.12070E+10-4.65478E-05-1.81388E-03
 -1       570 7.85279E+10-1.70687E+10 3.52551E+11 3.44619E+10 5.19992E-05-1.86357E-03
 -1       571 4.02455E+10-1.40037E+09 3.16146E+11-1.51691E+10-1.01944E-04 3.29290E-04
 -1       572 5.09814E+10-2.18717E+09 3.11222E+11-2.95777E+10 4.77204E-05-4.19816E-04
 -1       573 5.26219E+10-2.95524E+09 3.30763E+11-2.43987E+10-8.47914E-05-1.42439E-04
 -1       574 6.59353E+10-7.17628E+09 3.25633E+11-3.46898E+10-6.71527E-05-1.18892E-03
 -1       575 1.88304E+10-2.01393E+09 4.12847E+11 6.21995E+07-2.57022E-05-6.31616E-04
 -1       576 1.20711E+10 9.43302E+08 4.19969E+11-2.17648E+09-3.94612E-05-1.57040E-03
 -1       577 1.55508E+10-8.25641E+08 4.24827E+11 1.22492E+09-5.76111E-05-1.19045E-03
 -1       578 7.18708E+09 2.29348E+09 4.33107E+11-1.78399E+09 2.80953E-06-1.05795E-03
 -1       579 1.36017E+11-3.14909E+10 3.43515E+11-4.33779E+10 2.62763E-04 1.86603E-03
 -1       580 1.49158E+11-2.01729E+10 3.38710E+11-5.24364E+10 3.33675E-04 8.61483E-04
 -1       581 1.62838E+11-3.79574E+10 3.53101E+11-2.88119E+10 2.14690E-04 1.04222E-04
 -1       582 1.81469E+11-3.73681E+10 3.48201E+11-3.84934E+10 2.34512E-04 9.55148E-04
 -1       583 1.01708E+11-2.32498E+10 3.48565E+11 3.92631E+10 1.33121E-06-9.99921E-05
 -1       584 1.10069E+11-2.25581E+10 3.39125E+11 4.49418E+10-5.53324E-06-1.31412E-03
 -1       585 8.55131E+10-1.71389E+10 3.40529E+11 3.96094E+10 2.90090E-05 1.19460E-03
 -1       586 9.10366E+10-1.29178E+10 3.30859E+11 4.41298E+10-7.54988E-07 1.72935E-03
 -1       587 5.73833E+11 1.13171E+11 4.98089E+11 2.16082E+10 5.56229E-05-2.98869E-04
 -1       588 6.32888E+11 7.36213E+10 5.07834E+11 1.16306E+10 9.27268E-05 2.65626E-04
 -1       589 6.44237E+11 5.05907E+10 5.03920E+11-3.65019E+10-1.51187E-04-1.27911E-03
 -1       590 5.94100E+11 1.18151E+11 5.05284E+11-4.66919E+10 7.60576E-05-2.07751E-03
 -1       591 6.63385E+11 6.62934E+10 5.09164E+11 7.83371E+10-1.16558E-04-9.69027E-04
 -1       592 6.73058E+11 5.30654E+09 5.04164E+11 1.28932E+10 6.09427E-06-3.79711E-04
 -1       593 6.53483E+11-3.00705E+09 4.99993E+11-2.20057E+09 3.42832E-05 7.43966E-04
 -1       594 6.41378E+11-1.26952E+09 5.08791E+11 3.52673E+08 1.26489E-05 7.31957E-04
 -1       595 6.47277E+11-6.27168E+09 4.97341E+11 2.06599E+09 1.54257E-04-4.85776E-04
 -1       596 7.08774E+11 6.83020E+10 5.23194E+11-8.80989E+10-1.84924E-04 1.50553E-03
 -1       597 9.79229E+10 1.26543E+11 3.57928E+11 3.55786E+09 7.48217E-06-5.69528E-04
 -1       598 7.52691E+09 2.62174E+10 2.87613E+11 1.29713E+10 3.01451E-06 1.68468E-03
 -1       599-2.21310E+09-1.61754E+10 2.82601E+11 1.06390E+10 1.24382E-05 8.25609E-04
 -1       600-2.85748E+08 4.29929E+10 3.17034E+11 1.98674E+10 1.27202E-05 2.34857E-05
 -1       601 2.12430E+10 5.37929E+10 2.93288E+11 1.07399E+10 7.21412E-06 1.37361E-04
 -1       602-1.72367E+09-6.66355E+10 2.48713E+11 1.09621E+09-1.35376E-05 1.24856E-04
 -1       603-6.26124E+08-9.62231E+10 2.46602E+11 9.32090E+09 1.35645E-05 8.85608E-04
 -1       604-1.18801E+10-3.11495E+10 2.88432E+11 1.99207E+10-1.75557E-05 1.16703E-03
 -1       605 7.47935E+09 3.06796E+10 2.65057E+11 2.39558E+08-2.19471E-05 8.96895E-04
 -1       606 5.18660E+09 1.88966E+09 2.29345E+11-4.81097E+09-1.66495E-04-5.97851E-04
 -1       607-2.25773E+09-4.16120E+09 2.53815E+11-5.69010E+09 2.51824E-04-4.85364E-04
 -1       608 4.04032E+09 2.85505E+10 2.91161E+11-1.46212E+10-2.04009E-05-3.93805E-04
 -1       609-5.60233E+08 1.45421E+09 1.98888E+11-1.94290E+09-4.31908E-05 1.66530E-03
 -1       610-7.66619E+08-2.10260E+09 1.98929E+11-9.12087E+08 9.24021E-05 7.22579E-04
 -1       611 2.46740E+09-8.33571E+09 2.27039E+11-3.93731E+09-9.19279E-05-1.22444E-03
 -1       612 8.88655E+08-3.91543E+10 2.72524E+11-1.40382E+10 2.10451E-05-3.28089E-06
 -1       613 5.99599E+11 1.96480E+08 5.31622E+11 3.00580E+08 4.56751E-05 1.69229E-03
 -1       614 6.07973E+11-2.75873E+08 5.28193E+11 2.45124E+08-1.36745E-05 3.08392E-04
 -1       615 6.07435E+11 3.41455E+06 5.27966E+11-9.74776E+07-1.40276E-05-4.48964E-04
 -1       616 6.08067E+11-2.96989E+07 5.28438E+11-2.03006E+08 7.65260E-05-5.67329E-04
 -1       617 6.18223E+11-1.48174E+08 5.23918E+11-1.53965E+08-1.84935E-04 8.09483E-04
 -1       618 6.29365E+11-5.90985E+08 5.17587E+11-2.59354E+08 4.91803E-05 5.33511E-04
 -1       619 6.18136E+11 1.90546E+08 5.23864E+11 1.58883E+08-2.79730E-05 2.35932E-03
 -1       620 6.17345E+11-1.32978E+08 5.23389E+11-1.74326E+08-3.67772E-05-1.08926E-04
 -1       621 5.97638E+11 1.43611E+10 5.43736E+11-8.79819E+09-2.53342E-05-8.33251E-04
 -1       622 5.86010E+11-1.35103E+10 5.28388E+11 2.49224E+09-3.86537E-05 5.36275E-04
 -1       623 5.88588E+11 9.29064E+09 5.35785E+11 1.67754E+09 9.01791E-07 1.51541E-05
 -1       624 5.91283E+11-2.90361E+09 5.33291E+11 2.00654E+06-5.37391E-05-1.72749E-03
 -1       625 6.00223E+11 3.71221E+08 5.32177E+11 5.14210E+08-1.68487E-05 1.63710E-03
 -1       626 5.98792E+11-3.95722E+08 5.31350E+11-9.89644E+08 1.06580E-04 1.68400E-04
 -1       627 4.62397E+11 1.56511E+11 5.45468E+11 2.52771E+10 1.33911E-06 3.26911E-04
 -1       628 5.32536E+11 5.36073E+10 5.37412E+11 2.11623E+10-2.95794E-05 1.53840E-03
 -1       629 5.39050E+11 7.12876E+10 5.44269E+11-7.41126E+09 3.59050E-05-1.04210E-04
 -1       630 4.58964E+11 1.52741E+11 5.43139E+11-2.42367E+10 1.00495E-05 2.44098E-05
 -1       631 5.66649E+11 8.20630E+10 5.57063E+11 6.64046E+10 1.46163E-04-6.70070E-04
 -1       632 5.86346E+11 5.70389E+09 5.37780E+11 3.15927E+09-1.36050E-05 5.07289E-04
 -1       633 5.81632E+11 2.52308E+09 5.35214E+11 4.91643E+08 1.05466E-05 3.35317E-04
 -1       634 5.46670E+11 6.73646E+10 5.46061E+11-5.50187E+10 3.77584E-05 1.21704E-03
 -1       635 4.86621E+11 6.81646E+10 4.54324E+11-3.87285E+10-1.29214E-05-5.46027E-04
 -1       636 5.04390E+11 9.44143E+10 4.68700E+11-3.57958E+10 5.72340E-05 1.01724E-05
 -1       637 6.24763E+11 2.02826E+11 5.28063E+11-2.05908E+11-1.07022E-04 4.62731E-04
 -1       638 4.86959E+11 6.72929E+10 4.54516E+11 3.09605E+10-1.04499E-04 6.92268E-04
 -1       639 6.20199E+11 1.94763E+11 5.25733E+11 1.82046E+11 9.57853E-05-5.11107E-04
 -1       640 4.99200E+11 9.47954E+10 4.67698E+11 2.15805E+10-6.41841E-05-3.33526E-04
 -1       641 5.85200E+11 1.37812E+11 5.07858E+11 2.50423E+10 2.47196E-05 1.01766E-03
 -1       642 6.05446E+11 1.45377E+11 5.15524E+11-5.01274E+10 1.37392E-05-1.36051E-03
 -1       643-4.25785E+10 8.28818E+10 2.88015E+11-2.54317E+09 1.96770E-06 9.32001E-04
 -1       644-2.99006E+09 1.00694E+11 2.99633E+11-9.69251E+09 3.75833E-05 7.68377E-05
 -1       645 4.65717E+10 1.58894E+11 3.38300E+11 3.09439E+09-9.69745E-06 9.12447E-04
 -1       646-1.68038E+10 8.84147E+10 3.43035E+11-1.72242E+10-2.10520E-05 1.53443E-04
 -1       647 1.32202E+10 1.79627E+10 3.32498E+11-1.69613E+10-3.36313E-06 1.26314E-03
 -1       648 4.55373E+10 1.48217E+11 4.05190E+11-2.09178E+10 3.95484E-05 5.63489E-06
 -1       649-7.20921E+08 1.96314E+10 3.05242E+11-9.21325E+09-8.61076E-06 7.03197E-04
 -1       650-4.50969E+10-7.00754E+10 2.75096E+11-8.14036E+09 7.95506E-05 8.73034E-04
 -1       651-1.11657E+10 1.83238E+09 2.13535E+11-3.56137E+09 1.54188E-04 6.57628E-04
 -1       652 1.23567E+10 8.78207E+09 2.23184E+11-9.78594E+08-4.38228E-05 2.79631E-04
 -1       653-3.74423E+08 1.93956E+09 1.89042E+11 3.14957E+08-2.19073E-05-8.07394E-05
 -1       654 1.14504E+10-1.82874E+09 3.16981E+11 9.75346E+09-2.83259E-05-1.94418E-03
 -1       655 3.40835E+10-1.21977E+10 3.38377E+11 1.90068E+10-2.80425E-05 2.10043E-03
 -1       656 3.34305E+10 5.75399E+09 3.29351E+11 1.25353E+10-4.20137E-05 8.07286E-04
 -1       657-5.18921E+10-1.19831E+10 3.11059E+11 1.00825E+10 4.51718E-05-1.51377E-03
 -1       658-4.16292E+09-9.25492E+10 3.21442E+11 2.05251E+10-9.78416E-07 6.44774E-04
 -1       659 6.50536E+11 1.83187E+11 5.30763E+11-2.51205E+11-8.97680E-05 1.42581E-03
 -1       660 6.82725E+11 1.57900E+11 5.39725E+11-1.09281E+11-1.00628E-04 7.75748E-04
 -1       661 7.08270E+11 1.39699E+11 5.40396E+11-1.64281E+11-6.48952E-05 1.39096E-03
 -1       662 5.69575E+11 1.22871E+11 4.93889E+11-1.28576E+11 1.68795E-04 1.14903E-04
 -1       663 5.34867E+11 1.06075E+11 4.83257E+11-5.15482E+10-3.54620E-05 3.42549E-04
 -1       664 6.31390E+11 1.19384E+11 5.15142E+11-9.44667E+10 2.25124E-04-3.70656E-04
 -1       665 6.17274E+11 1.36975E+11 5.15234E+11-1.03105E+11 1.11585E-04 1.13647E-03
 -1       666 7.52238E+11 7.66633E+10 5.36093E+11-1.49198E+11-7.30316E-05 4.03526E-04
 -1       667 3.91361E+10-1.60717E+10 3.44885E+11-7.42658E+09-9.67088E-05-2.10393E-03
 -1       668-1.21685E+10-4.96867E+10 3.35604E+11 2.17822E+09-1.00286E-04 6.95869E-04
 -1       669 2.13417E+11 1.62109E+11 4.72217E+11 2.57324E+10 6.29982E-05 9.47841E-04
 -1       670-6.93563E+10-1.44069E+11 2.75394E+11-1.23245E+10 4.95517E-05 3.29843E-04
 -1       671 2.25705E+10-1.96693E+11 3.09895E+11 2.10795E+10 7.80615E-05-1.87487E-03
 -1       672-1.28610E+10-5.03656E+09 3.59732E+11 5.74836E+10-2.03817E-05 7.29158E-04
 -1       673 4.46715E+10-3.63378E+10 3.65144E+11 8.05959E+10 8.57588E-05 5.86914E-04
 -1       674 6.36060E+10 5.08513E+10 3.99898E+11 1.35586E+11-1.25212E-04 1.24367E-04
 -1       675 3.22359E+10 2.72454E+10 3.81793E+11 8.37177E+10-2.76565E-05-1.19252E-03
 -1       676 6.28871E+10 6.81934E+10 4.00530E+11 1.47535E+11-1.52376E-04-4.35999E-04
 -1       677-7.75780E+10 5.39118E+09 3.17796E+11 3.88536E+09-5.87157E-06 3.32942E-04
 -1       678 2.18528E+09 8.87673E+09 3.55646E+11 7.18099E+09 2.98695E-05-1.58138E-03
 -1       679-6.52162E+09-1.41303E+11 3.16492E+11-1.00438E+10 1.60445E-05 1.65344E-03
 -1       680 3.55129E+10 9.36441E+10 3.76531E+11 1.28858E+10-2.18012E-05-2.09417E-03
 -1       681 1.89401E+11 1.35961E+11 4.55708E+11-1.92241E+10 6.57887E-05-1.87014E-04
 -1       682 5.91664E+10 6.75368E+10 3.97861E+11-1.40126E+11-6.00784E-05 4.44655E-04
 -1       683 3.38440E+10 4.14366E+10 3.85262E+11-7.89945E+10-3.51160E-05-2.03186E-03
 -1       684 4.37823E+10-1.32502E+10 3.70455E+11-6.84141E+10 9.54699E-05 1.96959E-04
 -1       685 6.48389E+10 6.08682E+10 4.02188E+11-1.35585E+11 5.46406E-05-1.19081E-03
 -1       686-7.45310E+09 1.36333E+10 3.65714E+11-5.63949E+10-4.80374E-05 1.96985E-03
 -1       687 1.92202E+11 9.62056E+10 4.47846E+11-1.37300E+11-3.00705E-07 4.94563E-04
 -1       688 3.76201E+11 1.21137E+11 5.09203E+11-1.05365E+11-3.42273E-05-2.48436E-03
 -1       689 3.75041E+11 1.11236E+11 5.07486E+11-1.16720E+11-3.38497E-05-1.43004E-03
 -1       690 3.04902E+11 1.57603E+11 4.97785E+11-1.41058E+11 1.80659E-05-1.67359E-03
 -1       691 4.36854E+11 1.89210E+11 5.46820E+11-3.77110E+10-5.55956E-05-1.22398E-03
 -1       692 4.68935E+11 8.94050E+10 5.28490E+11-5.23571E+10-2.78861E-06 9.82929E-04
 -1       693 4.29571E+11 8.63665E+10 5.15440E+11-5.53708E+10-1.62650E-05-7.91562E-04
 -1       694 4.80338E+11 6.85249E+10 5.27080E+11-1.25228E+11 1.11673E-05-5.94855E-04
 -1       695 3.04367E+11 1.57424E+11 4.98350E+11 1.43769E+11-1.50388E-05 4.58045E-04
 -1       696 3.75743E+11 1.19621E+11 5.09259E+11 1.07011E+11-2.73031E-05 1.78902E-03
 -1       697 4.38061E+11 1.89150E+11 5.47396E+11 3.91853E+10-3.46748E-05 4.51069E-04
 -1       698 1.90857E+11 8.93823E+10 4.46425E+11 1.41561E+11 2.24961E-05 1.64708E-03
 -1       699 3.75239E+11 1.08607E+11 5.07478E+11 1.16784E+11-8.38059E-05 8.67138E-04
 -1       700 4.78932E+11 6.81645E+10 5.27234E+11 1.26305E+11-1.47238E-04-1.02649E-03
 -1       701 4.28875E+11 8.46708E+10 5.15242E+11 5.63844E+10 8.29054E-05-9.29995E-04
 -1       702 4.66643E+11 8.35174E+10 5.26495E+11 5.49113E+10 7.22652E-05 4.52072E-04
 -1       703 6.24706E+11 8.86906E+07 5.19531E+11-1.98051E+07-2.28924E-05-5.96402E-04
 -1       704 6.31387E+11 3.08846E+07 5.16400E+11 5.18117E+07 1.60029E-05 3.43688E-04
 -1       705 6.34762E+11-1.25127E+09 5.13071E+11 4.52108E+08-6.83412E-05-2.22265E-04
 -1       706 6.25018E+11 6.91341E+06 5.19733E+11-5.33032E+07 2.34016E-05-8.34813E-04
 -1       707 6.35821E+11 1.27693E+08 5.14012E+11-7.41574E+07-1.11812E-04 3.14899E-04
 -1       708 6.43019E+11-1.02683E+10 5.01553E+11-5.22523E+09-4.49862E-05 1.41724E-03
 -1       709 6.38649E+11-2.14071E+08 5.10422E+11 4.87834E+07-5.75025E-05 1.39402E-03
 -1       710 6.41078E+11 3.06521E+09 5.04904E+11-3.28070E+09 1.71478E-05-2.90401E-04
 -1       711 5.23034E+11 1.12521E+11 4.78135E+11 9.37990E+10-6.10139E-05-3.56905E-04
 -1       712 6.60040E+11 1.64399E+11 5.35893E+11 8.00221E+10 1.34719E-04-1.89927E-03
 -1       713 5.16776E+11 1.00732E+11 4.76707E+11 2.67162E+10 4.24054E-05-2.23865E-04
 -1       714 6.28646E+11 1.71476E+11 5.21563E+11 2.26100E+11-7.79470E-05 3.69907E-04
 -1       715 6.75751E+11 1.35668E+11 5.30170E+11 1.43134E+11 9.38796E-05-1.24135E-03
 -1       716 7.17983E+11 7.49439E+10 5.25594E+11 1.39376E+11 6.26551E-05-1.32702E-04
 -1       717 5.74871E+11 1.35091E+11 5.02626E+11 8.35456E+10 2.80037E-05 3.06977E-04
 -1       718 5.91018E+11 1.20313E+11 5.03781E+11 7.18177E+10-1.15766E-05-1.74799E-03
 -1       719 2.50278E+10 4.50731E+08 1.27158E+09-2.01334E+07 3.34342E-05-1.83290E-04
 -1       720 9.94542E+09 2.25198E+07 3.86569E+08 5.84953E+04 7.23645E-05-1.43002E-04
 -1       721 1.91487E+10 2.90414E+08 1.03149E+09-2.94699E+06 2.82581E-05-2.58767E-04
 -1       722 1.92190E+10 1.04541E+08 9.98289E+08 1.66445E+08 5.74772E-05-5.64624E-05
 -1       723 9.89510E+09 6.80666E+06 3.71279E+08 2.61428E+05 2.52012E-04 1.52161E-05
 -1       724 1.46790E+10 6.57409E+07 7.32317E+08-6.69454E+05 7.65474E-05 3.25640E-04
 -1       725 1.46255E+10 3.47308E+07 7.12132E+08 2.77657E+07-9.43382E-05 3.05849E-04
 -1       726 9.89394E+09 6.46889E+06 3.70847E+08-2.95082E+05-1.95475E-04-2.15692E-04
 -1       727 1.92201E+10 9.91696E+07 9.96685E+08-1.66563E+08 9.80974E-05 1.43631E-04
 -1       728 1.46245E+10 3.44314E+07 7.11695E+08-2.77124E+07 1.83078E-04 8.27487E-05
 -1       729 2.75270E+10-1.25082E+08 1.76904E+09 1.58304E+09-2.05784E-05-9.83500E-05
 -1       730 2.73931E+10-1.00438E+10-1.14391E+09 3.31692E+07 2.21193E-04-1.47132E-06
 -1       731 2.86735E+10-1.21952E+09 1.71670E+09-7.69136E+08-1.87399E-04 2.61244E-04
 -1       732 5.03408E+09 2.03101E+07-1.95908E+08 2.71836E+05 1.67339E-05 4.51131E-05
 -1       733 5.01296E+09 9.69272E+06-2.03320E+08-2.81980E+07 2.06103E-04-5.62752E-05
 -1       734 2.75876E+10-1.77396E+08 1.76641E+09-1.59118E+09-3.11067E-05 7.24510E-05
 -1       735 2.88072E+10-1.00365E+09 1.80829E+09 6.62685E+08 1.74027E-04 1.34110E-04
 -1       736 5.01271E+09 9.62442E+06-2.03420E+08 2.82836E+07-4.99400E-05 2.44593E-05
 -1       737 2.31372E+10 6.90889E+08 1.37892E+09-1.35048E+07 3.14669E-05-1.49736E-04
 -1       738 2.36024E+10 4.81997E+08 1.43517E+09 6.49812E+08 4.76341E-05-1.93192E-04
 -1       739 2.36137E+10 4.81129E+08 1.43687E+09-6.49725E+08-7.16715E-05-1.98556E-04
 -1       740 1.91508E+10 2.11066E+08 1.00941E+09 9.95124E+07 1.44885E-04-2.44818E-04
 -1       741 1.69091E+10 4.16343E+07 8.37348E+08 8.22089E+07-6.65274E-05-7.00647E-05
 -1       742 1.46503E+10 5.30456E+07 7.22093E+08 1.90419E+07 2.56003E-04 2.94631E-05
 -1       743 1.68828E+10 1.26806E+08 8.50537E+08-1.61044E+06 2.17256E-04-5.95767E-05
 -1       744 1.92629E+10 5.96356E+07 9.97840E+08 1.10704E+08-1.87994E-04-6.83806E-05
 -1       745 1.45834E+10 1.49496E+07 6.96731E+08 1.79880E+07-2.36169E-04-4.65950E-05
 -1       746 9.84107E+09 8.13300E+06 3.58358E+08 1.25997E+06 4.34090E-05-1.56776E-04
 -1       747 1.22588E+10 7.73167E+06 5.49829E+08 1.22274E+07 2.59767E-04 1.04191E-04
 -1       748 9.93113E+09 2.18442E+07 3.83804E+08 1.19456E+05 9.59340E-04-1.40559E-04
 -1       749 1.22968E+10 1.89870E+07 5.59547E+08-2.75162E+05 2.43730E-04 3.39988E-04
 -1       750 1.46499E+10 5.23820E+07 7.21757E+08-1.97066E+07 4.05431E-04 2.24966E-04
 -1       751 1.69101E+10 3.93794E+07 8.36823E+08-8.22162E+07 3.06257E-04 8.65764E-05
 -1       752 1.91551E+10 2.09407E+08 1.00997E+09-1.03196E+08 1.74374E-04 3.01981E-05
 -1       753 9.93049E+09 2.16093E+07 3.83569E+08-7.96177E+04-4.70622E-04-1.07777E-04
 -1       754 1.22580E+10 7.69678E+06 5.49574E+08-1.21219E+07-2.57267E-05-3.85998E-04
 -1       755 9.84007E+09 7.95953E+06 3.57994E+08-1.24958E+06-3.53968E-04-2.49282E-04
 -1       756 1.45826E+10 1.45856E+07 6.96305E+08-1.77301E+07 2.98014E-04-4.63566E-05
 -1       757 1.92620E+10 5.84256E+07 9.96854E+08-1.10053E+08 1.37117E-04 1.55427E-05
 -1       758 2.95332E+10 2.27782E+08 2.40298E+09 1.18917E+09 2.30668E-04-1.16903E-05
 -1       759 2.84957E+10 2.82239E+08 2.05147E+09 8.30333E+08-3.30297E-05 4.44251E-04
 -1       760 3.02222E+10-2.55009E+09 1.61363E+09 1.01342E+09 1.43292E-04 4.58562E-04
 -1       761 2.59213E+10 1.00656E+08 1.41378E+09 7.06775E+08-2.20792E-04 1.79361E-04
 -1       762 2.82305E+10-2.22308E+09 1.35675E+09-6.48529E+06 1.81580E-04-6.73283E-05
 -1       763 2.86985E+10-6.44587E+09 2.82626E+08-1.84776E+09 3.42673E-04 2.50410E-04
 -1       764 3.91649E+10-1.99180E+10-4.07765E+08 4.88191E+07 4.00850E-04-9.58352E-05
 -1       765 3.34966E+10-1.03332E+10 6.67577E+08-1.17219E+10 7.09047E-06 2.50681E-04
 -1       766 4.97887E+09 7.50981E+06-2.12638E+08-1.87484E+07 8.19676E-05 1.65303E-05
 -1       767 7.46896E+09 7.72428E+06 1.27035E+08-1.02823E+07 3.55901E-04 1.88006E-06
 -1       768 2.53583E+09-1.92290E+06-6.61880E+08-2.41885E+07 2.17509E-04-4.31368E-05
 -1       769 2.54901E+09-5.26884E+06-6.59648E+08 9.64729E+04-2.75988E-05 3.48228E-04
 -1       770 5.02865E+09 1.63336E+07-1.98007E+08-1.35139E+07-9.62442E-06-1.11737E-04
 -1       771 7.50699E+09 2.16497E+07 1.39181E+08 1.18773E+05 1.52563E-04-6.91559E-04
 -1       772 3.04243E+10-2.40335E+09 1.70411E+09-9.45266E+08 4.17353E-04-4.63724E-04
 -1       773 2.85700E+10 3.50858E+08 2.08572E+09-8.45557E+08 1.36502E-04 7.76325E-05
 -1       774 2.95733E+10 2.33390E+08 2.41213E+09-1.18194E+09-2.53616E-04-5.90390E-04
 -1       775 3.33696E+10-1.03554E+10 6.04714E+08 1.17375E+10 4.25879E-04-2.07027E-04
 -1       776 2.86905E+10-6.46200E+09 2.67319E+08 1.84320E+09 1.17921E-04 8.22066E-05
 -1       777 2.59633E+10 9.61107E+07 1.42122E+09-7.39948E+08 6.03342E-05 2.53928E-04
 -1       778 7.46833E+09 7.56747E+06 1.26825E+08 1.02214E+07-2.03299E-04-9.62292E-05
 -1       779 4.97848E+09 7.40237E+06-2.12800E+08 1.87644E+07 2.42223E-05-1.90775E-04
 -1       780 5.02840E+09 1.62115E+07-1.98117E+08 1.38717E+07 6.09750E-05-2.37860E-04
 -1       781 2.53582E+09-1.86271E+06-6.61852E+08 2.41893E+07-1.30077E-04-1.83208E-04
 -1       782 2.13650E+10 2.53015E+08 1.16479E+09 3.38611E+08 8.05056E-05-3.43516E-04
 -1       783 2.40653E+10 1.48452E+08 1.45900E+09 4.41669E+08 5.61038E-05-1.92092E-04
 -1       784 2.10698E+10 4.18734E+08 1.13195E+09-6.83170E+06 6.89895E-05-3.25651E-04
 -1       785 2.31095E+10 4.88062E+08 1.30436E+09 3.45703E+08 1.15073E-04-1.69492E-04
 -1       786 2.46053E+10 9.67502E+08 1.53518E+09-1.81048E+07 3.39787E-05-2.70188E-05
 -1       787 2.56489E+10 3.22864E+08 1.61395E+09 9.38248E+08-8.19779E-06-7.06810E-04
 -1       788 2.40732E+10 1.44141E+08 1.45878E+09-4.37873E+08-1.63664E-04-1.46912E-04
 -1       789 2.13723E+10 2.51545E+08 1.16583E+09-3.37258E+08 3.22217E-05-1.81511E-04
 -1       790 2.56831E+10 2.92824E+08 1.61256E+09-9.40910E+08-1.01251E-04-1.49386E-04
 -1       791 2.31202E+10 4.82144E+08 1.30481E+09-3.59192E+08-7.29781E-05-4.01115E-04
 -3
    1PSTEP                         3           1           1          
  100CL  101 1.000000000         783                     0    1           1
 -4  TOSTRAIN    6    1
 -5  EXX         1    4    1    1
 -5  EYY         1    4    2    2
 -5  EZZ         1    4    3    3
 -5  EXY         1    4    1    2
 -5  EYZ         1    4    2    3
 -5  EZX         1    4    3    1
 -1         1-4.75422E-01-6.09677E-01 1.90070E+00 7.73287E-03 1.61381E-15 4.63397E-16
 -1         2-3.67967E-01-3.71710E-01 1.27771E+00-4.54994E-02-2.02897E-15-3.80267E-15
 -1         3 2.98657E+00-1.84967E+00 1.39710E+00-2.67224E-01-4.25215E-16-6.96213E-15
 -1         4-6.62181E-02-1.93117E+00 1.74775E+00 2.86528E-02 9.43870E-18 7.17911E-15
 -1         5-4.46007E-01 4.29063E-01 1.30009E+00 5.20313E-02-1.60664E-16-7.65209E-15
 -1         6-4.12811E-02-1.19835E+00 1.27618E+00 3.88635E-02 1.37187E-16-2.77126E-16
 -1         7-6.76241E-02-7.63008E-02 1.27915E+00-3.72438E-01-8.59971E-16-1.65206E-15
 -1         8-2.58437E-01 1.52702E-01 1.37213E+00 2.81586E-01 1.00942E-16-1.82773E-15
 -1         9-2.39074E-01-2.51898E-01 8.12946E-01 1.34444E-03-2.93289E-16-4.92025E-16
 -1        10-2.51443E-01-2.38406E-01 8.28237E-01-4.09139E-03 3.52656E-17 7.33422E-15
 -1        11 2.24568E+00-1.65559E+00 1.73922E+00-3.14237E-01 2.83468E-16 5.64523E-15
 -1        14 1.80798E-03 1.86150E-03-6.29528E-03-6.88337E-05 8.17809E-16-1.71033E-15
 -1        15 1.80876E-03 1.86133E-03-6.29537E-03 6.88834E-05 1.69662E-15 1.40112E-15
 -1        16-6.52582E-01-6.16572E-01 2.15003E+00 9.90125E-04-4.84161E-16 1.78470E-14
 -1        18-4.76394E-01-6.09082E-01 1.89953E+00-7.03507E-03-3.46376E-16 2.66217E-15
 -1        20-6.53764E-01-6.16795E-01 2.15109E+00-5.44391E-04-1.85604E-15 1.07657E-14
 -1        21-3.71457E-01-4.19135E-01 1.35046E+00 1.27635E-02-1.56737E-15 1.60500E-15
 -1        22-3.74751E-01-3.69435E-01 1.27693E+00 4.26881E-02 1.98448E-16 9.40515E-15
 -1        24-3.64595E-01-4.18314E-01 1.35131E+00-9.98433E-03-1.69960E-15-9.82385E-15
 -1        25 9.23807E-01-3.68968E-01 1.29023E+00 1.72108E+00 2.16404E-16-3.14060E-15
 -1        27 2.82291E+00-1.73210E+00 1.39612E+00 2.82489E-01 4.06072E-17 1.11332E-14
 -1        28 8.52440E-01-2.80107E-01 1.29020E+00-1.76641E+00-8.61895E-16-4.40893E-15
 -1        30-1.96116E-01-1.48616E+00 1.74245E+00 5.50781E-03-4.20754E-17 1.12715E-14
 -1        32 2.33023E+00-1.71125E+00 1.74297E+00 4.01638E-01-5.12738E-16-8.09859E-15
 -1        33-3.29162E-01-5.97593E-01 1.72669E+00 5.16163E-03 8.67419E-16 4.34103E-15
 -1        34-2.90186E-01-5.52288E-01 1.58414E+00 4.89350E-03 4.05087E-16 8.37597E-16
 -1        35-3.03091E-01-4.97279E-01 1.46104E+00 4.29802E-03-2.81921E-16-2.37877E-15
 -1        36-3.93951E-01-6.03904E-01 1.80804E+00-2.58280E-03-2.69403E-16-1.15528E-14
 -1        37-3.06952E-01-5.75888E-01 1.65206E+00 3.73424E-03 1.18972E-15-3.88777E-15
 -1        38-2.95188E-01-5.20110E-01 1.52034E+00-2.11284E-04 1.28370E-16 8.15177E-16
 -1        39-3.39043E-01-4.55458E-01 1.40425E+00-7.03605E-03-3.42266E-16-1.47946E-14
 -1        40-2.94891E-01-2.85174E-01 1.22638E+00 2.10970E-01 2.04171E-16-2.61110E-15
 -1        41-2.31839E-01-2.11660E-01 1.20591E+00 4.05619E-01-1.00484E-19-5.51165E-15
 -1        42-1.67988E-01-5.14712E-02 1.21710E+00 6.60756E-01-1.28027E-16 3.05503E-16
 -1        43-3.31425E-01-3.24140E-01 1.24737E+00 1.27570E-01-1.69781E-16-8.71131E-15
 -1        44-2.50303E-01-2.40517E-01 1.21223E+00 3.10997E-01 1.52182E-16 3.54469E-15
 -1        45-1.96137E-01-1.40468E-01 1.20596E+00 5.37546E-01 7.62822E-17 4.99862E-15
 -1        46 1.49206E-01-9.95999E-02 1.24095E+00 1.11115E+00-4.69728E-16 1.90206E-15
 -1        47 2.35101E+00-1.71767E+00 1.48634E+00-4.37103E-02-5.63778E-16-1.75970E-14
 -1        48 2.30841E+00-1.65106E+00 1.55207E+00 6.37643E-03-3.66134E-16-8.78297E-16
 -1        49 2.24254E+00-1.65158E+00 1.60378E+00-2.13823E-03-3.62441E-16-9.50620E-15
 -1        50 2.18537E+00-1.64100E+00 1.64430E+00-5.24339E-04 2.02046E-17 5.24274E-16
 -1        51 2.13276E+00-1.63407E+00 1.67637E+00 8.71303E-04-2.20470E-17-7.18135E-15
 -1        52 2.08702E+00-1.62329E+00 1.70195E+00-6.47770E-03-1.47167E-16-1.83075E-14
 -1        53 2.00304E+00-1.61241E+00 1.72083E+00 2.45892E-02 2.49097E-16 1.75320E-15
 -1        54 2.48655E+00-1.64237E+00 1.44674E+00 7.49300E-02-5.31984E-16-4.98438E-15
 -1        55 2.34109E+00-1.66704E+00 1.52143E+00-1.49102E-02-1.87179E-16-1.16672E-15
 -1        56 2.27760E+00-1.64794E+00 1.57966E+00 2.96559E-03 4.05880E-16 2.86804E-14
 -1        57 2.21256E+00-1.64610E+00 1.62536E+00 1.49645E-03 7.02463E-17-1.76461E-14
 -1        58 2.15836E+00-1.63640E+00 1.66142E+00 4.73180E-04 5.11123E-16-1.24752E-14
 -1        59 2.11188E+00-1.62961E+00 1.69000E+00-1.66592E-05 1.72268E-16-5.95333E-15
 -1        60 2.04256E+00-1.61460E+00 1.71237E+00 2.52177E-03-2.08385E-17-1.26736E-14
 -1        61 2.06956E+00-1.67725E+00 1.72949E+00-3.53678E-02 2.22102E-16-1.91899E-14
 -1        62-8.33732E-01-8.32016E-01 1.62667E+00-1.73084E-01 1.94344E-17-2.11217E-14
 -1        63-5.80439E-01-1.10506E-01 1.47021E+00-6.60035E-03-6.63101E-17-1.04670E-15
 -1        64 4.73274E-03 2.88098E-01 1.34644E+00-4.66315E-02 9.69455E-17 8.48093E-16
 -1        65-3.13023E-02-1.22515E+00 1.69191E+00 1.63053E-02-2.28039E-16 1.46327E-14
 -1        66-4.74009E-01-4.80071E-01 1.54788E+00 2.74314E-02-5.03892E-17 1.78093E-15
 -1        67-1.34846E+00 9.73233E-02 1.40057E+00-4.94219E-02 6.71760E-17-1.15018E-15
 -1        68-8.96989E-01 3.77292E-01 1.31209E+00 6.63792E-02-3.60511E-17-1.25242E-15
 -1        69-5.30373E-01 2.48002E-02 1.29319E+00 4.43637E-02 5.35655E-17-9.17732E-15
 -1        70-5.27875E-01-3.66138E-01 1.28676E+00 3.49086E-02 2.49735E-17 2.72950E-15
 -1        71-2.02131E-01-7.81793E-01 1.28119E+00 3.91497E-02-8.11961E-18 6.80123E-15
 -1        72-6.31258E-01 2.46444E-01 1.29634E+00 3.31484E-02-6.25888E-17-5.39853E-15
 -1        73-4.68478E-01-1.93544E-01 1.28977E+00 2.86177E-02-7.33287E-17-8.02147E-15
 -1        74-2.79367E-01-5.73316E-01 1.28363E+00 4.44012E-02-9.18237E-17-7.57410E-15
 -1        75-1.22387E-01-9.90046E-01 1.27837E+00 3.86185E-02-1.02424E-16 2.81295E-15
 -1        76-9.46501E-02-1.08355E+00 1.32158E+00 5.33212E-02-9.11420E-17 6.49743E-15
 -1        77-3.31541E-01-6.65629E-01 1.44249E+00 1.47730E-02 3.22380E-17-1.00356E-14
 -1        78-7.71470E-01-1.12421E-01 1.59524E+00-1.52658E-01 1.15119E-16 3.65326E-15
 -1        79-5.39808E-02-1.15200E+00 1.28789E+00 1.20347E-03 1.90155E-16-7.52413E-15
 -1        80-2.07547E-01-9.30724E-01 1.37476E+00-4.65869E-02-1.39114E-17-3.65133E-15
 -1        81-6.17173E-01-4.43319E-01 1.51988E+00-6.02315E-02 6.38702E-16-1.58960E-14
 -1        82-7.11615E-01 8.70642E-02 1.66101E+00 1.32174E-01-2.57341E-17-1.44984E-14
 -1        83 3.21785E-01-2.11282E-01 8.46104E-01-5.31184E-01 4.42410E-16 4.50035E-15
 -1        84 7.68809E-01-3.03186E-01 1.22162E+00 2.89226E-03-2.89507E-17 4.79449E-16
 -1        85 3.13673E-01-2.08884E-01 8.47814E-01 5.41186E-01 8.18479E-16 9.34066E-15
 -1        86 3.14268E-03-1.57165E-01 8.45239E-01-5.71513E-01-3.30430E-15-3.20204E-15
 -1        87 5.20213E-01-2.27675E-01 8.46091E-01-2.70238E-01 2.23028E-15-6.12036E-16
 -1        88 5.20125E-01-2.27729E-01 8.46950E-01 2.77344E-01 1.67252E-15-1.20512E-14
 -1        89-2.15158E-03-1.49496E-01 8.47794E-01 5.86023E-01 1.10664E-15-5.38827E-15
 -1        90-2.53425E-01 2.91587E-01 1.57565E+00 1.05689E-01 5.21576E-16 4.91957E-15
 -1        91-4.78216E-01-1.57109E-01 1.34667E+00-3.49051E-02 4.02551E-17 6.40041E-15
 -1        92-2.06203E-01-2.65230E-01 1.08381E+00 3.00778E-02-3.97375E-17 1.79191E-15
 -1        93-1.27810E+00 5.21560E-01 1.65943E+00-5.00460E-02 5.35676E-16-6.40405E-15
 -1        94-7.11706E-01 7.02466E-02 1.46723E+00 1.12460E-02-1.04245E-17-1.38828E-14
 -1        95-4.90212E-01-2.19132E-01 1.21632E+00-3.26356E-04 2.41802E-16-1.10888E-14
 -1        96-2.91874E-01-2.65816E-01 9.48222E-01 2.33016E-04 2.72755E-16-2.51139E-16
 -1        97-2.41134E-01-2.51113E-01 8.16732E-01-1.12580E-02 2.09382E-16 9.01468E-16
 -1        98-2.43215E-01-2.50027E-01 8.20548E-01 1.38438E-03-3.28308E-16-1.98677E-15
 -1        99-2.41890E-01-2.43730E-01 8.24363E-01-9.98508E-03-1.42247E-15 1.02585E-15
 -1       100-2.41694E-01-2.52095E-01 8.14648E-01-3.83419E-03 2.61932E-16 6.05195E-15
 -1       101-2.42877E-01-2.47895E-01 8.18437E-01-4.87760E-03-2.89408E-16 5.12678E-16
 -1       102-2.38154E-01-2.48405E-01 8.22259E-01-7.21948E-03 9.36322E-16 7.90289E-16
 -1       103-2.46141E-01-2.40966E-01 8.26102E-01-6.03772E-03-1.08448E-15 5.98853E-15
 -1       104-2.93973E-01-3.87981E-01 1.10405E+00-2.02800E-02 1.13222E-15 2.78537E-15
 -1       105-3.19172E-01-7.28468E-01 1.37185E+00 3.53300E-03-7.99964E-16-3.04737E-15
 -1       106-5.40344E-01-1.21323E+00 1.60475E+00 1.32246E-01-4.50086E-16 4.21240E-15
 -1       107-2.80392E-01-3.12544E-01 9.66167E-01 1.73554E-03-1.57933E-16-6.80185E-15
 -1       108-3.21346E-01-5.13386E-01 1.23950E+00 1.19987E-02 3.35713E-16-2.54847E-15
 -1       109 2.10695E-01-9.56112E-01 1.49523E+00 1.12453E-01-4.59321E-16 1.11831E-15
 -1       110 9.86291E-02-1.61103E+00 1.69169E+00-1.89429E-01-8.40235E-17 1.00054E-15
 -1       111 2.02723E+00-1.69469E+00 1.72567E+00-6.90132E-02 7.33980E-16-1.27068E-14
 -1       112 2.09524E+00-1.63070E+00 1.70515E+00 8.15531E-03 8.61174E-17-1.15142E-14
 -1       113 2.13815E+00-1.63765E+00 1.67929E+00-2.34946E-03-5.31709E-16 1.12921E-15
 -1       114 2.19051E+00-1.64434E+00 1.64701E+00 2.51230E-04-5.24997E-16-1.93411E-15
 -1       115 2.24856E+00-1.65259E+00 1.60621E+00-1.39368E-04 6.15767E-16-1.44552E-14
 -1       116 2.31430E+00-1.65798E+00 1.55423E+00-2.57655E-03 1.65689E-16 6.97242E-15
 -1       117 2.33615E+00-1.70954E+00 1.48778E+00 7.51920E-02 3.84996E-16 3.05302E-15
 -1       118 2.05113E+00-1.72488E+00 1.73383E+00-2.47043E-02-6.10048E-16-1.98570E-14
 -1       119 2.07522E+00-1.61461E+00 1.71603E+00-1.71628E-02-1.03015E-15-1.10069E-14
 -1       120 2.11948E+00-1.64108E+00 1.69303E+00 1.94255E-03 2.33815E-16-1.52325E-14
 -1       121 2.16443E+00-1.63903E+00 1.66424E+00 1.27537E-03 7.86619E-16-1.32522E-14
 -1       122 2.21929E+00-1.64901E+00 1.62798E+00 3.89503E-04-9.57739E-16-4.71086E-15
 -1       123 2.28297E+00-1.65612E+00 1.58202E+00 1.18784E-03-1.90880E-15-1.34591E-17
 -1       124 2.35288E+00-1.63395E+00 1.52334E+00-2.92507E-03-4.85370E-16-6.77101E-15
 -1       125 2.47606E+00-1.73963E+00 1.44942E+00 9.33841E-03 3.09341E-15-3.83333E-15
 -1       126-1.56367E-01-5.86584E-02 1.21750E+00-6.49517E-01 2.00706E-16 7.06294E-15
 -1       127-2.25041E-01-2.13666E-01 1.20640E+00-4.06810E-01 6.92399E-16-7.95375E-15
 -1       128-2.91418E-01-2.87264E-01 1.22697E+00-2.10294E-01-3.33678E-17-4.29534E-15
 -1       129 1.30692E-01-8.70100E-02 1.24097E+00-1.10833E+00-1.12258E-15 1.35964E-14
 -1       130-1.84490E-01-1.44879E-01 1.20647E+00-5.36401E-01-7.78775E-16-4.63339E-16
 -1       131-2.47451E-01-2.42280E-01 1.21276E+00-3.11373E-01 5.11908E-17 2.02348E-15
 -1       132-3.28207E-01-3.27693E-01 1.24803E+00-1.27267E-01-1.26395E-15 1.82985E-14
 -1       133-3.06337E-01-4.91781E-01 1.46202E+00-9.51575E-03 1.98833E-15 4.95885E-15
 -1       134-2.91212E-01-5.49785E-01 1.58508E+00-1.09692E-02 2.83850E-16-2.74386E-15
 -1       135-3.30299E-01-5.98352E-01 1.72778E+00-5.71485E-03 2.98300E-16 1.63993E-15
 -1       136-3.38827E-01-4.56377E-01 1.40503E+00-8.96976E-03 2.20435E-15-9.97562E-15
 -1       137-2.92881E-01-5.19849E-01 1.52126E+00-5.78211E-03 1.47535E-15-1.43983E-14
 -1       138-3.08399E-01-5.75300E-01 1.65309E+00-5.74769E-03 2.10209E-15 5.23672E-15
 -1       139-3.93645E-01-6.04104E-01 1.80921E+00 3.27375E-03 9.98967E-16-1.11296E-14
 -1       140-6.24950E-01-6.98752E-01 2.16617E+00-4.62546E-03-1.08421E-16 4.70194E-15
 -1       141-5.86107E-01-8.11409E-01 2.18569E+00-1.73968E-03-1.32094E-15 8.38156E-16
 -1       142-5.56476E-01-8.97785E-01 2.20123E+00 4.55458E-03-1.12354E-15-8.15032E-15
 -1       143-5.48879E-01-9.19602E-01 2.20699E+00 4.97992E-03 1.75069E-15 4.05450E-16
 -1       144-5.57720E-01-8.99208E-01 2.20096E+00 2.57607E-03 1.97422E-16 4.66056E-15
 -1       145-5.87210E-01-8.06992E-01 2.18507E+00 7.05453E-03-1.14141E-16-6.56741E-15
 -1       146-6.24597E-01-6.99199E-01 2.16538E+00 4.27318E-03-2.63801E-16-4.93438E-15
 -1       147-6.41772E-01-6.54058E-01 2.15697E+00-1.48755E-03 4.20106E-15 9.11981E-15
 -1       148-6.08073E-01-7.55701E-01 2.17541E+00-2.21850E-03 4.33006E-16 2.83068E-14
 -1       149-5.75035E-01-8.56295E-01 2.19390E+00 1.22583E-03-5.43824E-17 1.23864E-14
 -1       150-5.52233E-01-9.14252E-01 2.20512E+00 7.08391E-03-3.53229E-15 1.49961E-14
 -1       151-5.52941E-01-9.17616E-01 2.20501E+00 2.19167E-03-9.61729E-16-1.35748E-14
 -1       152-5.70830E-01-8.54784E-01 2.19347E+00 5.40072E-03-3.28637E-16 1.76359E-14
 -1       153-6.08805E-01-7.55729E-01 2.17471E+00 2.95575E-03-2.55214E-17 2.78800E-14
 -1       154-6.41822E-01-6.53861E-01 2.15607E+00 2.12819E-03 3.08684E-16-3.06990E-14
 -1       155 2.16691E-01-7.63548E-02-3.27223E-02 1.31885E-02 1.59610E-15 9.67825E-16
 -1       156 1.45089E-01-4.63384E-02-3.15155E-02 3.69158E-03 6.59102E-16 6.97114E-16
 -1       157 1.15443E-01-3.83142E-02-2.79448E-02 8.84787E-04 3.68822E-16-6.92916E-16
 -1       158 9.06935E-02-2.89779E-02-2.30620E-02 1.57100E-04-4.85350E-16-6.10596E-16
 -1       159 6.87158E-02-2.19440E-02-1.76923E-02 2.40050E-05 1.68284E-16-1.03880E-15
 -1       160 4.63916E-02-1.45439E-02-1.24714E-02 9.79705E-06-6.93414E-16 1.79818E-15
 -1       161 2.39497E-02-6.79187E-03-8.20838E-03-4.70811E-05-1.62258E-15-1.21277E-15
 -1       162 2.26421E-01-4.09066E-02-3.21040E-02 2.84735E-02-2.56261E-15-5.39781E-15
 -1       163 1.66173E-01-6.17427E-02-3.24439E-02-1.51377E-03 1.74000E-15 2.32563E-15
 -1       164 1.30088E-01-4.20585E-02-2.99606E-02 1.46583E-03 6.82581E-16-2.07404E-15
 -1       165 1.02894E-01-3.36122E-02-2.56046E-02-7.10774E-07-4.96980E-16-4.07598E-16
 -1       166 7.98121E-02-2.54823E-02-2.03989E-02 2.85158E-05-1.32599E-15-2.36523E-15
 -1       167 5.75970E-02-1.82889E-02-1.50206E-02-1.92729E-06-1.98769E-16 2.03940E-16
 -1       168 3.51619E-02-1.07531E-02-1.01527E-02 3.03437E-06-1.57980E-15 4.61427E-17
 -1       169 1.28794E-02-2.57239E-03-6.83178E-03-5.28987E-05 7.92833E-17 1.64488E-16
 -1       170 1.95028E-03 1.55636E-03-6.29521E-03-1.09770E-04 1.98114E-16-4.50266E-16
 -1       171 2.02947E-03 1.34575E-03-6.29484E-03-9.40068E-08 1.48164E-16 1.12491E-15
 -1       172 1.95139E-03 1.55625E-03-6.29531E-03 1.09952E-04-4.55003E-16-2.24234E-15
 -1       173 1.93212E-03 1.74064E-03-6.29576E-03-9.32158E-05 2.47461E-15-1.41560E-15
 -1       174 1.99951E-03 1.41921E-03-6.29508E-03-3.59391E-05 2.58231E-15 2.62959E-15
 -1       175 1.99964E-03 1.41906E-03-6.29514E-03 3.60328E-05-5.44743E-15 1.20178E-15
 -1       176 1.93206E-03 1.74054E-03-6.29586E-03 9.35469E-05 3.93389E-15-1.93026E-16
 -1       177 2.39498E-02-6.79176E-03-8.20848E-03 4.69399E-05 3.99689E-16-2.14871E-16
 -1       178 4.63910E-02-1.45419E-02-1.24716E-02-9.19820E-06-2.84610E-16-1.55721E-15
 -1       179 6.87188E-02-2.19485E-02-1.76928E-02-2.41624E-05 8.51866E-16 1.46419E-15
 -1       180 9.06855E-02-2.89534E-02-2.30638E-02-1.52771E-04-6.17580E-16-1.66507E-16
 -1       181 1.15485E-01-3.84047E-02-2.79500E-02-8.75147E-04-6.91171E-16-1.97813E-15
 -1       182 1.44905E-01-4.59452E-02-3.15359E-02-3.56550E-03-1.28060E-15 2.46834E-16
 -1       183 2.16914E-01-7.72154E-02-3.27812E-02-1.19324E-02 1.64719E-16-1.23874E-15
 -1       184 1.28796E-02-2.57207E-03-6.83175E-03 5.23641E-05 1.72320E-15 2.80064E-16
 -1       185 3.51616E-02-1.07524E-02-1.01528E-02-3.71389E-06-6.31337E-16 2.31758E-16
 -1       186 5.75980E-02-1.82897E-02-1.50209E-02 2.40057E-06 2.27565E-16-4.13981E-15
 -1       187 7.98086E-02-2.54732E-02-2.03999E-02-2.90158E-05 3.09003E-16 2.85455E-15
 -1       188 1.02908E-01-3.36392E-02-2.56074E-02 1.43340E-05-5.35610E-16-3.14789E-16
 -1       189 1.30031E-01-4.19197E-02-2.99718E-02-1.47036E-03-1.37438E-15-1.95218E-15
 -1       190 1.66083E-01-6.22167E-02-3.24737E-02 1.81297E-03-5.65928E-17-2.03330E-15
 -1       191 2.24414E-01-3.89858E-02-3.22354E-02-3.00360E-02 1.64788E-15-3.02048E-15
 -1       192-6.46034E-01-6.12532E-01 2.12635E+00-1.56005E-02-9.07949E-17-8.38887E-15
 -1       193-6.17810E-01-6.08327E-01 2.06788E+00-2.80119E-02-3.17611E-16-1.33345E-14
 -1       194-5.64247E-01-6.05066E-01 1.98703E+00-2.48334E-02-1.82745E-16-3.58229E-15
 -1       195-6.47094E-01-6.18350E-01 2.14247E+00-7.60362E-03 1.35141E-16-1.36219E-14
 -1       196-6.27490E-01-6.12335E-01 2.10031E+00-1.94110E-02-6.20512E-16 6.85167E-15
 -1       197-5.84327E-01-6.09065E-01 2.02881E+00-2.72208E-02-5.90009E-16 2.59127E-15
 -1       198-5.23673E-01-6.10056E-01 1.94262E+00-1.57307E-02-2.35476E-16 1.07023E-15
 -1       199-5.64762E-01-6.05454E-01 1.98824E+00 2.47818E-02 4.72188E-15 9.50782E-15
 -1       200-6.18536E-01-6.09122E-01 2.06909E+00 2.81205E-02-4.22191E-15-2.46307E-15
 -1       201-6.46548E-01-6.13172E-01 2.12750E+00 1.58972E-02-3.01852E-15 7.18322E-16
 -1       202-5.23890E-01-6.10530E-01 1.94381E+00 1.58988E-02 1.80484E-15-3.75344E-14
 -1       203-5.84629E-01-6.09488E-01 2.03002E+00 2.71059E-02-4.34041E-15 7.83004E-15
 -1       204-6.28050E-01-6.12591E-01 2.10149E+00 1.93096E-02-2.04444E-15-1.07524E-14
 -1       205-6.47692E-01-6.18859E-01 2.14358E+00 7.59515E-03-3.02271E-16 1.99692E-14
 -1       206-3.79079E-01-4.12590E-01 1.32796E+00 4.16801E-03 2.15844E-16-5.49518E-15
 -1       207-3.81664E-01-4.00842E-01 1.30755E+00 1.19994E-02 5.77334E-16-2.64046E-15
 -1       208-3.81315E-01-3.86636E-01 1.29024E+00 2.51312E-02 1.03522E-16 6.06286E-15
 -1       209-3.72812E-01-4.18736E-01 1.33877E+00 3.10949E-03-4.87264E-16 1.26090E-14
 -1       210-3.75344E-01-4.08001E-01 1.31716E+00 9.53886E-03 9.42591E-17 4.69982E-15
 -1       211-3.77490E-01-3.93793E-01 1.29817E+00 1.96751E-02 9.79941E-16-1.98177E-14
 -1       212-3.75356E-01-3.77637E-01 1.28277E+00 3.51646E-02-3.57206E-16 4.60478E-15
 -1       213-3.82771E-01-3.89941E-01 1.29105E+00-2.14221E-02 8.74358E-16-6.56347E-15
 -1       214-3.86472E-01-4.17313E-01 1.30838E+00-1.82657E-02-1.77650E-15-1.23370E-14
 -1       215-3.78745E-01-4.09146E-01 1.32877E+00-9.07310E-03 2.65644E-15 4.60002E-15
 -1       216-3.72790E-01-3.78118E-01 1.28355E+00-3.04903E-02-2.04944E-15 5.43899E-16
 -1       217-3.75020E-01-3.87468E-01 1.29901E+00-1.27378E-02-1.08487E-15-2.47040E-15
 -1       218-3.76857E-01-3.97602E-01 1.31799E+00-5.82419E-03-1.79575E-16-1.37474E-14
 -1       219-3.76237E-01-4.09574E-01 1.33958E+00-7.88676E-03 8.21302E-16-2.62735E-15
 -1       220 2.16749E+00-6.27403E-01 1.31685E+00 2.17092E+00 5.27576E-16 2.84976E-15
 -1       221 2.99180E+00-1.39705E+00 1.34491E+00 1.74198E+00 3.50391E-16 9.20554E-15
 -1       222 4.02528E+00-2.11279E+00 1.37228E+00 1.20520E+00 1.29740E-16 6.26173E-15
 -1       223 1.29667E+00-4.85668E-01 1.30359E+00 1.96985E+00 1.65718E-16 1.22359E-14
 -1       224 2.84064E+00-1.17551E+00 1.33170E+00 2.07974E+00 8.91793E-17 1.91272E-16
 -1       225 3.53621E+00-1.68830E+00 1.35855E+00 1.61939E+00 2.62220E-16-2.88855E-15
 -1       226 3.70501E+00-1.89237E+00 1.38588E+00 6.74960E-01 4.16028E-16 2.95698E-14
 -1       227 4.02517E+00-2.15737E+00 1.37327E+00-1.21710E+00 5.56916E-16 2.51813E-15
 -1       228 3.00063E+00-1.40561E+00 1.34543E+00-1.82394E+00-7.19701E-16 1.09876E-14
 -1       229 1.98439E+00-5.13849E-01 1.31721E+00-2.26603E+00-6.84932E-17-8.89611E-16
 -1       230 3.71835E+00-1.94678E+00 1.38686E+00-6.67859E-01-2.13644E-15-1.48002E-14
 -1       231 3.55526E+00-1.71596E+00 1.35942E+00-1.65459E+00-1.79267E-15 2.84409E-15
 -1       232 2.74246E+00-1.15517E+00 1.33202E+00-2.17071E+00 2.48652E-15 7.64282E-15
 -1       233 1.14356E+00-3.46022E-01 1.30379E+00-2.04095E+00-2.30378E-15-4.37784E-15
 -1       234 1.92511E+00-1.23780E+00 1.75086E+00-1.57862E+00 2.82405E-17-1.09323E-14
 -1       235-2.07359E-02-1.07832E-02 1.75648E+00-9.73391E-01 4.16147E-16-1.16681E-14
 -1       236-9.13545E-01-1.15902E-01 1.75474E+00-1.18542E-01-5.44426E-16-6.66079E-15
 -1       237 2.48009E+00-1.53927E+00 1.74478E+00-1.06851E+00-1.26140E-16-1.05238E-14
 -1       238 1.05254E+00-5.94914E-01 1.75469E+00-1.36200E+00-1.11151E-16-1.64396E-14
 -1       239-3.49127E-01 2.88928E-01 1.75590E+00-4.27541E-01 3.26404E-16 6.51510E-15
 -1       240-2.89014E-01-1.34670E+00 1.74958E+00-3.41081E-01-1.22366E-16 1.09913E-14
 -1       241-9.59263E-01-1.36038E-01 1.76044E+00 1.02404E-01 1.05800E-16-1.15602E-14
 -1       242-2.87488E-02 4.26763E-03 1.76105E+00 9.57351E-01 8.56158E-16-9.05382E-15
 -1       243 1.92418E+00-1.24453E+00 1.75471E+00 1.59002E+00 2.69963E-16 5.77909E-15
 -1       244-1.42682E-01-1.53131E+00 1.75572E+00 2.65026E-01 8.90860E-17 1.53175E-15
 -1       245-3.51566E-01 2.85560E-01 1.76101E+00 3.97851E-01-6.68228E-16-3.83125E-15
 -1       246 1.05637E+00-5.97279E-01 1.75883E+00 1.36699E+00 4.60136E-16 8.30014E-15
 -1       247 2.47572E+00-1.53549E+00 1.74850E+00 1.06087E+00-1.18057E-15-2.55756E-15
 -1       248 4.45438E-01-8.35620E-01 1.38816E+00-4.30085E-01 9.82841E-16 5.89763E-16
 -1       249 4.74162E-02-6.60409E-01 1.41221E+00 3.32153E-01-1.11284E-16 7.83371E-15
 -1       250 1.73485E+00-9.51031E-01 1.40308E+00-8.30843E-02 1.00297E-16-2.53905E-15
 -1       251-1.44086E-01-7.86816E-01 1.74742E+00-1.61368E-01 8.75425E-16-1.00280E-14
 -1       252-4.43674E-01-6.53268E-01 1.92232E+00 3.77364E-02 6.03154E-17-1.01421E-14
 -1       253-4.46532E-01-6.57729E-01 1.93205E+00-4.22011E-02-5.13325E-16-9.86443E-15
 -1       254-4.23744E-02-8.71774E-01 1.74859E+00 5.82985E-02 2.61339E-16-9.97503E-15
 -1       255-1.36688E-01-6.57011E-01 1.56783E+00-2.14555E-01-2.58909E-15-1.00504E-14
 -1       256 5.10191E-01-8.74412E-01 1.39201E+00 4.19414E-01-2.21517E-16-9.55507E-15
 -1       257-2.94062E-02-6.29984E-01 1.42858E+00-2.99478E-01-4.40309E-16 7.05779E-15
 -1       258-3.12378E-01-6.77534E-01 1.79490E+00 1.14668E-01-1.25468E-16-4.10155E-15
 -1       259 1.22061E+00-1.15434E+00 1.39311E+00-3.23875E-02 6.77093E-16-3.28865E-15
 -1       260-1.60219E-01-5.84237E-01 1.47029E+00 2.08987E-01-1.77806E-16 1.00345E-15
 -1       261-2.02543E-01-8.05274E-01 1.81969E+00 1.27813E-01 3.92393E-16 1.09402E-14
 -1       262 1.66390E-01-8.65300E-01 1.56546E+00 2.06708E-01-2.28578E-16 5.12814E-16
 -1       263-1.11064E-01-7.38723E-01 1.65501E+00 2.01201E-01-1.20820E-16 5.33109E-15
 -1       264 1.44159E-01-8.90949E-01 1.60858E+00-1.49522E-01-1.62245E-16-1.00956E-14
 -1       265 4.85499E-01-1.00904E+00 1.49888E+00 7.48264E-03 2.62954E-16-3.90346E-16
 -1       266-3.13282E-01-7.10061E-01 1.83420E+00-1.22950E-01-2.56760E-15 6.98574E-16
 -1       267-8.91279E-01-4.14406E-02 1.33926E+00 1.56913E-02 5.71225E-17-8.92916E-16
 -1       268-3.85183E-01-4.33886E-01 1.35953E+00-1.21614E-01-4.95771E-16 6.92140E-15
 -1       269-5.77638E-01-5.16238E-01 1.59140E+00-8.23151E-02-1.19884E-16-5.12795E-15
 -1       270-3.90790E-01-3.12091E-01 1.08888E+00-3.58030E-02 5.02084E-16 4.97470E-16
 -1       271-4.79153E-01-3.86907E-01 1.45591E+00 2.08836E-01-8.25143E-17-1.19575E-15
 -1       272-4.84649E-01-3.75141E-01 1.61119E+00 8.98741E-02-1.10344E-16 1.24181E-14
 -1       273 1.81010E+00-9.00472E-01 1.37979E+00-6.66636E-01-1.12112E-15 6.44005E-15
 -1       274 1.91935E+00-9.37295E-01 1.39013E+00-4.79061E-01 5.11250E-16 6.01091E-15
 -1       275 2.10656E+00-1.13653E+00 1.39866E+00-5.60041E-01-5.42408E-17 9.79662E-16
 -1       276 2.52624E-02-7.05158E-01 1.73479E+00 1.58748E-01-8.22744E-17-1.77695E-15
 -1       277-4.20858E-01-3.53123E-01 1.74938E+00 6.02636E-01 2.49734E-17-6.35447E-15
 -1       278-9.92132E-02-5.84870E-01 1.72798E+00-2.79689E-02 2.60055E-16-3.71056E-15
 -1       279-4.32471E-01-2.96908E-01 1.74346E+00-5.62235E-01 6.57729E-16-1.14853E-14
 -1       280 1.21820E+00-8.56078E-01 1.73092E+00-4.04168E-01-2.78234E-16 5.96229E-15
 -1       281 1.35707E+00-1.04471E+00 1.73435E+00-2.67308E-01 5.61658E-17 5.26672E-15
 -1       282 1.21952E+00-8.64918E-01 1.73322E+00 4.12654E-01 6.79845E-17-1.86180E-15
 -1       283 1.37014E+00-1.05588E+00 1.73599E+00 2.97816E-01-1.46238E-16-7.27376E-15
 -1       284 2.24638E+00-1.64890E+00 1.60509E+00 2.14055E-03-3.51368E-16 1.99945E-16
 -1       285 2.31244E+00-1.66131E+00 1.55328E+00-4.43580E-03 6.46077E-17-7.88786E-16
 -1       286 2.39017E+00-1.67932E+00 1.48650E+00-1.09528E-02-1.91253E-16 4.68141E-15
 -1       287 1.66446E+00-8.79661E-01 1.38635E+00 4.50809E-01-2.85514E-16-9.09428E-15
 -1       288 1.73018E+00-8.82796E-01 1.39393E+00 3.37504E-01-3.35820E-16-6.78907E-15
 -1       289 1.93405E+00-1.06674E+00 1.40059E+00 4.02854E-01-8.35365E-17-2.54496E-17
 -1       290-4.57498E-01-6.32491E-01 1.91520E+00-8.46415E-03 6.32032E-16-2.26858E-15
 -1       291-3.80796E-01-6.83067E-01 1.88004E+00-8.56624E-02-1.71877E-15-1.18967E-15
 -1       292-2.90559E-01-6.22054E-01 1.69839E+00-1.08152E-01 5.48381E-16 5.48051E-15
 -1       293-3.68921E-01-6.26197E-01 1.79860E+00-5.35815E-02 9.12897E-16-3.18149E-15
 -1       294 3.37694E-01-9.49016E-01 1.53232E+00 1.37791E-01 5.19801E-16 4.33912E-15
 -1       295 3.18723E-01-9.56285E-01 1.54953E+00-9.28797E-02 6.59787E-17 2.98252E-15
 -1       296 7.45102E-02-9.00020E-01 1.67924E+00-3.31456E-02 3.32650E-16-4.43468E-16
 -1       297 8.12783E-02-8.78597E-01 1.65158E+00 1.25800E-01-1.05488E-16-1.38331E-15
 -1       298 2.21334E-01-9.35117E-01 1.60146E+00 3.78209E-02 1.19532E-16 3.68592E-15
 -1       299 9.01069E-01-1.05786E+00 1.39496E+00 2.95922E-01 2.95892E-16-2.23811E-15
 -1       300 1.74854E-01-5.49541E-01 1.30841E+00 5.30228E-01 8.32067E-17-4.66209E-15
 -1       301 1.44257E+00-1.11172E+00 1.37265E+00 4.22269E-01 2.40311E-16 4.04012E-15
 -1       302 6.49058E-01-7.45109E-01 1.32857E+00 7.37173E-01 2.28151E-16 2.59951E-15
 -1       303-5.29909E-01-6.50401E-01 2.02891E+00 2.09359E-02-2.92740E-16-9.84140E-16
 -1       304-3.76909E-01-6.66032E-01 1.85507E+00 7.53303E-02-8.26241E-18-1.54266E-15
 -1       305-4.15984E-01-7.35143E-01 1.97056E+00 8.89251E-02 1.85910E-16-3.98531E-16
 -1       306-4.72318E-01-6.92877E-01 1.99703E+00 6.10679E-02-1.35743E-16-1.17209E-14
 -1       307-2.95909E-01-6.06310E-01 1.68118E+00 9.12585E-02 2.82059E-16 3.71355E-15
 -1       308-4.56332E-01-6.30095E-01 1.91002E+00 6.35768E-03 3.77976E-17-7.69875E-15
 -1       309-3.65677E-01-6.18102E-01 1.78702E+00 4.66995E-02 1.90914E-16 5.01364E-16
 -1       310-1.83688E-01-4.91350E-01 1.35140E+00-2.19267E-01-7.83318E-16-4.17059E-15
 -1       311 1.61978E-01-7.08656E-01 1.39898E+00-3.74909E-01 2.21896E-15 3.97961E-15
 -1       312 1.47144E-01-5.32407E-01 1.30538E+00-5.14787E-01 9.48815E-16-1.78613E-15
 -1       313-5.16218E-02-4.98849E-01 1.31526E+00-3.51212E-01-6.04372E-16 5.37722E-15
 -1       314 8.48205E-01-1.02434E+00 1.39112E+00-3.46558E-01-1.63538E-15 5.39406E-15
 -1       315 1.43745E+00-1.09720E+00 1.36940E+00-4.78933E-01-3.79956E-16-1.84559E-15
 -1       316 5.95034E-01-7.08980E-01 1.32386E+00-7.38595E-01-1.31591E-15 8.71659E-15
 -1       317 2.40277E-01-7.43599E-01 1.39603E+00 3.92676E-01-1.71113E-16-3.10133E-15
 -1       318-1.64067E-01-4.93366E-01 1.34153E+00 2.44267E-01-1.71960E-16 1.05620E-15
 -1       319-2.98972E-02-5.01655E-01 1.31364E+00 3.74866E-01-1.02814E-16 9.61571E-15
 -1       320-2.46803E-01-4.93491E-01 1.38667E+00 1.41139E-01-8.56294E-17-5.05612E-15
 -1       321-2.49269E-01-5.52250E-01 1.51933E+00 1.12950E-01-2.99534E-16 1.35900E-14
 -1       322-2.83521E-01-4.91712E-01 1.42036E+00 7.25735E-02 1.54212E-17-9.48272E-16
 -1       323 2.10520E-02-7.97829E-01 1.60583E+00 2.18239E-01-1.65205E-16 9.10220E-15
 -1       324-1.20200E-01-8.42892E-01 1.78404E+00 1.04264E-01 1.94331E-16-1.90336E-15
 -1       325-1.43403E-01-7.77169E-01 1.73431E+00 1.67938E-01 1.80286E-16 6.37636E-15
 -1       326-3.16844E-02-8.28057E-01 1.69088E+00 1.60695E-01-1.90250E-16-1.25608E-14
 -1       327-7.60342E-02-6.49795E-01 1.49333E+00-2.57614E-01-1.90738E-15-8.39674E-15
 -1       328-1.20676E-01-7.32705E-01 1.65500E+00-1.99791E-01-1.25213E-15-1.83911E-15
 -1       329-6.19344E-03-8.35192E-01 1.67157E+00-1.66342E-01-1.11417E-15-2.18613E-15
 -1       330 1.10867E-01-7.97328E-01 1.52323E+00-2.70820E-01 4.25013E-16 6.05675E-16
 -1       331-9.75606E-03-7.62070E-01 1.58264E+00-2.36003E-01 2.79368E-16 1.15668E-14
 -1       332-2.90340E-01-8.56140E-01 1.94262E+00 1.81343E-02 2.84399E-16-1.25079E-14
 -1       333-3.82992E-01-7.99168E-01 1.98067E+00 8.65804E-02-1.50986E-16-2.44237E-15
 -1       334-3.34201E-01-8.41573E-01 1.96429E+00 6.49636E-02 6.46069E-16-9.53340E-15
 -1       335-1.93496E-01-5.09028E-01 1.38394E+00-1.96453E-01 4.93535E-16-4.59126E-15
 -1       336-2.75128E-01-4.44548E-01 1.33621E+00-1.19627E-01 1.41753E-15-4.82492E-15
 -1       337-4.29057E-01-7.51115E-01 1.99405E+00-8.33034E-02 1.65770E-16 9.29547E-15
 -1       338-3.15303E-01-8.37372E-01 1.95225E+00-5.98589E-02 1.00743E-16-2.88231E-15
 -1       339-2.31551E-01-7.46094E-01 1.78806E+00-1.51050E-01-2.49457E-15-7.95420E-15
 -1       340-3.70866E-01-8.02286E-01 1.97404E+00-8.41288E-02-3.32634E-16 2.34575E-15
 -1       341 5.76146E-01-1.00355E+00 1.45171E+00 1.94274E-01 1.76477E-16 5.02262E-15
 -1       342 1.46359E-01-7.88741E-01 1.49060E+00 2.92050E-01-3.22078E-17-3.13195E-15
 -1       343 3.49416E-01-8.91140E-01 1.46849E+00 2.79442E-01-1.64927E-16 7.78457E-16
 -1       344-5.33200E-01-6.51670E-01 2.03475E+00-2.21766E-02 1.58192E-15-7.22277E-15
 -1       345-4.80184E-01-6.98823E-01 2.01182E+00-6.16002E-02 3.62939E-15-3.37334E-16
 -1       346 5.58592E-01-9.97959E-01 1.45268E+00-2.03928E-01-5.72152E-16-9.57669E-16
 -1       347 7.96540E-01-1.08839E+00 1.42983E+00-1.56136E-02-2.06406E-16-1.78044E-15
 -1       348-2.16814E-01-7.03945E-01 1.71885E+00 1.63798E-01-1.67997E-16-4.08236E-15
 -1       349-2.77373E-01-7.55008E-01 1.84113E+00 1.32181E-01 1.30391E-16 5.68941E-15
 -1       350-6.36095E-02-6.19348E-01 1.43630E+00 2.74681E-01-6.67732E-17 4.73503E-15
 -1       351-2.05905E-01-4.94821E-01 1.36094E+00 1.94251E-01 1.31951E-17 1.39984E-16
 -1       352-2.39144E-01-5.82342E-01 1.57011E+00-1.35604E-01 2.43061E-15-8.30648E-15
 -1       353-2.12917E-01-6.71876E-01 1.67338E+00-1.68096E-01 4.13739E-16 6.17374E-15
 -1       354-5.44276E-01-6.31871E-01 2.01857E+00 3.79850E-03-6.21252E-16 1.54744E-15
 -1       355-1.19023E-01-8.57480E-01 1.79945E+00-6.05836E-02 7.83375E-17-5.36934E-15
 -1       356-1.12917E-01-6.69923E-01 1.55981E+00 2.24141E-01 8.41974E-17-1.06357E-14
 -1       357-2.15305E-01-6.30276E-01 1.61397E+00 1.63094E-01-5.01869E-17 4.39134E-15
 -1       358-2.05909E-01-5.51530E-01 1.47106E+00-1.74832E-01 1.74603E-15-7.89593E-15
 -1       359-5.43315E-01-6.30587E-01 2.01518E+00-4.54629E-03 3.53123E-17 7.24714E-15
 -1       360 3.16228E-01-8.91161E-01 1.48215E+00-2.67145E-01-1.16626E-15 1.26348E-15
 -1       361 7.47892E-03-7.24176E-01 1.52044E+00 2.68017E-01 6.37904E-17-3.88908E-15
 -1       362 2.42791E+00-1.64482E+00 1.44281E+00-7.10477E-02-5.67715E-17-5.28480E-15
 -1       363-3.18067E-01-5.60915E-01 1.32986E+00 6.51018E-02-2.76454E-17-4.23822E-15
 -1       364-3.06407E-01-3.50927E-01 1.09644E+00-2.68232E-02 5.67537E-16 1.56122E-15
 -1       365 2.13354E+00-1.63623E+00 1.67791E+00-4.37657E-04-2.52723E-16 7.84238E-16
 -1       366 2.18734E+00-1.64270E+00 1.64573E+00-9.74522E-05 2.11011E-17 1.33811E-15
 -1       367 2.05076E+00-1.66474E+00 1.72406E+00 8.57627E-03 2.03796E-17 1.38833E-16
 -1       368 2.09973E+00-1.62781E+00 1.70348E+00-2.00374E-03 6.12160E-16 4.78152E-15
 -1       369 1.96376E+00-1.52350E+00 1.73590E+00 7.11266E-02 2.66027E-16-6.29014E-15
 -1       370 1.61385E+00-9.28031E-01 1.39222E+00-1.13830E-02 1.18735E-16-3.98204E-15
 -1       371-6.18235E-01 1.15879E-01 1.31643E+00 3.40082E-02 3.94060E-17 8.05382E-15
 -1       372-5.25836E-01-2.51896E-01 1.51537E+00-3.68200E-02-1.38984E-15-7.78986E-15
 -1       373-3.00610E-01-2.78369E-01 9.96688E-01 4.54123E-04-1.15463E-16 2.93552E-15
 -1       374-4.74227E-01-5.43854E-01 1.56468E+00 1.54640E-02-1.73162E-16 2.66806E-15
 -1       375 2.17549E+00-1.09555E+00 1.37097E+00-9.60127E-01 3.87893E-17-6.73828E-15
 -1       376 2.13648E+00-9.47758E-01 1.38830E+00-6.77097E-01-1.19088E-16 8.58369E-15
 -1       377-4.21959E-01-7.32820E-01 1.65681E+00-1.95073E-01 6.96040E-16 4.06144E-16
 -1       378-3.91010E-01-8.40527E-01 1.75074E+00 5.81923E-01-9.15648E-16-9.28788E-15
 -1       379-6.36562E-01-2.63516E-01 1.65205E+00 1.09213E-01 3.50217E-16 3.10467E-15
 -1       380-4.55044E-01-7.53728E-01 1.74447E+00-5.92976E-01 6.14647E-16-1.99083E-15
 -1       381 5.71876E-01-5.34562E-01 1.73118E+00-9.41257E-01 4.50207E-16 1.16848E-15
 -1       382 1.28664E+00-8.88626E-01 1.73716E+00-3.12441E-01 5.07466E-16-2.32111E-15
 -1       383 5.73877E-01-5.41942E-01 1.73511E+00 9.56361E-01-5.51197E-16-7.26804E-15
 -1       384 1.28597E+00-9.05706E-01 1.73988E+00 3.15569E-01-2.64847E-16 5.74146E-15
 -1       385 2.26453E+00-1.65130E+00 1.58882E+00-9.64828E-04-6.09074E-17 7.43173E-15
 -1       386 2.38265E+00-1.66673E+00 1.51086E+00 5.25001E-03-2.32948E-16-3.69839E-15
 -1       387 2.02119E+00-1.03097E+00 1.37681E+00 7.64351E-01-6.46546E-17-3.62905E-15
 -1       388 1.95022E+00-8.69186E-01 1.39095E+00 5.58882E-01 6.63925E-16 8.26002E-17
 -1       389-4.69079E-01-6.20666E-01 1.90744E+00 1.52524E-03-8.82085E-16 1.58921E-15
 -1       390-4.11163E-01-6.28873E-01 1.85430E+00-3.15565E-02 2.10847E-15 1.02008E-15
 -1       391-3.50169E-01-6.08677E-01 1.76139E+00-3.13941E-02 3.15695E-16 8.87257E-16
 -1       392-4.51502E-01-6.44937E-01 1.92288E+00-2.73963E-02 1.13554E-15-5.48486E-15
 -1       393-4.12964E-01-6.70297E-01 1.90482E+00-6.40902E-02 5.05217E-16 1.48114E-14
 -1       394-3.70613E-01-6.55028E-01 1.83770E+00-7.14448E-02 1.36194E-15 1.06652E-14
 -1       395-3.48316E-01-6.96467E-01 1.85603E+00-1.04214E-01-1.18021E-17-6.68529E-15
 -1       396-2.95355E-01-6.66195E-01 1.76333E+00-1.18184E-01 1.05918E-15 8.70022E-15
 -1       397-3.28624E-01-6.26071E-01 1.74624E+00-7.98301E-02 3.04551E-15-2.27463E-15
 -1       398-2.85530E-01-5.83496E-01 1.63831E+00-6.44642E-02-2.84239E-15 5.17311E-15
 -1       399 2.46056E-01-9.08182E-01 1.54833E+00 1.75441E-01-1.49936E-16 6.50580E-16
 -1       400 2.77197E-01-9.43793E-01 1.56591E+00 8.52355E-02 1.78691E-16-3.41478E-15
 -1       401 1.49515E-01-9.08390E-01 1.62616E+00 8.44559E-02 9.37043E-16 1.18634E-15
 -1       402 1.24803E-01-8.73200E-01 1.60722E+00 1.65322E-01 4.16265E-16-5.50658E-15
 -1       403 4.05863E-01-9.81004E-01 1.51588E+00 7.60631E-02-3.60285E-16-9.48058E-15
 -1       404 3.95033E-01-9.84384E-01 1.52332E+00-4.69612E-02 3.79523E-16-5.46061E-15
 -1       405 2.70648E-01-9.47218E-01 1.57586E+00-2.57059E-02-1.75186E-15 3.13452E-15
 -1       406 2.26420E-01-9.24410E-01 1.57751E+00-1.24171E-01-5.22382E-16 1.12117E-15
 -1       407 1.14282E-01-8.96461E-01 1.64413E+00-9.07165E-02 1.78326E-16 3.63945E-15
 -1       408 1.46637E-01-9.19126E-01 1.63873E+00 3.35127E-04 4.04646E-16-2.86345E-15
 -1       409 1.73175E-02-8.87811E-01 1.71358E+00 1.45404E-02-9.72262E-16 1.27452E-14
 -1       410 1.94436E-02-8.76630E-01 1.69813E+00 9.15857E-02-7.61682E-16-6.11013E-15
 -1       411 1.03435E+00-1.11980E+00 1.39615E+00 1.55178E-01 2.01622E-16-1.26682E-15
 -1       412 7.97980E-01-9.03388E-01 1.36712E+00 5.10503E-01 2.94069E-16 1.26807E-14
 -1       413 9.94154E-01-9.17582E-01 1.34986E+00 6.33299E-01 1.70616E-16-4.52339E-15
 -1       414 1.29751E+00-1.11984E+00 1.38686E+00 1.86824E-01 5.05185E-16-5.95481E-15
 -1       415 6.73074E-01-9.61538E-01 1.39296E+00 3.68888E-01 3.09684E-16-2.81736E-16
 -1       416 3.74583E-01-7.18102E-01 1.35299E+00 4.86125E-01-3.11975E-16 2.05505E-16
 -1       417 3.68754E-01-6.46081E-01 1.31471E+00 6.29372E-01-2.13113E-17-4.41208E-15
 -1       418-5.98185E-03-3.58851E-01 1.25818E+00 4.94036E-01-1.57202E-17 5.13197E-15
 -1       419 3.01040E-01-3.96818E-01 1.27797E+00 7.39606E-01 2.01328E-17 1.45980E-15
 -1       420 1.27387E+00-7.87383E-01 1.34529E+00 9.98867E-01-4.63919E-17-1.92807E-16
 -1       421-5.44631E-01-6.93568E-01 2.07697E+00 3.72910E-02 1.79117E-16 1.01646E-14
 -1       422-4.47088E-01-7.14977E-01 1.98288E+00 7.38186E-02 2.35238E-16-6.79613E-16
 -1       423-4.98141E-01-7.64671E-01 2.07193E+00 5.07601E-02 6.15466E-17-7.09626E-15
 -1       424-5.90834E-01-6.37847E-01 2.08693E+00 9.41847E-03-5.28297E-16-7.95287E-15
 -1       425-5.02013E-01-6.69927E-01 2.01174E+00 4.05582E-02 6.87441E-18 9.61951E-15
 -1       426-4.87074E-01-6.53274E-01 1.97357E+00 2.89283E-02 6.23782E-17 5.11249E-15
 -1       427-4.08787E-01-6.59267E-01 1.88738E+00 5.63246E-02 1.38974E-16 9.63631E-15
 -1       428-4.20892E-01-6.78963E-01 1.92280E+00 6.94389E-02-1.66733E-17-7.25587E-15
 -1       429-3.44538E-01-6.72009E-01 1.82377E+00 9.47416E-02 5.21448E-16 7.31126E-16
 -1       430-3.58200E-01-7.07309E-01 1.87818E+00 1.04142E-01-1.14512E-16 1.49101E-14
 -1       431-3.48466E-01-6.05250E-01 1.75543E+00 2.70147E-02 1.56370E-16 7.81274E-15
 -1       432-4.09485E-01-6.24256E-01 1.84577E+00 2.68926E-02 4.24892E-16-1.15318E-14
 -1       433-4.67994E-01-6.19426E-01 1.90430E+00-1.97995E-03 4.38970E-16 1.69244E-14
 -1       434-2.90233E-01-5.76146E-01 1.63006E+00 5.27688E-02-7.91141E-17 4.28168E-15
 -1       435-3.28525E-01-6.13933E-01 1.73182E+00 6.81772E-02-5.29629E-17-1.78802E-15
 -1       436-2.99925E-01-6.40830E-01 1.73570E+00 1.05027E-01-2.82401E-16-3.38592E-15
 -1       437-3.69514E-01-6.41695E-01 1.81977E+00 6.19017E-02-5.33649E-16-8.73828E-15
 -1       438-4.49532E-01-6.41225E-01 1.91549E+00 2.36153E-02 1.20721E-15 5.64570E-15
 -1       439-2.64790E-01-4.31055E-01 1.31359E+00-1.36146E-01 9.40557E-16 8.97596E-15
 -1       440-1.20444E-01-4.94832E-01 1.32970E+00-2.83179E-01 4.31954E-16-5.86542E-15
 -1       441-1.61809E-01-3.87261E-01 1.27107E+00-2.88024E-01 2.14340E-15 2.19863E-15
 -1       442-9.36342E-02-5.60466E-01 1.38951E+00-2.63203E-01-1.22652E-15-2.09095E-15
 -1       443 5.65733E-02-6.67986E-01 1.41103E+00-3.36541E-01-2.66346E-15 1.67781E-15
 -1       444 7.02462E-02-5.99353E-01 1.35782E+00-3.71887E-01-1.68550E-15 1.12454E-14
 -1       445 2.87659E-01-7.68148E-01 1.39127E+00-4.03289E-01-1.99467E-16-5.15899E-15
 -1       446 3.21329E-01-6.88135E-01 1.34896E+00-4.81824E-01-6.41967E-17-6.70171E-15
 -1       447 4.29093E-02-5.08050E-01 1.30677E+00-4.32807E-01-7.02176E-16-6.39437E-16
 -1       448-2.11117E-02-3.52067E-01 1.25689E+00-4.83787E-01 4.67376E-16 1.01271E-14
 -1       449 2.72157E-01-3.81131E-01 1.27518E+00-7.34962E-01-1.24630E-15-8.98830E-15
 -1       450 9.51536E-01-8.89184E-01 1.34521E+00-6.59009E-01 1.29652E-16-9.57386E-16
 -1       451 1.24378E+00-7.69742E-01 1.34280E+00-1.03096E+00-7.46607E-16-6.65309E-15
 -1       452 3.31358E-01-6.20055E-01 1.31062E+00-6.22192E-01-2.55805E-16-2.13816E-15
 -1       453 6.14691E-01-9.24107E-01 1.38860E+00-3.98377E-01 6.31766E-16-6.51097E-15
 -1       454 7.41013E-01-8.66848E-01 1.36200E+00-5.36729E-01 1.99589E-16 3.19637E-15
 -1       455 1.00466E+00-1.10190E+00 1.39382E+00-2.14708E-01 1.04890E-17 6.52280E-16
 -1       456 1.28506E+00-1.10978E+00 1.38483E+00-2.47337E-01 6.14560E-16-5.97681E-15
 -1       457-1.49835E-01-3.87675E-01 1.26973E+00 3.00784E-01 1.32909E-16-5.67446E-15
 -1       458-9.84059E-02-4.94793E-01 1.32450E+00 3.09399E-01-2.09540E-17 1.67917E-14
 -1       459-2.51670E-01-4.27392E-01 1.30769E+00 1.52001E-01 9.19233E-17 8.48099E-15
 -1       460 6.84739E-02-5.18523E-01 1.30790E+00 4.52280E-01 5.71835E-17-6.08844E-15
 -1       461 3.57862E-01-8.06486E-01 1.39253E+00 4.07456E-01 1.85411E-16 1.04860E-15
 -1       462 1.23559E-01-6.19256E-01 1.35590E+00 3.95404E-01-4.82140E-17 9.05613E-15
 -1       463 1.35380E-01-6.99305E-01 1.40223E+00 3.63354E-01 1.08117E-16 7.46424E-16
 -1       464-4.42683E-02-5.72918E-01 1.37652E+00 2.97093E-01 2.34598E-16-1.29089E-15
 -1       465-2.97500E-01-4.94929E-01 1.43968E+00 4.01985E-02-7.19292E-16 3.62676E-15
 -1       466-2.63686E-01-5.17179E-01 1.46846E+00 9.64446E-02-4.57699E-16 7.18672E-15
 -1       467-2.75169E-01-5.51903E-01 1.54945E+00 5.85461E-02-3.25362E-16-1.45585E-14
 -1       468-3.30357E-01-4.43173E-01 1.37334E+00 4.23594E-02-1.21981E-16 1.12040E-15
 -1       469-3.07142E-01-4.40585E-01 1.34633E+00 8.28659E-02-3.78605E-17-5.77205E-15
 -1       470-2.67028E-01-4.93132E-01 1.40247E+00 1.09510E-01-1.10822E-16-5.19537E-15
 -1       471-1.97222E-01-5.34932E-01 1.42764E+00 1.81090E-01 4.65152E-16-3.18363E-17
 -1       472-2.07564E-01-5.68471E-01 1.49262E+00 1.63150E-01-5.72010E-16-6.21727E-15
 -1       473-4.74906E-02-7.68613E-01 1.62887E+00 2.11424E-01 2.48718E-17-5.45253E-15
 -1       474-3.45265E-03-8.13308E-01 1.64725E+00 1.89469E-01-2.54679E-16 3.28337E-15
 -1       475-8.94574E-02-8.03404E-01 1.71164E+00 1.66018E-01 4.39925E-17 8.89293E-15
 -1       476-1.24042E-01-7.57502E-01 1.69370E+00 1.85900E-01 1.05154E-17-4.15668E-15
 -1       477 8.99268E-02-8.32105E-01 1.58444E+00 2.13614E-01 1.18464E-16 6.57677E-15
 -1       478 2.23967E-02-8.54007E-01 1.67058E+00 1.44419E-01 1.51090E-16-8.84393E-15
 -1       479-8.19838E-02-8.58802E-01 1.76607E+00 8.19057E-02-1.10778E-16-6.09448E-15
 -1       480-7.50638E-02-8.35713E-01 1.73593E+00 1.31914E-01 5.07947E-17 1.31355E-14
 -1       481-1.61963E-01-8.25007E-01 1.80139E+00 1.17355E-01 1.93235E-16-7.65586E-15
 -1       482-1.70050E-01-7.90960E-01 1.77583E+00 1.48968E-01 2.41791E-16 8.08263E-15
 -1       483-5.20850E-02-6.42726E-01 1.45958E+00-2.76395E-01 1.28195E-15-3.64527E-15
 -1       484-3.37345E-02-7.04827E-01 1.53768E+00-2.52146E-01 4.46431E-16-7.72760E-16
 -1       485 4.89003E-02-7.81507E-01 1.55109E+00-2.52815E-01 1.22181E-15 9.89482E-15
 -1       486 5.28940E-02-7.13325E-01 1.47649E+00-2.90842E-01-9.56294E-16 6.69734E-15
 -1       487-1.05105E-01-6.54137E-01 1.52895E+00-2.35255E-01-5.18342E-16 5.23769E-15
 -1       488-1.19417E-01-6.94105E-01 1.61054E+00-2.11693E-01-1.78932E-15-9.95916E-15
 -1       489-6.44832E-02-7.47977E-01 1.61677E+00-2.18558E-01 1.89797E-16 9.07895E-15
 -1       490-1.26255E-01-7.60010E-01 1.70017E+00-1.84012E-01-3.43323E-15 5.16867E-15
 -1       491-7.59050E-02-8.11644E-01 1.70748E+00-1.64326E-01-1.79639E-15-7.91545E-15
 -1       492 1.04241E-03-7.98926E-01 1.62691E+00-2.04243E-01-9.47739E-16-1.37804E-15
 -1       493 6.75667E-02-8.63315E-01 1.63840E+00-1.58368E-01 9.04069E-16-1.28898E-14
 -1       494 1.38346E-01-8.46040E-01 1.56703E+00-2.11773E-01 1.69357E-15-2.43604E-16
 -1       495-2.26665E-01-8.37341E-01 1.86768E+00 8.35425E-02-4.08616E-16-1.18897E-14
 -1       496-3.57291E-01-8.20352E-01 1.97256E+00 7.62907E-02-5.95135E-17 2.86882E-15
 -1       497-2.92390E-01-8.01175E-01 1.89509E+00 1.06621E-01-5.84153E-17-1.84438E-15
 -1       498-1.66376E-01-8.61552E-01 1.83787E+00 3.81877E-02 2.70732E-16 3.47857E-15
 -1       499-3.11265E-01-8.52738E-01 1.95388E+00 4.08496E-02 1.93158E-16 8.77084E-15
 -1       500-4.21307E-01-8.78367E-01 2.06426E+00 8.54882E-03 1.80249E-15-4.58961E-15
 -1       501-4.46188E-01-8.59461E-01 2.07415E+00 3.53422E-02-4.74343E-16-6.08014E-15
 -1       502-4.85361E-01-8.02519E-01 2.07629E+00 4.68861E-02 2.78909E-16 1.50154E-15
 -1       503-3.22511E-01-4.15261E-01 1.31320E+00-7.37347E-02 3.60645E-16 4.86636E-15
 -1       504-2.37912E-01-4.69391E-01 1.34291E+00-1.69907E-01 2.41040E-15-6.23425E-15
 -1       505-3.31252E-01-4.26045E-01 1.33142E+00-6.41446E-02-3.15733E-15-3.80024E-15
 -1       506-2.83913E-01-4.63072E-01 1.36515E+00-1.07121E-01 3.74863E-16 2.94867E-15
 -1       507-2.28615E-01-4.76603E-01 1.35959E+00-1.64245E-01 1.32958E-15-1.01396E-14
 -1       508-1.17122E-01-5.67169E-01 1.40506E+00-2.49766E-01 6.74693E-16 2.34755E-15
 -1       509-3.66734E-01-7.29740E-01 1.91022E+00-1.04749E-01 1.36933E-15-1.25311E-15
 -1       510-4.03360E-01-7.77492E-01 1.98359E+00-8.36828E-02 2.08771E-15 5.52986E-15
 -1       511-2.94552E-01-7.74079E-01 1.87618E+00-1.21216E-01-1.15421E-17-3.60930E-15
 -1       512-2.76147E-01-7.28335E-01 1.80999E+00-1.38247E-01-9.69719E-16 1.08080E-14
 -1       513-5.04317E-01-7.75376E-01 2.08496E+00-4.69896E-02 1.79142E-15-1.11289E-14
 -1       514-4.61598E-01-8.42345E-01 2.08134E+00-4.32702E-02-7.19300E-17-3.02494E-15
 -1       515-4.31193E-01-8.75670E-01 2.07190E+00-2.52368E-02-2.08712E-17 1.12335E-14
 -1       516-3.45327E-01-8.22031E-01 1.96320E+00-7.21977E-02-3.17105E-16 1.68358E-15
 -1       517-2.22727E-01-8.14108E-01 1.84447E+00-1.12445E-01 2.64599E-16-5.17809E-15
 -1       518-1.91072E-01-7.67598E-01 1.76681E+00-1.57936E-01-5.69552E-16 1.85430E-16
 -1       519 3.06818E-01-8.20011E-01 1.43335E+00 3.37787E-01-7.55944E-17 5.83949E-15
 -1       520 2.38521E-01-8.39261E-01 1.47834E+00 2.88252E-01-1.22429E-16 4.91315E-15
 -1       521 1.07747E-01-7.25120E-01 1.45164E+00 3.15793E-01 6.83420E-17-2.41723E-15
 -1       522 5.53221E-01-9.42688E-01 1.42385E+00 3.02319E-01 4.08390E-16-1.22397E-14
 -1       523 4.50171E-01-9.47569E-01 1.45970E+00 2.41514E-01-4.37589E-17 1.44566E-15
 -1       524 5.28699E-01-1.01136E+00 1.47617E+00 9.50746E-02-1.08814E-15-7.12005E-16
 -1       525 3.47613E-01-9.23491E-01 1.50104E+00 2.06949E-01 2.41655E-16 1.66930E-15
 -1       526 1.62192E-01-8.28640E-01 1.52815E+00 2.50438E-01-1.32885E-17 4.01725E-15
 -1       527-4.57614E-01-7.24287E-01 2.00209E+00-7.18141E-02-1.15636E-16-1.30014E-14
 -1       528-5.50457E-01-6.97787E-01 2.08533E+00-3.60284E-02-1.64499E-15-1.52847E-14
 -1       529-4.27963E-01-6.91000E-01 1.94305E+00-7.35100E-02-2.70601E-15 2.13557E-17
 -1       530-4.89836E-01-6.56667E-01 1.98144E+00-3.18446E-02-1.43196E-15-5.41724E-17
 -1       531-5.07759E-01-6.73743E-01 2.02202E+00-4.08918E-02-1.79393E-15-2.18106E-15
 -1       532-5.92890E-01-6.38441E-01 2.09051E+00-1.00389E-02 8.57789E-16 9.16697E-18
 -1       533 5.18757E-01-9.20427E-01 1.42309E+00-3.16938E-01 1.27178E-16-1.72812E-14
 -1       534 6.62670E-01-1.04669E+00 1.44173E+00-1.20390E-01-2.91432E-16-6.79144E-15
 -1       535 8.19056E-01-1.06447E+00 1.41368E+00-1.76036E-01 7.77436E-16 5.25642E-16
 -1       536 5.23528E-01-1.00799E+00 1.47738E+00-9.35899E-02-4.02765E-16 5.79455E-15
 -1       537 6.73543E-01-1.05046E+00 1.44178E+00 9.86349E-02 1.07196E-16-9.86384E-15
 -1       538 8.37806E-01-1.08078E+00 1.41493E+00 1.32132E-01 4.05559E-16 1.80694E-15
 -1       539-3.46821E-01-7.49534E-01 1.90248E+00 1.10086E-01-9.04039E-17-3.64534E-15
 -1       540-3.25597E-01-7.71996E-01 1.90817E+00 1.12801E-01-3.09680E-16-6.94383E-15
 -1       541-2.65464E-01-6.91285E-01 1.75494E+00 1.38992E-01 1.17148E-16-7.85017E-15
 -1       542-2.41291E-01-7.28495E-01 1.77785E+00 1.51020E-01 4.22068E-17-4.05799E-15
 -1       543-1.64488E-01-7.21842E-01 1.68522E+00 1.83398E-01-1.43576E-17-3.96781E-15
 -1       544-2.09837E-01-7.67333E-01 1.78488E+00 1.50108E-01-5.88968E-17 1.03001E-14
 -1       545-1.05450E-02-6.39874E-01 1.42284E+00 3.04274E-01 5.33252E-17 2.17778E-15
 -1       546-1.25747E-01-5.53052E-01 1.39809E+00 2.41861E-01-1.30474E-16 1.80795E-15
 -1       547-1.84806E-01-4.93548E-01 1.35043E+00 2.19785E-01-4.90263E-16-8.46925E-15
 -1       548-1.14011E-01-6.02126E-01 1.45171E+00 2.43311E-01-6.96697E-17-7.45283E-15
 -1       549-2.27498E-01-4.94123E-01 1.37293E+00 1.68635E-01-7.74637E-16 5.17903E-15
 -1       550-2.81767E-01-4.35302E-01 1.32454E+00 1.16261E-01 4.57063E-16 3.80477E-15
 -1       551-2.60404E-01-6.46295E-01 1.68460E+00-1.37641E-01-9.25229E-16-6.85329E-15
 -1       552-2.13846E-01-6.25600E-01 1.61998E+00-1.58011E-01 2.95063E-15 2.52102E-15
 -1       553-2.76306E-01-5.65001E-01 1.57545E+00-7.16385E-02 1.56695E-15-5.31755E-15
 -1       554-2.14970E-01-7.09469E-01 1.72894E+00-1.62634E-01 2.59907E-15 6.51803E-15
 -1       555-1.70874E-01-7.01488E-01 1.66324E+00-1.86467E-01-3.75709E-16 2.52448E-15
 -1       556-1.91496E-01-6.19459E-01 1.56747E+00-1.76981E-01-6.44444E-16-3.38286E-15
 -1       557-5.49538E-01-6.19475E-01 2.00257E+00 1.32319E-02-1.41193E-15 2.15092E-15
 -1       558-5.03131E-01-6.33985E-01 1.96492E+00-1.90917E-03 1.96292E-15 4.31695E-17
 -1       559-5.94064E-01-6.24750E-01 2.07090E+00 1.07435E-02-2.22918E-16-1.00754E-14
 -1       560-5.38629E-01-6.40830E-01 2.02577E+00-8.62517E-03 1.43249E-15 1.47789E-14
 -1       561-2.02332E-01-8.59686E-01 1.86847E+00-1.84869E-02-2.31010E-16-6.40303E-15
 -1       562-2.18917E-01-8.45067E-01 1.87113E+00-6.13387E-02 9.98914E-16 3.49760E-15
 -1       563-2.26804E-02-8.78784E-01 1.73560E+00-4.75847E-02 9.57906E-16 5.39391E-16
 -1       564-5.43172E-02-8.48374E-01 1.73398E+00-1.14175E-01 1.52173E-15-6.93043E-15
 -1       565-2.58585E-01-6.17851E-01 1.64556E+00 1.26585E-01-3.15341E-16-1.50784E-15
 -1       566-2.09847E-01-6.65861E-01 1.66479E+00 1.66257E-01-9.52045E-17 1.42912E-15
 -1       567-2.25805E-01-5.88483E-01 1.56504E+00 1.44020E-01 1.80122E-16 7.23013E-16
 -1       568-1.30048E-01-6.24878E-01 1.51412E+00 2.21425E-01-2.93488E-16 1.89773E-15
 -1       569-1.65903E-01-6.49922E-01 1.58505E+00 1.95044E-01-2.91200E-16-1.13361E-14
 -1       570-1.06330E-01-7.03809E-01 1.60631E+00 2.15387E-01 3.25655E-16-1.16442E-14
 -1       571-2.60473E-01-5.20759E-01 1.46391E+00-9.48066E-02-6.37244E-16 2.05935E-15
 -1       572-2.00621E-01-5.32925E-01 1.42589E+00-1.84861E-01 2.98329E-16-2.62014E-15
 -1       573-2.19809E-01-5.67167E-01 1.51857E+00-1.52492E-01-5.30188E-16-8.92271E-16
 -1       574-1.42315E-01-5.99263E-01 1.48079E+00-2.16811E-01-4.18984E-16-7.42686E-15
 -1       575-5.02017E-01-6.32294E-01 1.96059E+00 3.88747E-04-1.60638E-16-3.94289E-15
 -1       576-5.49051E-01-6.18599E-01 2.00031E+00-1.36030E-02-2.46567E-16-9.81157E-15
 -1       577-5.36777E-01-6.39130E-01 2.02120E+00 7.65574E-03-3.60056E-16-7.44246E-15
 -1       578-5.93428E-01-6.24013E-01 2.06857E+00-1.11499E-02 1.75590E-17-6.63351E-15
 -1       579 2.03895E-01-8.43032E-01 1.50076E+00-2.71112E-01 1.64353E-15 1.16612E-14
 -1       580 2.57679E-01-8.00641E-01 1.44238E+00-3.27728E-01 2.08502E-15 5.38317E-15
 -1       581 3.28342E-01-9.26630E-01 1.51748E+00-1.80074E-01 1.34162E-15 6.48833E-16
 -1       582 4.24129E-01-9.43601E-01 1.46621E+00-2.40584E-01 1.46586E-15 5.97130E-15
 -1       583 1.97764E-02-7.61210E-01 1.56263E+00 2.45394E-01 8.52035E-18-6.23560E-16
 -1       584 7.25902E-02-7.56329E-01 1.50419E+00 2.80886E-01-3.48429E-17-8.21657E-15
 -1       585-5.53079E-02-6.96883E-01 1.53854E+00 2.47558E-01 1.81258E-16 7.46580E-15
 -1       586-2.08938E-02-6.70609E-01 1.47800E+00 2.75811E-01-4.36235E-18 1.08075E-14
 -1       587 1.87719E+00-1.00195E+00 1.40379E+00 1.35051E-01 3.47841E-16-1.86793E-15
 -1       588 2.20409E+00-1.29132E+00 1.42251E+00 7.26910E-02 5.79512E-16 1.66028E-15
 -1       589 2.29752E+00-1.41277E+00 1.42054E+00-2.28137E-01-9.44648E-16-7.99542E-15
 -1       590 1.95707E+00-1.01762E+00 1.40196E+00-2.91824E-01 4.75227E-16-1.29851E-14
 -1       591 2.35937E+00-1.37246E+00 1.39548E+00 4.89607E-01-7.29830E-16-6.05762E-15
 -1       592 2.50104E+00-1.67240E+00 1.44545E+00 8.05827E-02 3.82191E-17-2.37439E-15
 -1       593 2.42494E+00-1.67812E+00 1.46563E+00-1.37536E-02 2.14196E-16 4.65229E-15
 -1       594 2.35155E+00-1.66500E+00 1.52288E+00 2.20421E-03 7.90649E-17 4.57403E-15
 -1       595 2.40364E+00-1.68104E+00 1.46653E+00 1.29124E-02 9.64104E-16-3.03390E-15
 -1       596 2.55445E+00-1.44850E+00 1.39457E+00-5.50618E-01-1.15435E-15 9.41251E-15
 -1       597-2.27973E-01-4.90987E-02 1.39706E+00 2.22367E-02 4.68167E-17-3.55507E-15
 -1       598-4.16453E-01-2.99637E-01 1.33408E+00 8.10708E-02 1.87334E-17 1.05197E-14
 -1       599-3.94907E-01-4.82172E-01 1.38518E+00 6.64937E-02 7.75803E-17 5.16283E-15
 -1       600-5.20644E-01-2.50152E-01 1.46261E+00 1.24171E-01 7.95941E-17 1.45712E-16
 -1       601-3.98467E-01-1.95031E-01 1.30181E+00 6.71245E-02 4.50929E-17 8.60398E-16
 -1       602-2.70898E-01-6.76597E-01 1.29433E+00 6.85134E-03-8.46633E-17 7.87135E-16
 -1       603-2.19902E-01-8.17383E-01 1.32527E+00 5.82556E-02 8.46653E-17 5.53630E-15
 -1       604-4.28196E-01-5.48630E-01 1.44875E+00 1.24504E-01-1.09687E-16 7.29928E-15
 -1       605-3.90585E-01-2.45584E-01 1.21928E+00 1.49724E-03-1.37131E-16 5.60867E-15
 -1       606-3.08576E-01-3.29182E-01 1.09241E+00-3.00686E-02-1.04045E-15-3.73738E-15
 -1       607-3.70933E-01-3.82829E-01 1.22952E+00-3.55631E-02 1.57398E-15-3.03662E-15
 -1       608-4.41698E-01-2.88509E-01 1.35281E+00-9.13827E-02-1.27134E-16-2.45869E-15
 -1       609-2.91648E-01-2.79058E-01 9.54902E-01-1.21431E-02-2.69924E-16 1.04118E-14
 -1       610-2.87569E-01-2.95919E-01 9.60526E-01-5.70054E-03 5.77544E-16 4.51366E-15
 -1       611-3.03575E-01-3.71094E-01 1.10000E+00-2.46082E-02-5.74562E-16-7.65280E-15
 -1       612-3.32319E-01-5.82587E-01 1.36540E+00-8.77385E-02 1.31346E-16-2.24201E-17
 -1       613 2.11564E+00-1.63063E+00 1.69079E+00 1.87862E-03 2.85457E-16 1.05775E-14
 -1       614 2.16153E+00-1.64003E+00 1.66290E+00 1.53203E-03-8.54633E-17 1.92745E-15
 -1       615 2.15887E+00-1.63758E+00 1.66218E+00-6.09235E-04-8.76730E-17-2.80586E-15
 -1       616 2.16127E+00-1.63933E+00 1.66359E+00-1.26878E-03 4.78288E-16-3.54392E-15
 -1       617 2.21679E+00-1.64803E+00 1.62738E+00-9.62280E-04-1.15584E-15 5.05811E-15
 -1       618 2.28012E+00-1.65710E+00 1.58151E+00-1.62096E-03 3.07379E-16 3.33441E-15
 -1       619 2.21596E+00-1.64620E+00 1.62676E+00 9.93017E-04-1.74828E-16 1.47448E-14
 -1       620 2.21331E+00-1.64593E+00 1.62609E+00-1.08954E-03-2.29860E-16-6.81352E-16
 -1       621 2.06831E+00-1.57717E+00 1.73142E+00-5.49887E-02-1.58245E-16-5.20740E-15
 -1       622 2.07475E+00-1.67226E+00 1.71460E+00 1.55765E-02-2.41501E-16 3.35185E-15
 -1       623 2.04358E+00-1.57703E+00 1.71356E+00 1.04846E-02 5.64286E-18 9.52340E-17
 -1       624 2.07773E+00-1.63594E+00 1.71527E+00 1.25409E-05-3.35871E-16-1.07955E-14
 -1       625 2.11759E+00-1.63148E+00 1.69230E+00 3.21381E-03-1.05320E-16 1.02332E-14
 -1       626 2.11301E+00-1.63191E+00 1.69149E+00-6.18527E-03 6.66121E-16 1.05233E-15
 -1       627 1.21060E+00-7.01195E-01 1.72978E+00 1.57982E-01 8.37224E-18 2.04554E-15
 -1       628 1.70784E+00-1.28547E+00 1.73831E+00 1.32264E-01-1.84673E-16 9.61484E-15
 -1       629 1.70377E+00-1.21975E+00 1.73638E+00-4.63204E-02 2.24142E-16-6.51217E-16
 -1       630 1.20288E+00-7.11011E-01 1.72898E+00-1.51480E-01 6.27159E-17 1.53402E-16
 -1       631 1.80246E+00-1.22620E+00 1.74254E+00 4.15029E-01 9.12723E-16-4.18829E-15
 -1       632 2.03510E+00-1.59391E+00 1.73156E+00 1.97454E-02-8.50393E-17 3.17058E-15
 -1       633 2.02072E+00-1.59871E+00 1.73061E+00 3.07277E-03 6.59416E-17 2.09596E-15
 -1       634 1.74347E+00-1.25219E+00 1.73967E+00-3.43867E-01 2.36118E-16 7.60666E-15
 -1       635 1.58594E+00-1.02942E+00 1.38408E+00-2.42053E-01-8.24752E-17-3.41133E-15
 -1       636 1.61277E+00-9.49580E-01 1.38970E+00-2.23724E-01 3.58400E-16 6.43990E-17
 -1       637 1.94950E+00-6.87605E-01 1.34513E+00-1.28693E+00-6.66870E-16 2.89236E-15
 -1       638 1.58854E+00-1.03437E+00 1.38577E+00 1.93503E-01-6.54502E-16 4.32689E-15
 -1       639 1.94255E+00-7.16424E-01 1.35214E+00 1.13779E+00 5.97023E-16-3.19564E-15
 -1       640 1.58871E+00-9.38818E-01 1.39182E+00 1.34878E-01-4.01353E-16-2.08414E-15
 -1       641 1.88221E+00-9.13967E-01 1.39882E+00 1.56514E-01 1.54650E-16 6.36047E-15
 -1       642 1.95757E+00-9.17856E-01 1.39556E+00-3.13296E-01 8.70686E-17-8.50303E-15
 -1       643-7.39652E-01 4.44753E-02 1.32656E+00-1.58948E-02 1.24438E-17 5.82706E-15
 -1       644-5.91770E-01 5.62537E-02 1.29963E+00-6.05782E-02 2.35032E-16 4.80934E-16
 -1       645-4.93204E-01 2.08810E-01 1.33010E+00 1.93399E-02-6.04798E-17 5.71356E-15
 -1       646-7.03071E-01-4.54549E-02 1.54592E+00-1.07651E-01-1.31275E-16 9.58639E-16
 -1       647-4.41913E-01-4.12273E-01 1.55357E+00-1.06008E-01-2.08024E-17 7.90265E-15
 -1       648-5.79254E-01 6.24929E-02 1.66858E+00-1.30736E-01 2.46349E-16 3.58370E-17
 -1       649-4.72033E-01-3.44831E-01 1.44023E+00-5.75828E-02-5.37244E-17 4.39319E-15
 -1       650-5.12515E-01-6.68631E-01 1.48869E+00-5.08773E-02 4.97136E-16 5.44940E-15
 -1       651-3.64307E-01-2.83069E-01 1.04007E+00-2.22586E-02 9.63658E-16 4.11204E-15
 -1       652-2.75159E-01-2.97501E-01 1.04251E+00-6.11621E-03-2.73892E-16 1.74945E-15
 -1       653-2.77255E-01-2.62792E-01 9.06600E-01 1.96848E-03-1.36923E-16-5.07903E-16
 -1       654-3.99496E-01-4.82491E-01 1.51007E+00 6.09591E-02-1.76896E-16-1.21628E-14
 -1       655-3.06588E-01-5.95846E-01 1.59525E+00 1.18792E-01-1.74655E-16 1.31230E-14
 -1       656-3.22601E-01-4.95579E-01 1.52690E+00 7.83457E-02-2.62350E-16 5.04929E-15
 -1       657-6.80841E-01-4.31409E-01 1.58760E+00 6.30156E-02 2.82390E-16-9.46130E-15
 -1       658-3.50148E-01-9.02562E-01 1.68488E+00 1.28282E-01-6.89041E-18 4.02485E-15
 -1       659 2.09784E+00-8.23089E-01 1.34926E+00-1.57003E+00-5.64509E-16 8.91027E-15
 -1       660 2.27614E+00-1.00402E+00 1.38239E+00-6.83006E-01-6.31627E-16 4.84430E-15
 -1       661 2.42424E+00-1.12933E+00 1.37502E+00-1.02675E+00-4.04609E-16 8.69276E-15
 -1       662 1.84879E+00-9.43116E-01 1.37574E+00-8.03602E-01 1.05581E-15 7.17650E-16
 -1       663 1.72148E+00-9.58473E-01 1.39892E+00-3.22176E-01-2.21389E-16 2.13958E-15
 -1       664 2.12035E+00-1.07969E+00 1.39380E+00-5.90417E-01 1.40714E-15-2.31821E-15
 -1       665 2.02698E+00-9.74890E-01 1.38923E+00-6.44409E-01 6.98667E-16 7.10284E-15
 -1       666 2.73275E+00-1.48960E+00 1.38184E+00-9.32488E-01-4.57818E-16 2.52347E-15
 -1       667-2.86096E-01-6.31145E-01 1.62484E+00-4.64161E-02-6.04412E-16-1.31552E-14
 -1       668-4.70883E-01-7.05372E-01 1.70269E+00 1.36139E-02-6.26797E-16 4.33903E-15
 -1       669 1.11149E-01-2.09527E-01 1.72865E+00 1.60827E-01 3.93655E-16 5.92045E-15
 -1       670-5.22855E-01-9.89809E-01 1.63184E+00-7.70279E-02 3.09485E-16 2.06770E-15
 -1       671-5.47609E-02-1.42515E+00 1.74102E+00 1.31747E-01 4.87284E-16-1.17257E-14
 -1       672-5.73411E-01-5.24508E-01 1.75529E+00 3.59272E-01-1.28923E-16 4.55504E-15
 -1       673-2.59473E-01-7.65781E-01 1.74348E+00 5.03724E-01 5.37382E-16 3.66599E-15
 -1       674-3.44320E-01-4.24037E-01 1.75750E+00 8.47413E-01-7.83382E-16 7.80300E-16
 -1       675-4.34978E-01-4.66169E-01 1.74975E+00 5.23235E-01-1.71792E-16-7.45084E-15
 -1       676-3.73702E-01-3.40537E-01 1.73657E+00 9.22092E-01-9.51414E-16-2.72436E-15
 -1       677-8.39107E-01-3.20550E-01 1.63198E+00 2.42835E-02-3.65957E-17 2.07955E-15
 -1       678-5.15248E-01-4.73427E-01 1.69388E+00 4.48812E-02 1.86737E-16-9.88441E-15
 -1       679-2.84031E-01-1.12641E+00 1.73480E+00-6.27735E-02 1.00457E-16 1.03333E-14
 -1       680-5.07402E-01-1.44082E-01 1.62396E+00 8.05364E-02-1.36015E-16-1.30889E-14
 -1       681 5.72116E-02-2.76787E-01 1.72163E+00-1.20150E-01 4.08543E-16-1.16703E-15
 -1       682-3.86793E-01-3.34478E-01 1.73005E+00-8.75787E-01-3.71079E-16 2.77778E-15
 -1       683-4.52718E-01-4.05265E-01 1.74364E+00-4.93716E-01-2.20183E-16-1.27008E-14
 -1       684-3.04707E-01-6.61160E-01 1.73700E+00-4.27588E-01 5.97885E-16 1.22460E-15
 -1       685-3.56145E-01-3.80961E-01 1.75229E+00-8.47409E-01 3.42762E-16-7.42882E-15
 -1       686-5.82968E-01-4.51178E-01 1.74933E+00-3.52468E-01-2.99571E-16 1.23056E-14
 -1       687 1.39359E-01-4.60620E-01 1.73713E+00-8.58126E-01-1.36901E-18 3.09059E-15
 -1       688 8.99513E-01-6.94635E-01 1.73078E+00-6.58529E-01-2.12927E-16-1.55238E-14
 -1       689 9.10695E-01-7.38088E-01 1.73848E+00-7.29501E-01-2.11201E-16-8.93941E-15
 -1       690 5.20605E-01-4.00017E-01 1.72612E+00-8.81612E-01 1.11685E-16-1.04613E-14
 -1       691 1.03868E+00-5.09098E-01 1.72597E+00-2.35694E-01-3.47499E-16-7.64538E-15
 -1       692 1.36330E+00-1.00876E+00 1.73552E+00-3.27232E-01-1.74344E-17 6.14502E-15
 -1       693 1.19726E+00-9.47773E-01 1.73394E+00-3.46067E-01-1.00987E-16-4.94820E-15
 -1       694 1.45027E+00-1.12356E+00 1.74241E+00-7.82673E-01 7.17726E-17-3.71719E-15
 -1       695 5.17474E-01-4.00919E-01 1.72987E+00 8.98559E-01-9.76366E-17 2.86265E-15
 -1       696 8.99419E-01-7.01346E-01 1.73390E+00 6.68819E-01-1.73286E-16 1.11847E-14
 -1       697 1.04374E+00-5.11959E-01 1.72708E+00 2.44908E-01-2.17457E-16 2.82132E-15
 -1       698 1.44780E-01-4.89434E-01 1.74209E+00 8.84754E-01 1.34838E-16 1.02967E-14
 -1       699 9.15452E-01-7.51000E-01 1.74194E+00 7.29902E-01-5.21695E-16 5.41811E-15
 -1       700 1.44381E+00-1.12349E+00 1.74570E+00 7.89409E-01-9.23109E-16-6.41614E-15
 -1       701 1.19664E+00-9.54637E-01 1.73644E+00 3.52403E-01 5.18142E-16-5.80968E-15
 -1       702 1.36365E+00-1.03088E+00 1.73773E+00 3.43196E-01 4.51659E-16 2.82378E-15
 -1       703 2.25394E+00-1.64991E+00 1.59660E+00-1.23782E-04-1.43079E-16-3.72584E-15
 -1       704 2.29066E+00-1.65531E+00 1.57199E+00 3.23823E-04 1.00021E-16 2.14822E-15
 -1       705 2.31354E+00-1.66154E+00 1.55297E+00 2.82568E-03-4.27128E-16-1.38718E-15
 -1       706 2.25527E+00-1.65105E+00 1.59724E+00-3.33145E-04 1.46261E-16-5.21766E-15
 -1       707 2.31528E+00-1.65780E+00 1.55398E+00-4.63484E-04-6.98827E-16 1.96956E-15
 -1       708 2.38285E+00-1.70019E+00 1.49869E+00-3.26577E-02-2.81344E-16 8.85439E-15
 -1       709 2.33455E+00-1.65834E+00 1.53313E+00 3.04896E-04-3.59401E-16 8.71228E-15
 -1       710 2.34946E+00-1.63812E+00 1.49837E+00-2.05043E-02 1.07138E-16-1.81618E-15
 -1       711 1.66268E+00-9.03027E-01 1.38206E+00 5.86244E-01-3.80438E-16-2.23102E-15
 -1       712 2.16323E+00-9.34526E-01 1.38732E+00 5.00138E-01 8.42474E-16-1.18718E-14
 -1       713 1.65165E+00-9.48619E-01 1.40122E+00 1.66976E-01 2.65879E-16-1.39890E-15
 -1       714 2.02276E+00-8.34550E-01 1.35349E+00 1.41312E+00-4.85933E-16 2.30826E-15
 -1       715 2.28846E+00-1.08706E+00 1.37858E+00 8.94586E-01 5.83866E-16-7.75575E-15
 -1       716 2.58568E+00-1.43331E+00 1.38325E+00 8.71103E-01 3.89007E-16-8.31900E-16
 -1       717 1.84402E+00-9.04607E-01 1.39249E+00 5.22160E-01 1.75954E-16 1.91936E-15
 -1       718 1.94129E+00-1.00061E+00 1.39607E+00 4.48861E-01-7.05280E-17-1.09240E-14
 -1       719 1.17842E-01-3.57648E-02-3.06345E-02-1.25834E-04 2.08932E-16-1.14558E-15
 -1       720 4.72245E-02-1.47936E-02-1.25183E-02 3.65596E-07 4.52278E-16-8.93628E-16
 -1       721 9.01543E-02-2.77098E-02-2.30780E-02-1.84187E-05 1.76614E-16-1.61764E-15
 -1       722 9.08083E-02-2.86569E-02-2.30710E-02 1.04028E-03 3.59229E-16-3.53416E-16
 -1       723 4.70273E-02-1.47746E-02-1.24966E-02 1.63393E-06 1.57508E-15 9.55850E-17
 -1       724 6.94211E-02-2.19118E-02-1.77457E-02-4.18409E-06 4.78421E-16 2.03583E-15
 -1       725 6.92379E-02-2.19547E-02-1.77209E-02 1.73535E-04-5.89616E-16 1.91200E-15
 -1       726 4.70228E-02-1.47739E-02-1.24965E-02-1.84427E-06-1.22172E-15-1.34836E-15
 -1       727 9.08237E-02-2.86820E-02-2.30726E-02-1.04102E-03 6.13107E-16 8.97754E-16
 -1       728 6.92341E-02-2.19540E-02-1.77211E-02-1.73203E-04 1.14424E-15 5.17718E-16
 -1       729 1.29970E-01-4.28553E-02-3.10170E-02 9.89401E-03-1.28740E-16-6.15185E-16
 -1       730 1.47834E-01-8.61469E-02-3.05225E-02 2.07308E-04 1.38242E-15-9.24536E-18
 -1       731 1.37136E-01-4.96951E-02-3.13437E-02-4.80710E-03-1.17156E-15 1.63250E-15
 -1       732 2.44556E-02-6.88048E-03-8.23184E-03 1.69898E-06 1.04586E-16 2.82593E-16
 -1       733 2.43800E-02-6.89038E-03-8.22171E-03-1.76238E-04 1.28814E-15-3.51454E-16
 -1       734 1.30341E-01-4.31904E-02-3.10416E-02-9.94490E-03-1.94681E-16 4.52670E-16
 -1       735 1.37336E-01-4.89822E-02-3.14076E-02 4.14178E-03 1.08727E-15 8.38121E-16
 -1       736 2.43791E-02-6.89021E-03-8.22173E-03 1.76772E-04-3.12126E-16 1.53351E-16
 -1       737 1.08251E-01-3.20382E-02-2.77381E-02-8.44052E-05 1.96682E-16-9.36013E-16
 -1       738 1.10708E-01-3.37946E-02-2.78373E-02 4.06133E-03 2.97754E-16-1.20777E-15
 -1       739 1.10761E-01-3.38175E-02-2.78442E-02-4.06078E-03-4.47983E-16-1.24138E-15
 -1       740 9.03107E-02-2.80624E-02-2.30728E-02 6.21952E-04 9.05537E-16-1.53089E-15
 -1       741 8.00261E-02-2.53957E-02-2.04225E-02 5.13806E-04-4.15795E-16-4.35337E-16
 -1       742 6.93161E-02-2.19167E-02-1.77351E-02 1.19012E-04 1.60002E-15 1.84874E-16
 -1       743 7.97579E-02-2.49673E-02-2.04440E-02-1.00652E-05 1.35785E-15-3.72034E-16
 -1       744 9.10850E-02-2.89356E-02-2.30718E-02 6.91901E-04-1.17495E-15-4.27558E-16
 -1       745 6.90860E-02-2.19668E-02-1.77056E-02 1.12425E-04-1.47606E-15-2.89589E-16
 -1       746 4.67843E-02-1.46716E-02-1.24827E-02 7.87479E-06 2.71310E-16-9.79959E-16
 -1       747 5.81323E-02-1.84368E-02-1.50487E-02 7.64210E-05 1.62354E-15 6.51533E-16
 -1       748 4.71608E-02-1.47723E-02-1.25100E-02 7.46597E-07 5.99588E-15-8.77586E-16
 -1       749 5.82849E-02-1.84516E-02-1.50731E-02-1.71976E-06 1.52331E-15 2.12346E-15
 -1       750 6.93155E-02-2.19188E-02-1.77352E-02-1.23166E-04 2.53395E-15 1.40438E-15
 -1       751 8.00347E-02-2.54072E-02-2.04232E-02-5.13851E-04 1.91410E-15 5.43915E-16
 -1       752 9.03330E-02-2.80774E-02-2.30739E-02-6.44975E-04 1.08985E-15 1.89090E-16
 -1       753 4.71584E-02-1.47722E-02-1.25099E-02-4.97611E-07-2.94139E-15-6.72021E-16
 -1       754 5.81288E-02-1.84354E-02-1.50487E-02-7.57617E-05-1.60792E-16-2.41286E-15
 -1       755 4.67802E-02-1.46705E-02-1.24828E-02-7.80986E-06-2.21229E-15-1.55762E-15
 -1       756 6.90833E-02-2.19668E-02-1.77060E-02-1.10813E-04 1.86259E-15-2.89589E-16
 -1       757 9.10837E-02-2.89386E-02-2.30734E-02-6.87833E-04 8.56976E-16 9.71955E-17
 -1       758 1.38192E-01-4.49667E-02-3.13717E-02 7.43231E-03 1.44169E-15-7.33180E-17
 -1       759 1.33633E-01-4.27015E-02-3.16438E-02 5.18958E-03-2.06331E-16 2.77668E-15
 -1       760 1.46650E-01-5.81770E-02-3.21538E-02 6.33387E-03 8.95505E-16 2.86609E-15
 -1       761 1.22438E-01-3.89417E-02-3.07347E-02 4.41734E-03-1.38024E-15 1.12220E-15
 -1       762 1.36973E-01-5.33619E-02-3.09879E-02-4.05330E-05 1.13487E-15-4.20537E-16
 -1       763 1.46863E-01-7.27895E-02-3.07364E-02-1.15485E-02 2.14124E-15 1.56454E-15
 -1       764 2.17609E-01-1.51660E-01-2.97204E-02 3.05120E-04 2.50530E-15-5.98948E-16
 -1       765 1.74982E-01-9.89540E-02-3.01992E-02-7.32617E-02 4.40864E-17 1.56731E-15
 -1       766 2.42327E-02-6.83826E-03-8.21419E-03-1.17177E-04 5.12299E-16 1.03034E-16
 -1       767 3.57141E-02-1.09186E-02-1.01729E-02-6.42644E-05 2.22438E-15 1.14833E-17
 -1       768 1.31489E-02-2.71205E-03-6.83679E-03-1.51178E-04 1.35943E-15-2.69827E-16
 -1       769 1.32139E-02-2.75037E-03-6.84024E-03 6.02956E-07-1.72493E-16 2.17679E-15
 -1       770 2.44382E-02-6.88875E-03-8.22838E-03-8.44616E-05-6.01521E-17-6.99695E-16
 -1       771 3.58594E-02-1.09241E-02-1.01895E-02 7.42330E-07 9.53518E-16-4.32358E-15
 -1       772 1.47279E-01-5.78935E-02-3.22219E-02-5.90791E-03 2.60953E-15-2.89771E-15
 -1       773 1.33842E-01-4.25282E-02-3.16853E-02-5.28473E-03 8.53594E-16 4.85124E-16
 -1       774 1.38364E-01-4.50108E-02-3.13936E-02-7.38710E-03-1.58469E-15-3.69020E-15
 -1       775 1.74494E-01-9.87870E-02-3.02864E-02 7.33594E-02 2.66252E-15-1.29414E-15
 -1       776 1.46870E-01-7.28334E-02-3.07751E-02 1.15200E-02 7.37312E-16 5.14598E-16
 -1       777 1.22635E-01-3.90349E-02-3.07530E-02-4.62467E-03 3.77236E-16 1.58691E-15
 -1       778 3.57116E-02-1.09182E-02-1.01728E-02 6.38835E-05-1.27061E-15-6.02609E-16
 -1       779 2.42312E-02-6.83798E-03-8.21425E-03 1.17278E-04 1.51389E-16-1.18933E-15
 -1       780 2.44373E-02-6.88881E-03-8.22836E-03 8.66981E-05 3.81092E-16-1.48899E-15
 -1       781 1.31487E-02-2.71180E-03-6.83673E-03 1.51183E-04-8.12977E-16-1.14456E-15
 -1       782 1.00672E-01-3.12785E-02-2.55800E-02 2.11632E-03 5.03199E-16-2.14506E-15
 -1       783 1.13380E-01-3.61002E-02-2.79093E-02 2.76043E-03 3.50637E-16-1.19872E-15
 -1       784 9.90608E-02-3.00087E-02-2.55511E-02-4.26981E-05 4.31183E-16-2.03501E-15
 -1       785 1.08518E-01-3.28659E-02-2.77640E-02 2.16064E-03 7.19229E-16-1.06111E-15
 -1       786 1.14685E-01-3.30512E-02-2.95032E-02-1.13155E-04 2.12334E-16-1.67246E-16
 -1       787 1.20519E-01-3.77693E-02-2.97000E-02 5.86405E-03-5.10321E-17-4.41738E-15
 -1       788 1.13425E-01-3.61319E-02-2.79155E-02-2.73671E-03-1.02290E-15-9.17688E-16
 -1       789 1.00707E-01-3.12976E-02-2.55833E-02-2.10786E-03 2.01370E-16-1.13372E-15
 -1       790 1.20728E-01-3.79610E-02-2.97126E-02-5.88069E-03-6.32775E-16-9.33611E-16
 -1       791 1.08578E-01-3.29104E-02-2.77688E-02-2.24495E-03-4.56180E-16-2.50787E-15
 -3
    1PSTEP                         4           1           1          
  100CL  101 1.000000000         783                     0    1           1
 -4  FORC        4    1
 -5  F1          1    2    1    0
 -5  F2          1    2    2    0
 -5  F3          1    2    3    0
 -5  ALL         1    2    0    0    1ALL
 -1         1 1.37106E+09-1.32090E-03-8.03823E-05
 -1         2 1.70956E+09-1.56838E-03 1.08335E-05
 -1         3 2.30789E+09 4.00016E-03-2.13164E-05
 -1         4 2.17605E+08 2.38998E-04 1.79721E-04
 -1         5 7.00559E+07-1.57097E+10-7.24154E-05
 -1         6 1.13365E+08 1.04123E+10-1.83724E-04
 -1         7-5.45103E+09-5.09459E-02 2.95169E-03
 -1         8-5.28228E+09-1.25018E-01-9.34340E-04
 -1         9 3.49484E+07-4.76432E-03 2.17951E-05
 -1        10 8.73954E+07 2.71134E-03 2.54863E-05
 -1        11 7.65243E+09-2.43327E-03-7.72008E-04
 -1        14-7.49018E+09 5.50701E-04-5.33296E-04
 -1        15-7.45277E+09-2.24488E-02 1.53016E-03
 -1        16 1.45010E+09 1.43482E-03 2.03937E-04
 -1        18 1.20615E+09-3.94904E-04 7.51757E-05
 -1        20 1.42316E+09-6.70439E-04-2.35947E-04
 -1        21 3.40694E+08-1.47736E-03 3.22074E-05
 -1        22 1.85746E+09 1.74224E-03 1.07402E-04
 -1        24 1.38521E+09 8.44706E-04 1.08137E-05
 -1        25 3.63154E+09 1.25730E-03-2.78727E-04
 -1        27 4.97551E+09 5.71899E-03 1.07593E-04
 -1        28 3.45503E+09 3.68734E-03 1.93331E-04
 -1        30 4.03595E+08 2.92492E-03-1.48592E-03
 -1        32 2.97913E+09-2.47390E-02-2.12753E-05
 -1        33 1.73856E+09-9.60731E-04-6.42666E-05
 -1        34 2.72978E+09 1.68850E-03 1.39642E-04
 -1        35 9.83904E+08-6.20697E-05 1.44900E-04
 -1        36-3.42188E+09-3.60177E-04 1.07079E-04
 -1        37-4.09187E+09-1.25469E-03-4.31659E-05
 -1        38-2.74472E+09 1.77809E-04-6.45411E-05
 -1        39-9.55302E+08 1.11395E-03-6.44315E-05
 -1        40 2.92971E+09 2.26540E-04-4.50432E-04
 -1        41 3.30536E+09 3.12757E-03 8.60331E-05
 -1        42 3.98219E+09-2.23913E-03-1.07045E-04
 -1        43-5.66541E+09 4.98153E-04 1.28399E-04
 -1        44-6.10660E+09 8.78792E-04-3.73909E-07
 -1        45-6.92792E+09-1.89311E-04 2.99983E-04
 -1        46-8.51998E+09-1.77222E-03 8.53090E-05
 -1        47 5.74907E+09-5.51262E-03-1.92767E-04
 -1        48 4.76662E+09 3.62230E-03-4.50319E-04
 -1        49 5.72423E+09 5.99273E-05 3.22216E-04
 -1        50 6.65459E+09-1.39061E-02-2.57085E-04
 -1        51 8.50285E+09 7.17330E-03-4.71548E-04
 -1        52 8.39885E+09 2.44280E-03-1.71147E-04
 -1        53 8.30689E+09 1.19954E-02-6.43222E-04
 -1        54-1.23941E+10 2.75024E-03 1.27987E-04
 -1        55-1.23764E+10 3.42551E-03 8.50729E-05
 -1        56-1.24155E+10-6.91378E-03 1.70901E-04
 -1        57-1.23776E+10-8.89596E-03-1.72419E-04
 -1        58-1.70346E+10-1.85931E-02 5.99772E-04
 -1        59-1.68459E+10-2.12634E-03 5.13953E-04
 -1        60-1.65706E+10-2.33056E-03 5.13970E-04
 -1        61-1.63119E+10-1.45117E-02 1.20063E-03
 -1        62 3.87321E+08 8.02884E-03-1.03531E-03
 -1        63 4.20188E+08-5.10902E-03-5.82014E-04
 -1        64 1.66660E+08-2.13698E-03-1.56899E-04
 -1        65-8.04266E+08 3.56762E-03 2.73536E-04
 -1        66-8.00231E+08 8.58595E-03 6.43240E-05
 -1        67-3.79572E+08-3.56629E-04 4.55952E-04
 -1        68-3.93633E+08-4.15233E-03-7.10809E-04
 -1        69 1.71134E+08-7.86959E+09-4.15638E-05
 -1        70 2.12139E+08 5.92111E+09-3.35146E-05
 -1        71 2.51345E+08 8.45390E+09-3.16485E-04
 -1        72-3.89754E+08-1.50480E+10 1.07264E-04
 -1        73-3.41121E+08-1.97287E+10-5.38531E-06
 -1        74-4.70295E+08 9.31744E+09-1.09999E-04
 -1        75-3.67242E+08 2.42512E+10 4.15720E-04
 -1        76 2.98779E+08-6.32477E-03 2.30688E-04
 -1        77 5.14793E+08-1.29109E-02-6.03465E-04
 -1        78 4.47124E+08-4.30239E-03-1.08359E-03
 -1        79-3.84570E+08 8.80980E-04 1.79684E-04
 -1        80-6.94070E+08 7.05816E-03 9.60188E-04
 -1        81-8.23701E+08-4.22023E-03-2.62907E-04
 -1        82-1.05660E+09-8.20889E-03-5.36506E-04
 -1        83-1.11317E+10 9.39846E-02-2.04033E-03
 -1        84-8.03316E+09-3.36522E-02 1.32026E-04
 -1        85-1.10691E+10 1.39689E-02-8.85681E-04
 -1        86 2.19423E+10-4.17352E-02-1.87333E-04
 -1        87 2.13375E+10-8.74078E-02-7.19513E-05
 -1        88 2.12742E+10 6.86538E-02-2.34882E-03
 -1        89 2.18771E+10-1.45698E-02 2.14878E-03
 -1        90 3.81821E+08 1.40555E-02-4.31812E-04
 -1        91 3.45442E+08-3.77441E-03-7.64408E-04
 -1        92 8.87286E+07 5.33588E-03-5.03579E-04
 -1        93-1.02826E+09-1.76267E-02 1.71598E-04
 -1        94-8.18788E+08 1.81388E-02-5.74043E-04
 -1        95-2.61823E+08 3.82121E-04 4.37184E-04
 -1        96-1.59181E+08 9.05067E-04-1.14004E-04
 -1        97 7.88380E+07-6.47169E-03-3.01744E-04
 -1        98 1.21745E+08 3.12056E-05 2.01240E-05
 -1        99 1.74163E+08 1.18420E-03 4.38552E-04
 -1       100-1.40498E+08-1.68454E-03 9.25276E-05
 -1       101-1.43146E+08 3.62309E-03 2.96375E-04
 -1       102-2.51797E+08-1.19290E-02-2.78965E-04
 -1       103-2.56357E+08 2.04524E-03-3.78207E-04
 -1       104 2.43804E+08-3.01923E-03 3.88935E-04
 -1       105 4.58735E+08 2.12757E-02-3.21837E-04
 -1       106 3.67025E+08 2.41435E-02-8.04438E-05
 -1       107-3.04054E+08-3.97379E-03 9.92231E-05
 -1       108-6.54189E+08-6.39992E-03 1.60892E-04
 -1       109-7.18517E+08 3.86309E-04-2.41443E-04
 -1       110-7.29378E+08 4.90682E-03-1.34155E-04
 -1       111 6.01533E+09-3.81120E-03 4.29522E-04
 -1       112 7.46374E+09-4.36046E-03-1.28289E-04
 -1       113 8.37368E+09 5.48731E-03 8.63434E-05
 -1       114 8.47737E+09 9.37158E-03 1.72180E-04
 -1       115 8.55527E+09-7.16281E-03 3.43847E-04
 -1       116 1.20088E+10-1.12554E-02-8.50954E-05
 -1       117 5.18464E+09 9.07877E-04-1.92802E-04
 -1       118-1.00231E+10 1.28804E-02 8.52170E-05
 -1       119-1.42113E+10-1.16163E-03-7.73346E-04
 -1       120-1.67151E+10-6.30823E-03-2.58516E-04
 -1       121-1.69408E+10 1.68076E-03-2.58529E-04
 -1       122-1.71077E+10 8.59521E-04 5.13937E-04
 -1       123-1.71968E+10-2.06846E-02 2.56439E-04
 -1       124-1.36882E+10-1.81463E-03 3.42485E-04
 -1       125-8.92194E+09-3.06980E-04 4.28607E-04
 -1       126 3.85659E+09 2.21713E-03-1.71425E-04
 -1       127 3.27487E+09 8.46733E-04 1.07489E-04
 -1       128 2.99349E+09 3.45944E-03 8.60140E-05
 -1       129-8.20995E+09 1.53505E-03-5.02698E-07
 -1       130-6.70680E+09 1.59445E-03 2.99997E-04
 -1       131-6.05872E+09 1.70688E-03 1.06917E-04
 -1       132-5.69552E+09-1.20099E-03 6.00466E-04
 -1       133 2.23677E+09 7.55169E-04 3.32731E-04
 -1       134 3.42569E+09-2.46461E-03-8.56209E-05
 -1       135 2.10370E+09-6.33718E-04-3.20577E-05
 -1       136-4.60595E+09-4.70252E-05-1.50486E-04
 -1       137-4.75821E+09-1.47919E-03-3.00699E-04
 -1       138-5.10475E+09 7.74354E-04 6.40604E-05
 -1       139-3.95879E+09 9.56379E-04-2.17001E-05
 -1       140 2.18644E+09-1.01647E-04-3.53918E-04
 -1       141 2.85859E+09-2.98874E-03-1.50029E-04
 -1       142 3.54904E+09 2.14451E-03-3.86021E-04
 -1       143 6.22684E+09-6.21805E-05 1.72043E-04
 -1       144 3.64276E+09 9.35330E-04 1.07511E-04
 -1       145 4.31297E+09-1.79376E-04-1.07024E-04
 -1       146 2.30103E+09-4.72765E-04-2.46622E-04
 -1       147-4.24706E+09 6.75829E-04-2.60049E-07
 -1       148-5.44896E+09-8.29609E-04-3.33641E-07
 -1       149-6.84949E+09-6.85215E-04 1.71242E-04
 -1       150-8.21327E+09 9.17179E-04 8.53278E-05
 -1       151-8.65299E+09-7.01072E-04 2.14047E-04
 -1       152-7.48087E+09 6.33808E-04-2.57950E-04
 -1       153-5.93466E+09 1.09585E-03-2.14940E-04
 -1       154-4.44882E+09-4.81547E-04-8.61031E-05
 -1       155-1.22734E+10 7.86491E-03-2.61197E-03
 -1       156-1.27434E+10 1.15343E-02-1.21226E-03
 -1       157-1.31988E+10 4.02935E-02-1.00525E-03
 -1       158-1.36245E+10-5.22028E-02-6.95862E-04
 -1       159-1.40528E+10 4.99812E-02-2.37193E-03
 -1       160-1.44651E+10-1.97272E-02-1.44929E-04
 -1       161-1.48565E+10 3.65096E-02 1.60598E-03
 -1       162 2.41044E+10 2.05674E-02 3.10640E-05
 -1       163 2.50428E+10 7.54925E-02 7.63000E-05
 -1       164 2.59700E+10 2.83935E-02 6.38280E-04
 -1       165 2.68138E+10-2.05646E-02 1.04150E-03
 -1       166 2.76672E+10-4.63126E-02 3.62519E-03
 -1       167 2.85271E+10-2.15767E-02 1.01520E-03
 -1       168 2.93320E+10 1.37660E-02 2.76129E-03
 -1       169 3.00699E+10 3.21970E-02 1.26525E-03
 -1       170-1.49868E+10-5.85024E-02 1.19241E-03
 -1       171-1.49557E+10 2.57172E-02 4.22344E-03
 -1       172-1.49121E+10-1.15015E-02-2.33934E-03
 -1       173 3.01987E+10 3.27806E-02-9.93334E-04
 -1       174 3.02385E+10-3.63820E-02-1.40991E-03
 -1       175 3.01637E+10 1.02582E-02 5.85646E-04
 -1       176 3.01235E+10 2.85230E-02-1.08244E-03
 -1       177-1.47470E+10-5.53623E-02 7.31382E-04
 -1       178-1.42889E+10 5.85319E-02-1.26097E-03
 -1       179-1.38518E+10 7.07088E-02 2.89548E-03
 -1       180-1.34324E+10 2.52148E-02 2.19622E-04
 -1       181-1.30102E+10 2.89855E-02-1.17523E-03
 -1       182-1.25868E+10-2.49442E-02-2.39988E-03
 -1       183-1.21802E+10-2.73921E-02-1.79410E-03
 -1       184 2.99573E+10 1.01520E-02-6.16415E-04
 -1       185 2.90039E+10-3.18197E-03 8.56788E-05
 -1       186 2.81108E+10-3.42706E-02 6.46122E-04
 -1       187 2.72797E+10-5.85986E-02-2.96670E-03
 -1       188 2.64384E+10-1.70752E-02-6.19899E-04
 -1       189 2.55911E+10-1.27633E-02-1.21815E-04
 -1       190 2.47616E+10 9.17770E-02 1.08463E-03
 -1       191 2.40134E+10-5.02483E-02 3.51776E-03
 -1       192 7.07303E+08-6.04365E-04 2.68654E-05
 -1       193 3.63217E+08-3.89819E-03-7.10563E-05
 -1       194 6.87577E+08 7.64191E-04 5.90507E-05
 -1       195-1.63673E+09-2.98770E-04 2.46663E-04
 -1       196-9.84365E+08 1.13555E-03 3.74907E-05
 -1       197-9.72835E+08-1.02600E-04 1.01864E-04
 -1       198-1.51748E+09 1.19533E-03-1.55661E-04
 -1       199 7.23331E+08 7.80984E-05 1.23426E-04
 -1       200 3.74081E+08-6.62511E-03-2.67992E-05
 -1       201 7.21362E+08-2.15039E-05 3.49129E-05
 -1       202-1.61956E+09-9.99178E-04 7.50027E-05
 -1       203-1.00368E+09-4.35140E-04-5.37056E-05
 -1       204-1.00812E+09-1.94204E-03 2.13959E-05
 -1       205-1.63646E+09-3.55453E-04-5.46462E-06
 -1       206 7.24064E+08-7.52463E-04 5.90529E-05
 -1       207 8.25571E+08 5.39937E-03 2.25356E-04
 -1       208 8.62245E+08 3.99409E-03 6.97902E-05
 -1       209-7.54871E+08 5.77945E-03-8.85591E-05
 -1       210-1.12335E+09-8.56531E-04-3.76197E-05
 -1       211-1.27174E+09 1.08955E-03-2.03926E-04
 -1       212-1.34168E+09-2.79632E-03-3.05854E-04
 -1       213 4.20265E+08-1.35776E-03 4.29411E-05
 -1       214 1.73779E+08-6.70759E-04-7.30796E-05
 -1       215 4.32654E+08-1.06947E-03-1.01897E-04
 -1       216-8.96845E+08 1.91132E-04-4.29703E-05
 -1       217-4.35738E+08 1.57804E-04 1.28719E-04
 -1       218-4.39962E+08 8.69757E-04 4.55706E-05
 -1       219-9.56853E+08-1.59235E-04 6.43144E-05
 -1       220 2.91453E+08-3.13959E-04-3.08276E-05
 -1       221 2.73188E+08-4.74719E-03 1.52903E-04
 -1       222 3.67958E+08-3.97172E-04 5.63489E-05
 -1       223-5.63831E+08-5.27383E-03 1.55534E-04
 -1       224-7.16516E+08 1.36148E-03 3.21426E-05
 -1       225-8.50304E+08 2.38527E-04-2.25358E-04
 -1       226-8.68195E+08-9.84327E-04-1.39528E-04
 -1       227 2.94163E+08 1.75737E-03 4.56156E-05
 -1       228 2.16740E+08-2.06087E-03 9.25495E-05
 -1       229 2.27916E+08-2.79887E-03 7.77980E-05
 -1       230-6.82570E+08-1.16974E-03-2.68639E-05
 -1       231-6.72052E+08 4.76762E-05 5.36030E-05
 -1       232-5.58324E+08 6.78094E-03-4.83139E-05
 -1       233-4.28167E+08-7.37304E-03-1.87781E-04
 -1       234 7.57714E+08-1.50051E-03 2.46810E-04
 -1       235 8.14524E+08 1.31151E-02-6.86596E-04
 -1       236 1.06649E+08 2.57671E-02-6.08184E-04
 -1       237-1.67667E+09 2.29448E-02-2.14679E-04
 -1       238-1.75349E+09-7.10227E-03 2.25198E-04
 -1       239-1.95367E+08-1.34742E-01 4.51940E-04
 -1       240-2.45340E+08-3.83186E-03-4.15893E-05
 -1       241 1.05100E+08-4.38833E-02-2.21218E-05
 -1       242 8.13309E+08 1.13797E-02-1.66247E-04
 -1       243 7.57417E+08-1.26149E-03-1.82344E-04
 -1       244-2.39385E+08 2.55912E-02-1.38148E-04
 -1       245-1.94024E+08-3.40618E-02 1.59580E-04
 -1       246-1.75574E+09-8.79733E-03 6.42655E-05
 -1       247-1.67762E+09 7.45482E-03-1.08316E-05
 -1       248 6.68146E+09-2.33394E-03-2.14168E-04
 -1       249 4.31246E+09 3.94333E-03-2.78686E-04
 -1       250 3.43373E+09-8.65541E-03-1.71451E-04
 -1       251 6.06451E+09 3.78168E-04 8.62020E-05
 -1       252 1.87746E+09-1.88486E-04 8.59456E-05
 -1       253 2.03297E+09-9.70861E-04 1.50328E-04
 -1       254 6.11098E+09 1.64173E-04-2.14203E-04
 -1       255 3.08296E+09-7.41568E-04-2.12689E-05
 -1       256 6.19662E+09-9.96797E-04-1.92740E-04
 -1       257 5.79032E+09-5.55040E-04 2.57847E-04
 -1       258 4.22579E+09 1.47169E-03 4.72328E-04
 -1       259 7.25735E+09-1.92615E-03 3.43767E-04
 -1       260 3.41753E+09 5.33029E-04 2.09257E-07
 -1       261 3.35039E+09-1.61519E-03-4.27102E-05
 -1       262 4.77389E+09 3.42414E-03 1.50496E-04
 -1       263 4.10494E+09-2.18795E-03 1.50455E-04
 -1       264 6.38132E+09-5.75855E-04 4.72460E-04
 -1       265 6.07739E+09-1.22113E-03-4.07324E-04
 -1       266 4.59468E+09-8.02759E-03-1.71380E-04
 -1       267 5.21548E+08-4.48514E-03-9.87021E-04
 -1       268 6.62536E+08-8.71632E-03-5.63223E-04
 -1       269 8.12399E+08-5.33467E-03-1.08893E-03
 -1       270 3.44127E+08 9.24437E-03-5.63243E-04
 -1       271 7.37360E+08 1.43757E-03-1.03529E-03
 -1       272 7.62129E+08-2.39032E-02-1.82386E-03
 -1       273 2.86004E+09 3.72044E-03 4.29329E-04
 -1       274 5.42643E+08 3.77613E-03-1.82357E-04
 -1       275 4.12927E+09-4.16119E-03-1.28493E-04
 -1       276 5.09938E+08 8.85737E-03 2.01197E-04
 -1       277 1.16419E+09-1.14778E-01 4.29866E-05
 -1       278 5.63889E+08-2.05483E-02-5.14950E-04
 -1       279 1.16030E+09-3.97467E-02-5.09549E-04
 -1       280 1.88052E+09-2.74361E-02 6.11659E-04
 -1       281 6.60383E+09-2.67565E-02 1.29150E-04
 -1       282 1.88207E+09 4.26743E-02-4.93411E-04
 -1       283 5.98467E+09 2.62709E-02 8.61971E-05
 -1       284 1.42748E+10 2.76495E-03-6.85771E-04
 -1       285 1.14589E+10 3.19939E-03-1.28044E-04
 -1       286 1.11723E+10-1.20499E-02-6.00131E-04
 -1       287 3.01990E+09 3.04061E-03-3.64596E-04
 -1       288 6.87974E+08-6.20332E-03-4.26429E-04
 -1       289 4.51163E+09-2.70651E-03 1.71938E-04
 -1       290 2.60415E+09 1.73531E-04-2.12982E-05
 -1       291 3.54220E+09-7.47610E-04 1.93336E-04
 -1       292 4.45052E+09-2.71492E-03-3.64508E-04
 -1       293 3.88823E+09-1.75919E-03 2.16958E-05
 -1       294 5.47593E+09 1.87264E-03-2.14241E-04
 -1       295 6.31003E+09 1.77849E-03 2.14963E-04
 -1       296 6.89574E+09-2.42840E-03-8.54085E-05
 -1       297 4.82343E+09 1.96964E-03-8.55354E-05
 -1       298 5.72456E+09-9.83945E-04 2.18082E-05
 -1       299 7.10852E+09-2.23661E-03 4.29589E-04
 -1       300 6.43128E+09 6.38956E-06 1.29140E-04
 -1       301 7.07609E+09 2.12165E-03-1.71228E-04
 -1       302 7.55974E+09-9.37981E-04-1.71198E-04
 -1       303 2.65615E+09-7.84479E-05 1.50366E-04
 -1       304 3.22504E+09 1.00136E-03 1.07486E-04
 -1       305 4.86785E+09 2.28627E-03-1.06990E-04
 -1       306 4.09415E+09-7.62928E-04 4.07946E-04
 -1       307 4.05928E+09-2.99043E-03 8.60792E-05
 -1       308 2.30073E+09-8.52320E-04 2.68362E-04
 -1       309 3.19849E+09 1.28864E-03 1.18213E-04
 -1       310 3.51896E+09-2.86467E-03-2.14361E-04
 -1       311 6.53692E+09-3.75566E-03-1.71261E-04
 -1       312 6.48947E+09-2.95019E-03-4.28756E-04
 -1       313 6.00040E+09-3.88749E-03-8.54633E-05
 -1       314 7.09330E+09-6.43772E-04 3.43757E-04
 -1       315 6.88825E+09-6.99018E-03 2.14998E-04
 -1       316 7.39463E+09-7.04194E-05 6.87098E-04
 -1       317 5.45607E+09-1.62754E-03 4.32494E-05
 -1       318 3.88233E+09 7.32457E-04-3.43085E-04
 -1       319 5.69389E+09-5.91198E-05 7.51367E-04
 -1       320 2.19817E+09 3.65916E-03-1.60798E-04
 -1       321 3.56384E+09 2.31023E-03 1.07507E-04
 -1       322 2.06786E+09 7.35342E-04 1.08555E-05
 -1       323 4.06611E+09 2.69844E-03-6.41240E-05
 -1       324 4.80464E+09 4.48099E-04-2.35740E-04
 -1       325 3.92027E+09-1.95759E-03 2.16977E-05
 -1       326 3.79588E+09-3.81329E-04 6.46054E-05
 -1       327 4.25492E+09-1.47336E-03 1.07549E-04
 -1       328 4.28601E+09-1.86866E-03 3.65043E-04
 -1       329 6.53153E+09-9.05071E-04 1.72061E-04
 -1       330 5.99114E+09-1.88136E-04 5.36809E-04
 -1       331 4.72694E+09 5.40072E-05 1.93408E-04
 -1       332 8.10794E+09 5.15067E-04 4.34118E-05
 -1       333 5.54880E+09-1.01148E-03-1.06949E-04
 -1       334 6.64093E+09-8.87515E-04 4.33220E-05
 -1       335 2.74309E+09-1.54815E-03 3.23545E-05
 -1       336 1.03323E+09-9.12489E-03-5.35809E-05
 -1       337 5.32063E+09-7.77384E-05-1.28420E-04
 -1       338 8.19965E+09 3.79025E-04-1.28244E-04
 -1       339 5.32311E+09-4.01386E-03-2.35708E-04
 -1       340 6.71420E+09-3.95534E-04-2.57081E-04
 -1       341 5.97118E+09-2.83579E-03 3.00773E-04
 -1       342 4.65428E+09 6.58349E-04-4.07411E-04
 -1       343 5.31228E+09 2.43856E-03-3.00082E-04
 -1       344 2.66013E+09-2.29746E-03-1.07125E-04
 -1       345 3.96088E+09 2.38844E-03-3.64538E-04
 -1       346 6.68132E+09 4.48447E-03-3.85829E-04
 -1       347 6.67105E+09-2.98569E-03-4.25069E-05
 -1       348 4.55136E+09 2.53574E-03 6.46517E-05
 -1       349 4.71105E+09 1.80535E-03-1.07000E-04
 -1       350 3.30933E+09 6.84131E-04 4.31180E-05
 -1       351 2.22238E+09 7.61771E-03 2.25442E-04
 -1       352 4.29955E+09-1.86567E-03-6.41098E-05
 -1       353 4.32806E+09 2.67750E-03-6.41080E-05
 -1       354 1.54238E+09-5.41229E-04-6.96430E-05
 -1       355 8.64737E+09-1.26780E-03 2.15106E-04
 -1       356 4.23031E+09 1.15165E-03-2.11986E-05
 -1       357 4.51071E+09 4.97011E-04 1.93395E-04
 -1       358 4.27824E+09-2.21248E-03 3.86500E-04
 -1       359 1.48433E+09 5.24021E-04 3.22774E-05
 -1       360 6.89370E+09 2.36166E-04-5.14562E-04
 -1       361 4.11327E+09 1.69421E-03-2.12058E-05
 -1       362 9.27492E+09 6.17016E-03-2.99840E-04
 -1       363 6.37223E+08-8.06561E-03 5.90476E-05
 -1       364 4.94807E+08-1.93175E-02 1.28776E-04
 -1       365 1.68724E+10 2.00821E-02-2.56459E-04
 -1       366 1.70434E+10 1.06650E-02-4.28110E-04
 -1       367 1.48991E+10 9.52755E-03 3.44235E-04
 -1       368 1.66263E+10-3.91073E-03-1.37227E-03
 -1       369 1.17027E+10-1.15924E-02 6.01531E-04
 -1       370 5.73331E+09-3.53720E-03 5.79708E-04
 -1       371 3.05755E+08 6.19382E-03-8.04475E-05
 -1       372 6.78864E+08-4.56440E-03-8.09986E-04
 -1       373 1.52175E+08 9.70637E-03-4.76083E-04
 -1       374 6.41942E+08 2.06865E-02-3.70106E-04
 -1       375 4.04698E+08-1.27249E-02 1.88002E-05
 -1       376 5.29455E+08-1.99183E-04-1.28714E-04
 -1       377 6.74292E+08 1.35847E-02 5.15025E-04
 -1       378 2.29845E+08-8.74145E-02 9.52325E-05
 -1       379 7.54107E+08 5.37228E-03-9.60185E-04
 -1       380 2.31021E+08 8.49592E-03-3.03075E-04
 -1       381 1.80150E+09-6.78308E-03-5.35339E-05
 -1       382 1.41937E+09 8.40601E-03 8.69087E-08
 -1       383 1.80220E+09-1.68620E-02 2.46874E-04
 -1       384 1.42037E+09-3.92956E-02 4.30023E-05
 -1       385 1.00209E+10 6.31482E-03-4.23018E-05
 -1       386 9.99862E+09-7.19184E-03-3.42711E-04
 -1       387 5.19179E+08 3.52419E-03-2.25274E-04
 -1       388 6.65729E+08-2.50364E-03 5.40518E-06
 -1       389-5.27331E+09 7.90777E-04-6.46959E-05
 -1       390-6.50011E+09 3.12455E-03 8.54327E-05
 -1       391-8.78527E+09 1.47091E-03-2.15115E-04
 -1       392-4.31448E+09 6.61089E-04-1.07553E-04
 -1       393-5.07700E+09 1.42498E-03-4.08007E-04
 -1       394-6.86765E+09-2.34518E-03 2.57072E-04
 -1       395-7.62344E+09 2.03712E-03 8.53639E-05
 -1       396-9.23798E+09 2.75000E-03-4.29719E-04
 -1       397-9.12758E+09 5.99393E-04-8.63896E-05
 -1       398-9.88808E+09 1.31902E-04 5.57294E-04
 -1       399-1.06696E+10 7.90009E-04-3.01061E-04
 -1       400-1.10502E+10 1.01198E-03 4.22387E-05
 -1       401-1.13773E+10-5.65020E-04 2.13880E-04
 -1       402-9.63287E+09-3.52493E-03-5.89823E-07
 -1       403-1.10563E+10 2.71143E-03 4.71392E-04
 -1       404-1.21044E+10-3.01923E-03 1.28005E-04
 -1       405-1.15220E+10 1.73746E-03-8.65362E-05
 -1       406-1.29674E+10-7.77788E-04-2.58286E-04
 -1       407-1.26196E+10 7.84989E-04-8.66034E-05
 -1       408-1.18636E+10-6.12875E-04 8.51043E-05
 -1       409-1.40599E+10 8.21946E-04 2.56631E-04
 -1       410-9.91155E+09-1.49238E-03 3.85631E-04
 -1       411-1.48098E+10 3.18403E-03 6.85739E-04
 -1       412-1.47045E+10-1.56848E-04-9.00360E-07
 -1       413-1.65369E+10-1.35121E-03-8.68432E-05
 -1       414-1.50943E+10 3.54498E-03-9.45062E-04
 -1       415-1.32575E+10-1.71897E-03-9.44949E-04
 -1       416-1.25837E+10 2.74277E-03-7.70505E-07
 -1       417-1.38943E+10-4.43933E-03-8.50754E-07
 -1       418-1.30179E+10-7.22999E-03-3.44120E-04
 -1       419-1.53564E+10-1.61865E-03-3.44263E-04
 -1       420-1.53357E+10 1.59460E-03 8.48917E-05
 -1       421-9.80312E+09 6.29482E-04-6.00248E-07
 -1       422-9.53993E+09-5.64780E-05-8.64148E-05
 -1       423-1.17956E+10-4.01742E-05 3.42601E-04
 -1       424-5.63218E+09 2.74277E-04-3.65125E-04
 -1       425-6.74003E+09 5.89671E-05-1.29159E-04
 -1       426-4.13452E+09-2.86643E-04-1.71915E-04
 -1       427-4.55604E+09-4.09047E-04-2.78968E-07
 -1       428-6.54561E+09-2.55543E-03-1.72062E-04
 -1       429-6.78075E+09-1.79529E-03-4.29569E-04
 -1       430-9.62257E+09 2.15416E-03-2.58081E-04
 -1       431-7.26494E+09 1.14752E-03 8.53859E-05
 -1       432-5.63194E+09 2.20767E-03-8.61755E-05
 -1       433-4.73406E+09-1.09142E-03-1.93409E-04
 -1       434-8.89436E+09 1.75660E-03 2.99863E-04
 -1       435-7.21696E+09 2.95179E-03-4.72511E-04
 -1       436-8.16307E+09-3.71597E-04 4.24155E-05
 -1       437-5.60013E+09 1.41216E-03-4.32582E-05
 -1       438-3.95191E+09 1.78020E-04 2.35792E-04
 -1       439-6.76108E+09 3.19276E-04-5.58313E-04
 -1       440-1.16173E+10 1.98306E-03-4.72780E-04
 -1       441-1.18124E+10 1.44801E-03 4.21921E-05
 -1       442-7.48688E+09-8.31575E-05 2.99949E-04
 -1       443-1.29998E+10 4.83476E-03-2.58288E-04
 -1       444-1.20871E+10 2.31457E-03 2.56752E-04
 -1       445-1.30839E+10-2.54522E-03 6.00014E-04
 -1       446-1.29823E+10 1.82444E-03-7.94912E-07
 -1       447-1.23883E+10 4.60313E-03-8.65892E-05
 -1       448-1.28190E+10-3.28729E-03-7.84909E-07
 -1       449-1.48516E+10-3.82095E-03-4.30063E-04
 -1       450-1.61245E+10 2.18770E-03-6.01802E-04
 -1       451-1.44442E+10 4.72552E-03-8.84423E-07
 -1       452-1.35803E+10 8.38519E-04-2.58324E-04
 -1       453-1.35112E+10 4.27241E-03-4.29981E-04
 -1       454-1.44999E+10-4.56643E-05 8.49429E-05
 -1       455-1.47859E+10-8.95026E-04 3.42417E-04
 -1       456-1.49162E+10-4.60037E-04-5.15897E-04
 -1       457-1.16938E+10 1.83170E-04 8.51147E-05
 -1       458-1.09460E+10 1.02537E-03 4.28483E-04
 -1       459-7.14048E+09-3.20519E-04 2.14140E-04
 -1       460-1.18904E+10 2.18309E-03-2.15305E-04
 -1       461-1.10537E+10 2.31774E-03 2.13900E-04
 -1       462-1.10202E+10 5.17115E-03-3.01082E-04
 -1       463-1.02239E+10-1.31596E-03 1.28120E-04
 -1       464-8.17911E+09-1.57627E-03-5.15485E-04
 -1       465-3.76232E+09 3.94295E-04-2.14807E-04
 -1       466-5.83146E+09-1.86656E-03-1.07645E-04
 -1       467-7.84193E+09-7.65240E-04 4.24352E-05
 -1       468-2.41007E+09-1.22266E-03 1.05813E-05
 -1       469-2.88102E+09-4.11586E-04-4.30917E-05
 -1       470-4.38254E+09 9.98961E-04 2.35766E-04
 -1       471-5.91734E+09 1.45295E-03-6.47353E-05
 -1       472-7.65319E+09-9.36777E-04-4.33840E-05
 -1       473-8.13169E+09 1.00386E-03-3.86736E-04
 -1       474-7.79134E+09-1.70737E-03 2.14100E-04
 -1       475-7.15896E+09 2.65046E-04-1.72100E-04
 -1       476-7.24220E+09 4.68435E-03 8.53872E-05
 -1       477-8.54417E+09-2.37702E-03-5.23162E-07
 -1       478-8.04466E+09 1.71079E-03 8.53381E-05
 -1       479-9.65540E+09 2.70485E-03 2.99816E-04
 -1       480-7.40507E+09-2.24773E-03 8.53773E-05
 -1       481-8.16177E+09 1.96579E-03-1.29246E-04
 -1       482-7.24831E+09-4.03089E-04-1.72105E-04
 -1       483-8.41539E+09 2.86502E-03-3.86753E-04
 -1       484-8.56719E+09 2.93944E-03 4.23908E-05
 -1       485-1.01795E+10-3.36379E-03-3.86861E-04
 -1       486-1.19737E+10 2.74356E-03-1.72395E-04
 -1       487-7.61526E+09 1.63853E-03 1.28280E-04
 -1       488-7.66692E+09 9.76354E-04-2.57962E-04
 -1       489-8.70776E+09 4.27854E-03-3.00941E-04
 -1       490-8.53236E+09 4.25598E-03-5.58422E-04
 -1       491-1.32728E+10 2.11333E-03 8.50180E-05
 -1       492-1.03331E+10-1.56470E-03-3.43955E-04
 -1       493-1.23331E+10-1.16662E-03-4.36705E-05
 -1       494-1.28269E+10 1.54920E-03-6.44516E-04
 -1       495-1.11202E+10-4.16892E-04-4.35962E-05
 -1       496-1.20895E+10-1.11820E-03 6.00075E-04
 -1       497-8.98590E+09 1.19828E-03 2.14027E-04
 -1       498-1.49088E+10-1.63790E-03-2.58405E-04
 -1       499-1.42810E+10 5.80154E-04-6.87520E-04
 -1       500-1.93598E+10 2.33145E-03 8.46453E-05
 -1       501-1.53492E+10-3.74365E-04-9.39838E-07
 -1       502-1.26163E+10 6.83694E-04 8.50582E-05
 -1       503-1.52051E+09 1.53529E-04-9.66526E-05
 -1       504-2.56356E+09-2.04825E-03 2.13007E-05
 -1       505-1.56825E+09 1.85436E-03-6.44690E-05
 -1       506-5.63502E+09 2.32169E-04 2.57147E-04
 -1       507-2.62438E+09 1.21473E-03 2.68060E-04
 -1       508-5.71382E+09 3.74947E-04 1.28396E-04
 -1       509-9.32409E+09 3.74099E-04-4.72640E-04
 -1       510-1.21335E+10 2.62110E-04-5.58642E-04
 -1       511-1.22067E+10-2.08619E-04 3.85491E-04
 -1       512-1.00799E+10 4.82187E-03 2.56875E-04
 -1       513-1.18246E+10-1.57855E-05 4.71345E-04
 -1       514-1.46303E+10-1.12775E-03 1.70766E-04
 -1       515-1.91797E+10 2.37753E-04-1.72836E-04
 -1       516-1.46639E+10-1.34804E-03 4.28256E-04
 -1       517-1.58566E+10-1.47541E-03-1.72632E-04
 -1       518-1.04935E+10 3.83923E-03 2.56850E-04
 -1       519-1.04883E+10-3.02995E-03 3.42681E-04
 -1       520-1.03328E+10 7.96996E-04 1.71029E-04
 -1       521-8.92146E+09 2.23706E-03-8.63770E-05
 -1       522-1.18831E+10-1.29247E-03-4.36430E-05
 -1       523-1.09599E+10 2.75551E-03-1.29417E-04
 -1       524-1.19878E+10-2.19458E-03-4.72803E-04
 -1       525-1.07750E+10-1.18813E-03 2.56832E-04
 -1       526-9.54642E+09-1.77834E-03 4.23308E-05
 -1       527-9.02532E+09-1.22730E-04 3.85685E-04
 -1       528-9.22828E+09-1.19986E-03 2.99842E-04
 -1       529-6.59414E+09-1.16959E-03-1.72065E-04
 -1       530-4.41270E+09 2.73787E-03-2.17279E-05
 -1       531-6.74674E+09-2.34203E-03-4.13105E-07
 -1       532-5.53579E+09-2.49674E-03 2.14238E-04
 -1       533-1.34992E+10 2.28890E-04 2.56666E-04
 -1       534-1.32526E+10 3.08234E-04 8.50192E-05
 -1       535-1.38416E+10 3.66380E-04-6.87493E-04
 -1       536-1.29627E+10-3.66003E-03 8.50370E-05
 -1       537-1.29720E+10-4.15864E-03 3.42528E-04
 -1       538-1.35666E+10-1.97210E-05-7.73307E-04
 -1       539-1.08552E+10-2.32503E-03 8.51660E-05
 -1       540-9.69751E+09 1.31208E-03-2.58086E-04
 -1       541-9.85405E+09-1.13375E-04-6.03367E-07
 -1       542-9.04783E+09 1.46054E-03 4.23613E-05
 -1       543-8.06793E+09 1.41392E-04-1.72155E-04
 -1       544-7.93255E+09 1.61397E-04-2.57978E-04
 -1       545-7.01116E+09-3.94044E-03 4.24860E-05
 -1       546-5.82166E+09 1.40853E-03-2.57849E-04
 -1       547-4.47795E+09-8.89660E-03 1.49930E-04
 -1       548-6.90926E+09 1.56305E-03-4.33384E-05
 -1       549-4.32280E+09 4.22084E-04-6.46377E-05
 -1       550-3.05408E+09-2.27434E-04 1.92932E-04
 -1       551-9.35752E+09-1.62668E-04 6.43157E-04
 -1       552-8.57831E+09-5.05475E-04 1.71136E-04
 -1       553-9.24264E+09 4.63995E-03 3.42757E-04
 -1       554-8.72657E+09-8.27946E-04 3.42788E-04
 -1       555-7.95802E+09 4.51984E-03 3.42835E-04
 -1       556-7.87790E+09-5.53583E-04-8.63131E-05
 -1       557-2.87552E+09-1.69005E-03 1.39299E-04
 -1       558-3.58194E+09-1.62823E-03 4.26960E-05
 -1       559-2.89126E+09 2.96632E-03-5.38212E-05
 -1       560-3.58851E+09-2.51398E-04-4.31351E-05
 -1       561-1.89127E+10 1.50907E-04-1.72819E-04
 -1       562-1.91858E+10-5.27529E-04-1.17476E-06
 -1       563-1.52627E+10 6.28887E-04-3.44257E-04
 -1       564-1.54983E+10 5.39430E-04 1.70712E-04
 -1       565-9.45107E+09-1.32517E-04-5.78692E-07
 -1       566-8.97750E+09 2.46743E-03-2.15126E-04
 -1       567-9.03928E+09-1.02820E-03-2.15130E-04
 -1       568-8.13286E+09 4.06927E-04 4.28655E-04
 -1       569-8.59555E+09-3.78388E-03-4.34417E-05
 -1       570-8.55755E+09-1.13408E-04 3.42799E-04
 -1       571-9.16577E+09-1.11417E-03-3.86799E-04
 -1       572-8.55683E+09 9.06244E-04-2.15101E-04
 -1       573-8.57274E+09 2.27774E-03-3.00932E-04
 -1       574-7.96458E+09 2.95851E-04-4.87674E-07
 -1       575-3.38380E+09 2.44223E-04-1.71869E-04
 -1       576-2.74144E+09 8.31955E-05-1.07456E-04
 -1       577-3.48874E+09-1.56823E-03-5.36655E-04
 -1       578-2.84084E+09 2.11504E-03 1.07114E-04
 -1       579-1.42359E+10-2.11093E-03-2.58364E-04
 -1       580-1.39639E+10 2.04125E-03 5.99960E-04
 -1       581-1.36230E+10-5.21502E-04-8.66648E-05
 -1       582-1.34192E+10-2.16546E-03 6.85824E-04
 -1       583-8.67207E+09-1.07071E-03 6.43199E-04
 -1       584-8.22473E+09-5.43280E-03 2.14073E-04
 -1       585-8.21937E+09 6.04226E-04-5.15487E-04
 -1       586-7.76197E+09 9.28959E-04 2.57017E-04
 -1       587-5.48982E+09 4.43263E-03-2.14913E-04
 -1       588-1.53889E+10-3.10343E-03 3.42380E-04
 -1       589-1.37173E+10-1.97194E-03 3.42483E-04
 -1       590-5.06767E+09 5.84971E-03-1.07599E-04
 -1       591-1.04161E+10-1.31546E-03 1.28108E-04
 -1       592-2.32905E+10-7.35077E-03-3.44749E-04
 -1       593-2.31939E+10-1.30054E-02-8.72509E-05
 -1       594-2.63483E+10-5.14934E-03-8.59920E-04
 -1       595-2.14817E+10-3.05105E-03-1.72977E-04
 -1       596-8.36625E+09 2.90069E-03-4.34276E-05
 -1       597-1.32494E+09 1.28376E-02-5.37253E-05
 -1       598-1.38731E+09 1.22047E-02 1.39390E-04
 -1       599-1.59974E+09-1.01509E-02-1.00861E-03
 -1       600-1.74331E+09 1.16275E-02 6.86539E-04
 -1       601-8.83575E+08-1.40767E-02-5.25767E-04
 -1       602-9.21442E+08 6.74296E-03-6.44294E-05
 -1       603-1.10665E+09 2.64953E-03-2.15254E-05
 -1       604-1.54046E+09 2.30174E-04 1.23372E-03
 -1       605-9.53831E+08 1.28831E-02-1.71720E-04
 -1       606-9.62456E+08 3.07687E-02-1.18076E-04
 -1       607-1.34202E+09 1.90234E-03-1.61015E-04
 -1       608-1.52864E+09 4.10120E-03 1.00842E-03
 -1       609-4.60103E+08-1.06171E-03-3.11164E-04
 -1       610-6.02558E+08 2.51390E-03-1.93156E-04
 -1       611-9.47948E+08 4.06192E-03-3.64838E-04
 -1       612-1.41174E+09 5.10933E-03 2.25219E-04
 -1       613-3.35392E+10 1.83006E-02 2.22954E-03
 -1       614-3.39733E+10 8.48012E-03 5.12904E-04
 -1       615-3.39545E+10-7.76260E-03-1.20371E-03
 -1       616-3.39918E+10-5.40544E-03 8.56226E-04
 -1       617-3.42766E+10-9.34379E-04-3.45422E-04
 -1       618-2.96142E+10-2.70761E-03-1.81328E-06
 -1       619-3.42594E+10 8.34863E-03 6.84548E-04
 -1       620-2.94656E+10-4.48549E-03-1.73466E-04
 -1       621-3.05812E+10-6.35008E-03-1.87249E-06
 -1       622-3.29591E+10-8.56258E-03 1.02795E-03
 -1       623-3.29919E+10 8.92217E-03-1.73681E-04
 -1       624-3.13984E+10-4.23448E-03 8.56384E-04
 -1       625-3.35886E+10 7.04380E-03-5.17041E-04
 -1       626-3.35535E+10-3.90460E-03-2.05449E-06
 -1       627-1.03516E+10-1.91186E-02 4.22815E-05
 -1       628-1.91869E+10-9.99517E-03-3.44498E-04
 -1       629-2.27135E+10 1.36155E-02-8.59698E-04
 -1       630-1.09067E+10-4.06863E-03 8.51629E-05
 -1       631-1.09904E+10 8.85176E-03-2.58165E-04
 -1       632-2.39926E+10 2.24596E-03-6.88115E-04
 -1       633-2.75066E+10 1.90114E-02-1.68424E-06
 -1       634-1.49995E+10-6.95849E-03-4.30072E-04
 -1       635-1.25449E+10 1.46106E-03-4.72837E-04
 -1       636-1.02209E+10-5.12999E-04-3.43949E-04
 -1       637-5.92875E+09 8.31481E-03-2.14940E-04
 -1       638-1.30427E+10-6.39533E-04 4.28355E-04
 -1       639-6.64475E+09-4.00409E-03-4.06860E-07
 -1       640-1.07086E+10 3.16776E-03-4.35710E-05
 -1       641-4.98290E+09-3.78348E-03-4.32204E-05
 -1       642-4.78003E+09-1.07930E-02 4.26227E-05
 -1       643-6.24335E+08-1.78596E-02 4.34480E-04
 -1       644-6.21628E+08 2.68091E-03 1.13185E-03
 -1       645-6.76490E+08 1.01616E-03 2.68179E-04
 -1       646-1.52755E+09-1.57817E-02 9.33315E-04
 -1       647-1.43900E+09 6.92517E-03 8.79676E-04
 -1       648-2.07075E+09 2.15508E-02 8.57039E-05
 -1       649-1.27316E+09-1.15111E-02 1.24447E-03
 -1       650-1.40365E+09 1.86878E-02 1.06429E-05
 -1       651-3.43858E+08-6.95921E-03 9.09248E-04
 -1       652-3.48411E+08 2.94188E-02 6.54438E-04
 -1       653-2.61224E+08 4.30825E-03 3.80858E-04
 -1       654-1.33492E+09-3.17359E-03-3.32676E-04
 -1       655-1.37433E+09 4.88689E-03 8.15307E-04
 -1       656-1.62274E+09 7.66264E-03 1.56631E-03
 -1       657-1.35755E+09-3.53235E-02 5.04172E-04
 -1       658-1.68180E+09-1.68675E-02 9.76221E-04
 -1       659-8.39260E+08 5.94767E-03-1.93170E-04
 -1       660-8.76375E+08 1.17012E-02-1.50257E-04
 -1       661-1.21300E+09 4.54037E-03 2.67478E-05
 -1       662-8.15656E+08-5.24813E-03 5.89587E-05
 -1       663-1.12569E+09 5.20578E-03-1.61001E-04
 -1       664-1.08669E+09 5.33673E-03 1.87688E-04
 -1       665-1.08300E+09-1.37881E-03 2.52061E-04
 -1       666-1.11394E+09-1.40925E-03 4.82116E-05
 -1       667-1.42702E+09 2.67244E-03 1.39387E-04
 -1       668-1.49597E+09-4.93353E-03-3.22781E-05
 -1       669-1.51528E+09-1.95892E-02-4.07789E-04
 -1       670-1.22863E+09-4.25760E-03-3.11211E-04
 -1       671-1.04324E+09 1.81180E-03-1.07352E-04
 -1       672-3.75127E+08-2.26362E-02 9.92188E-05
 -1       673-5.14714E+08-9.37921E-03-9.92733E-05
 -1       674-2.29618E+09 6.10832E-02-6.11684E-04
 -1       675-4.82342E+08 6.42130E-02-1.61228E-05
 -1       676-2.27420E+09-1.05821E-03 6.32862E-04
 -1       677-1.47533E+09-9.61757E-03 1.66288E-03
 -1       678-1.63597E+09 2.38655E-03 4.29053E-04
 -1       679-1.16275E+09 1.37217E-02 1.74873E-03
 -1       680-1.58891E+09 4.74198E-03 8.90396E-04
 -1       681-1.51107E+09 1.80024E-02 1.17925E-04
 -1       682-2.26726E+09 9.23189E-03 1.05900E-05
 -1       683-4.85205E+08 7.07873E-02 6.86616E-04
 -1       684-5.19034E+08 1.46118E-03-1.39507E-04
 -1       685-2.30100E+09 9.10623E-03-2.89819E-04
 -1       686-3.82822E+08-8.26805E-02 4.88139E-04
 -1       687-3.50423E+09 2.42556E-02 9.65381E-04
 -1       688-4.04074E+09 5.48733E-02 9.65348E-04
 -1       689-4.01182E+09-2.19404E-02-7.94180E-04
 -1       690-3.86331E+09-1.87636E-03-5.15221E-04
 -1       691-4.41072E+09 1.81193E-02-3.43593E-04
 -1       692-2.94205E+09 1.92555E-04 3.86058E-04
 -1       693-2.96244E+09-1.22602E-02-2.36216E-04
 -1       694-2.86209E+09-3.16148E-03 3.43148E-04
 -1       695-3.86722E+09-8.39643E-03 3.64544E-04
 -1       696-4.04281E+09-8.01173E-03 1.37304E-03
 -1       697-4.41591E+09 1.65345E-02 1.26573E-03
 -1       698-3.50103E+09 1.54791E-02 6.41586E-05
 -1       699-4.01252E+09 2.76988E-02-1.03021E-03
 -1       700-2.86239E+09 1.60535E-02 2.35859E-04
 -1       701-2.96275E+09-4.57456E-02-1.71843E-04
 -1       702-2.93895E+09 1.99193E-02 2.57312E-04
 -1       703-2.09889E+10 3.43790E-03-1.72947E-04
 -1       704-2.10156E+10 1.64853E-05-1.72948E-04
 -1       705-2.48172E+10 1.37322E-03-1.73181E-04
 -1       706-2.09987E+10-2.22376E-02 5.99529E-04
 -1       707-2.48383E+10 8.79083E-04 3.41802E-04
 -1       708-2.09005E+10 1.03552E-02 6.85366E-04
 -1       709-2.09958E+10 7.37074E-04 7.71191E-04
 -1       710-2.08999E+10 2.19939E-03-7.73756E-04
 -1       711-1.04281E+09 9.21886E-03 1.50140E-04
 -1       712-1.11387E+09 4.07460E-03 5.25645E-04
 -1       713-1.41504E+09 4.84523E-03 1.07202E-04
 -1       714-1.08286E+09-8.11139E-03-1.12719E-04
 -1       715-1.53006E+09 1.19740E-04-1.02018E-04
 -1       716-1.40400E+09-5.51761E-04-9.66455E-05
 -1       717-1.35085E+09 3.36374E-03 2.13750E-05
 -1       718-1.35790E+09 3.50829E-03 9.11120E-05
 -1       719-2.53089E+10-1.12338E-01-8.95061E-04
 -1       720-2.87752E+10-7.62116E-02 6.16874E-03
 -1       721-2.70709E+10 7.29856E-02 1.22344E-03
 -1       722-2.72562E+10 7.47188E-02-1.69532E-03
 -1       723-2.89408E+10 5.73646E-02-2.79362E-03
 -1       724-2.79215E+10 1.00606E-01 2.29694E-03
 -1       725-2.81144E+10-6.04373E-02-2.67077E-03
 -1       726-2.85884E+10-8.30096E-02-4.05842E-04
 -1       727-2.68714E+10-1.31985E-01 1.08163E-03
 -1       728-2.77119E+10 1.10493E-01 3.72339E-03
 -1       729-2.54762E+10-2.17376E-02 4.29970E-03
 -1       730-2.43999E+10 9.89520E-02 2.79354E-03
 -1       731-2.45200E+10-4.26398E-02 1.88543E-03
 -1       732-2.96291E+10-8.47125E-03-6.64990E-04
 -1       733-2.97258E+10 3.37768E-02 1.99173E-03
 -1       734-2.51630E+10 3.29680E-02-2.45652E-03
 -1       735-2.43335E+10 1.03447E-02-3.98977E-03
 -1       736-2.95067E+10-2.26151E-02 1.91229E-04
 -1       737-2.62204E+10-8.97705E-02 7.53404E-05
 -1       738-2.64035E+10 4.70788E-02-1.28296E-03
 -1       739-2.60260E+10 7.11016E-02-3.01666E-04
 -1       740 5.45283E+10-1.88035E-02 1.64452E-03
 -1       741 5.53672E+10-2.91780E-02-2.84897E-03
 -1       742 5.62541E+10-7.60771E-02-1.91534E-03
 -1       743 5.50118E+10 1.40908E-02-6.79603E-03
 -1       744 5.44854E+10-1.37310E-04-6.22960E-04
 -1       745 5.62026E+10-2.88449E-02 2.20704E-03
 -1       746 5.78893E+10 4.84273E-03-3.84442E-03
 -1       747 5.70895E+10 3.93261E-02 1.72480E-03
 -1       748 5.79526E+10 8.22114E-03 2.12937E-03
 -1       749 5.67078E+10 3.53771E-02 3.28918E-03
 -1       750 5.54487E+10-8.20495E-03-3.37166E-03
 -1       751 5.45916E+10-6.45178E-02 3.29399E-04
 -1       752 5.37692E+10 4.33108E-02-9.24417E-04
 -1       753 5.71687E+10 3.45390E-02 2.35831E-03
 -1       754 5.62564E+10-3.50402E-02 1.10097E-03
 -1       755 5.71055E+10-3.92403E-02-3.41397E-03
 -1       756 5.53989E+10-2.04498E-03 2.98936E-03
 -1       757 5.37279E+10 4.36770E-02 8.69979E-04
 -1       758 5.10177E+10 8.24324E-02 4.65122E-03
 -1       759 4.99739E+10 5.14853E-02-1.43427E-03
 -1       760 4.91192E+10-1.91493E-02 2.48606E-03
 -1       761 5.09495E+10-1.87422E-02 1.89190E-03
 -1       762 4.95822E+10 4.85163E-02 1.49216E-04
 -1       763 4.89574E+10-3.94940E-02-8.10700E-03
 -1       764 4.79098E+10 5.71231E-04 3.80832E-03
 -1       765 4.81044E+10-1.24230E-02-8.09783E-03
 -1       766 5.94154E+10 3.77587E-02-7.79153E-03
 -1       767 5.87129E+10 1.51958E-02-1.68586E-03
 -1       768 6.01921E+10 1.87702E-02 3.82045E-04
 -1       769 6.01324E+10-5.14509E-02-8.69545E-04
 -1       770 5.94914E+10-8.06871E-03-8.22142E-04
 -1       771 5.84349E+10-3.81611E-02-5.10065E-04
 -1       772 4.87492E+10 6.03573E-02 4.56106E-03
 -1       773 4.94125E+10-9.39718E-02 1.07608E-03
 -1       774 5.03244E+10 1.34180E-02 2.13292E-03
 -1       775 4.79232E+10 3.84293E-02 1.86053E-03
 -1       776 4.85881E+10-1.20407E-01-1.44223E-03
 -1       777 5.02565E+10 1.56730E-02 3.67100E-03
 -1       778 5.80576E+10 2.54866E-02-3.29710E-04
 -1       779 5.89734E+10-7.22213E-02-1.60622E-03
 -1       780 5.90503E+10 5.42740E-02 4.19526E-04
 -1       781 5.99677E+10 5.55186E-02-6.57157E-04
 -1       782 5.36516E+10-7.00661E-02-1.98155E-03
 -1       783 5.27896E+10-7.03429E-02 3.49740E-04
 -1       784 5.32997E+10 4.19361E-02-3.29463E-05
 -1       785 5.28244E+10 7.39385E-02 1.87106E-03
 -1       786 5.16049E+10-6.24993E-02-6.64207E-04
 -1       787 5.19620E+10 1.71358E-02-1.75400E-03
 -1       788 5.20351E+10-2.40311E-03 1.64805E-03
 -1       789 5.29004E+10-8.93438E-02-4.70421E-03
 -1       790 5.12040E+10 3.90756E-02 6.17361E-04
 -1       791 5.20688E+10-2.36452E-02 2.91875E-03
 -3
    1PSTEP                         5           1           1          
  100CL  101 1.000000000         783                     0    1           1
 -4  ERROR       1    1
 -5  STR(%)      1    1    0    0
 -1         1 6.09057E-01
 -1         2 8.32308E-01
 -1         3 4.73325E+00
 -1         4 2.65735E+00
 -1         5 1.76026E+00
 -1         6 1.55545E+00
 -1         7 4.49450E+00
 -1         8 5.59295E+00
 -1         9 1.98250E+00
 -1        10 1.83735E+00
 -1        11 2.59848E+00
 -1        14 3.28573E+01
 -1        15 3.28561E+01
 -1        16 4.98861E-01
 -1        18 5.93455E-01
 -1        20 4.62752E-01
 -1        21 8.42690E-01
 -1        22 8.81793E-01
 -1        24 8.53495E-01
 -1        25 2.87195E+00
 -1        27 6.57234E+00
 -1        28 2.84818E+00
 -1        30 2.72589E+00
 -1        32 2.62996E+00
 -1        33 7.70437E-01
 -1        34 8.25709E-01
 -1        35 8.42690E-01
 -1        36 6.81946E-01
 -1        37 7.98073E-01
 -1        38 8.34200E-01
 -1        39 8.42690E-01
 -1        40 1.11834E+00
 -1        41 1.52880E+00
 -1        42 2.87195E+00
 -1        43 1.00007E+00
 -1        44 1.32357E+00
 -1        45 2.20037E+00
 -1        46 2.87195E+00
 -1        47 8.14911E-01
 -1        48 1.38057E-01
 -1        49 1.70896E-01
 -1        50 2.48348E-01
 -1        51 2.48348E-01
 -1        52 3.36340E-01
 -1        53 4.40086E-01
 -1        54 3.69362E+00
 -1        55 4.76484E-01
 -1        56 1.54477E-01
 -1        57 2.09622E-01
 -1        58 2.48348E-01
 -1        59 2.92344E-01
 -1        60 3.88213E-01
 -1        61 1.51928E+00
 -1        62 2.04347E+00
 -1        63 2.64962E+00
 -1        64 2.64962E+00
 -1        65 2.38468E+00
 -1        66 2.34655E+00
 -1        67 2.64962E+00
 -1        68 2.20494E+00
 -1        69 1.85262E+00
 -1        70 1.85262E+00
 -1        71 1.62305E+00
 -1        72 1.80644E+00
 -1        73 1.85262E+00
 -1        74 1.73784E+00
 -1        75 1.58925E+00
 -1        76 1.79596E+00
 -1        77 1.79596E+00
 -1        78 2.37130E+00
 -1        79 1.67571E+00
 -1        80 1.79596E+00
 -1        81 2.08363E+00
 -1        82 2.37130E+00
 -1        83 6.33053E+00
 -1        84 2.37696E+00
 -1        85 6.17140E+00
 -1        86 6.47411E+00
 -1        87 4.89324E+00
 -1        88 4.81368E+00
 -1        89 6.80469E+00
 -1        90 2.53012E+00
 -1        91 2.24868E+00
 -1        92 2.24868E+00
 -1        93 3.44652E+00
 -1        94 2.38940E+00
 -1        95 2.24868E+00
 -1        96 2.11559E+00
 -1        97 1.98250E+00
 -1        98 1.92245E+00
 -1        99 1.91689E+00
 -1       100 1.98250E+00
 -1       101 1.95247E+00
 -1       102 1.91967E+00
 -1       103 1.87712E+00
 -1       104 1.83735E+00
 -1       105 2.36794E+00
 -1       106 2.60231E+00
 -1       107 1.83735E+00
 -1       108 2.10264E+00
 -1       109 2.48512E+00
 -1       110 2.62983E+00
 -1       111 9.17267E-01
 -1       112 2.54250E-01
 -1       113 2.25571E-01
 -1       114 2.45511E-01
 -1       115 2.74025E-01
 -1       116 2.74025E-01
 -1       117 1.11763E+00
 -1       118 1.77361E+00
 -1       119 5.85759E-01
 -1       120 2.39911E-01
 -1       121 2.35541E-01
 -1       122 2.59768E-01
 -1       123 2.74025E-01
 -1       124 6.95830E-01
 -1       125 2.92544E+00
 -1       126 2.84818E+00
 -1       127 1.45208E+00
 -1       128 1.06712E+00
 -1       129 2.84818E+00
 -1       130 2.15013E+00
 -1       131 1.25960E+00
 -1       132 9.49715E-01
 -1       133 8.53495E-01
 -1       134 8.01668E-01
 -1       135 8.01668E-01
 -1       136 8.53495E-01
 -1       137 8.27581E-01
 -1       138 8.01668E-01
 -1       139 7.05363E-01
 -1       140 5.05972E-01
 -1       141 5.36989E-01
 -1       142 5.76901E-01
 -1       143 9.47796E-01
 -1       144 5.99613E-01
 -1       145 8.95271E-01
 -1       146 5.59101E-01
 -1       147 4.84362E-01
 -1       148 5.21480E-01
 -1       149 5.56945E-01
 -1       150 7.62349E-01
 -1       151 7.73705E-01
 -1       152 7.47442E-01
 -1       153 7.27186E-01
 -1       154 5.28981E-01
 -1       155 1.08641E+01
 -1       156 2.31094E+00
 -1       157 1.84780E+00
 -1       158 1.91781E+00
 -1       159 2.61709E+00
 -1       160 8.36236E+00
 -1       161 3.28573E+01
 -1       162 1.08641E+01
 -1       163 6.58751E+00
 -1       164 2.07937E+00
 -1       165 1.88280E+00
 -1       166 2.26745E+00
 -1       167 5.48973E+00
 -1       168 2.06098E+01
 -1       169 3.28573E+01
 -1       170 3.28573E+01
 -1       171 3.28092E+01
 -1       172 3.28561E+01
 -1       173 3.28573E+01
 -1       174 3.28332E+01
 -1       175 3.28327E+01
 -1       176 3.28561E+01
 -1       177 3.28561E+01
 -1       178 8.35962E+00
 -1       179 2.61702E+00
 -1       180 1.91791E+00
 -1       181 1.84375E+00
 -1       182 2.28532E+00
 -1       183 1.05130E+01
 -1       184 3.28561E+01
 -1       185 2.06079E+01
 -1       186 5.48832E+00
 -1       187 2.26747E+00
 -1       188 1.88083E+00
 -1       189 2.06454E+00
 -1       190 6.39916E+00
 -1       191 1.05130E+01
 -1       192 4.62861E-01
 -1       193 4.62861E-01
 -1       194 4.62861E-01
 -1       195 4.80861E-01
 -1       196 4.62861E-01
 -1       197 4.62861E-01
 -1       198 5.28158E-01
 -1       199 4.62232E-01
 -1       200 4.62232E-01
 -1       201 4.62232E-01
 -1       202 5.35644E-01
 -1       203 4.62232E-01
 -1       204 4.62232E-01
 -1       205 4.62492E-01
 -1       206 8.42690E-01
 -1       207 7.87279E-01
 -1       208 7.51251E-01
 -1       209 8.42690E-01
 -1       210 8.14985E-01
 -1       211 7.69265E-01
 -1       212 8.16522E-01
 -1       213 7.19794E-01
 -1       214 4.19954E-01
 -1       215 6.50582E-01
 -1       216 7.76051E-01
 -1       217 5.69874E-01
 -1       218 5.35268E-01
 -1       219 7.52038E-01
 -1       220 2.60869E+00
 -1       221 8.95669E+00
 -1       222 8.95669E+00
 -1       223 2.74032E+00
 -1       224 5.78269E+00
 -1       225 8.95669E+00
 -1       226 7.76451E+00
 -1       227 6.15895E+00
 -1       228 6.15895E+00
 -1       229 2.25440E+00
 -1       230 5.44610E+00
 -1       231 6.15895E+00
 -1       232 4.20667E+00
 -1       233 2.55129E+00
 -1       234 2.59848E+00
 -1       235 2.25612E+00
 -1       236 2.72589E+00
 -1       237 2.59848E+00
 -1       238 2.42730E+00
 -1       239 2.49100E+00
 -1       240 2.72589E+00
 -1       241 2.65735E+00
 -1       242 2.29593E+00
 -1       243 2.62996E+00
 -1       244 2.65735E+00
 -1       245 2.47664E+00
 -1       246 2.46294E+00
 -1       247 2.62996E+00
 -1       248 9.88666E-01
 -1       249 7.54519E-01
 -1       250 2.09449E+00
 -1       251 7.32806E-01
 -1       252 5.55649E-01
 -1       253 4.94030E-01
 -1       254 6.43451E-01
 -1       255 6.14371E-01
 -1       256 1.00298E+00
 -1       257 8.09669E-01
 -1       258 7.62670E-01
 -1       259 1.80430E+00
 -1       260 6.75016E-01
 -1       261 6.83205E-01
 -1       262 3.48702E-01
 -1       263 5.75307E-01
 -1       264 4.87491E-01
 -1       265 2.12456E-01
 -1       266 6.11028E-01
 -1       267 2.64962E+00
 -1       268 1.95373E+00
 -1       269 4.36293E+00
 -1       270 2.24868E+00
 -1       271 1.79596E+00
 -1       272 2.04347E+00
 -1       273 2.52814E+00
 -1       274 6.15895E+00
 -1       275 4.73325E+00
 -1       276 4.36293E+00
 -1       277 2.29593E+00
 -1       278 2.72589E+00
 -1       279 2.25612E+00
 -1       280 2.25612E+00
 -1       281 2.59848E+00
 -1       282 2.29593E+00
 -1       283 2.62996E+00
 -1       284 2.74025E-01
 -1       285 2.18651E-01
 -1       286 1.00422E+00
 -1       287 2.39500E+00
 -1       288 8.95669E+00
 -1       289 6.57234E+00
 -1       290 6.09057E-01
 -1       291 6.11028E-01
 -1       292 8.01668E-01
 -1       293 8.01668E-01
 -1       294 3.09841E-01
 -1       295 3.33317E-01
 -1       296 6.43451E-01
 -1       297 3.41852E-01
 -1       298 3.41852E-01
 -1       299 1.00298E+00
 -1       300 1.52880E+00
 -1       301 2.87195E+00
 -1       302 2.87195E+00
 -1       303 5.55649E-01
 -1       304 6.29606E-01
 -1       305 8.95271E-01
 -1       306 6.29606E-01
 -1       307 7.70437E-01
 -1       308 5.93455E-01
 -1       309 7.70437E-01
 -1       310 8.32308E-01
 -1       311 8.31921E-01
 -1       312 1.45208E+00
 -1       313 1.06712E+00
 -1       314 9.88666E-01
 -1       315 2.84818E+00
 -1       316 2.84818E+00
 -1       317 8.64652E-01
 -1       318 8.81793E-01
 -1       319 1.11834E+00
 -1       320 7.87279E-01
 -1       321 8.25709E-01
 -1       322 8.42690E-01
 -1       323 4.45133E-01
 -1       324 5.35214E-01
 -1       325 6.83205E-01
 -1       326 3.75362E-01
 -1       327 6.35356E-01
 -1       328 6.14371E-01
 -1       329 7.32806E-01
 -1       330 6.24899E-01
 -1       331 6.24899E-01
 -1       332 9.47796E-01
 -1       333 8.95271E-01
 -1       334 5.99613E-01
 -1       335 8.53495E-01
 -1       336 8.09669E-01
 -1       337 5.94962E-01
 -1       338 9.47796E-01
 -1       339 6.19719E-01
 -1       340 6.19719E-01
 -1       341 4.85989E-01
 -1       342 5.00035E-01
 -1       343 5.00035E-01
 -1       344 4.94030E-01
 -1       345 5.45549E-01
 -1       346 5.59031E-01
 -1       347 5.72491E-01
 -1       348 7.62670E-01
 -1       349 8.95271E-01
 -1       350 5.84570E-01
 -1       351 7.51251E-01
 -1       352 6.17797E-01
 -1       353 5.39084E-01
 -1       354 4.62232E-01
 -1       355 9.47796E-01
 -1       356 5.97064E-01
 -1       357 6.82282E-01
 -1       358 8.53495E-01
 -1       359 4.62861E-01
 -1       360 5.59031E-01
 -1       361 4.85354E-01
 -1       362 1.16334E+00
 -1       363 1.79596E+00
 -1       364 1.91689E+00
 -1       365 3.36340E-01
 -1       366 2.74025E-01
 -1       367 8.88073E-01
 -1       368 4.40086E-01
 -1       369 9.17267E-01
 -1       370 2.52814E+00
 -1       371 2.64962E+00
 -1       372 2.53012E+00
 -1       373 2.24868E+00
 -1       374 2.04347E+00
 -1       375 2.25440E+00
 -1       376 6.15895E+00
 -1       377 4.36293E+00
 -1       378 2.65735E+00
 -1       379 2.37130E+00
 -1       380 2.72589E+00
 -1       381 2.25612E+00
 -1       382 2.59848E+00
 -1       383 2.29593E+00
 -1       384 2.62996E+00
 -1       385 1.70896E-01
 -1       386 8.14911E-01
 -1       387 2.60869E+00
 -1       388 8.95669E+00
 -1       389 6.09057E-01
 -1       390 7.05363E-01
 -1       391 8.01668E-01
 -1       392 5.51543E-01
 -1       393 5.52529E-01
 -1       394 7.06348E-01
 -1       395 6.11028E-01
 -1       396 7.06348E-01
 -1       397 8.01668E-01
 -1       398 8.01668E-01
 -1       399 3.29272E-01
 -1       400 3.25847E-01
 -1       401 3.41852E-01
 -1       402 3.45277E-01
 -1       403 2.61148E-01
 -1       404 2.72887E-01
 -1       405 3.37585E-01
 -1       406 4.10404E-01
 -1       407 5.65471E-01
 -1       408 4.92651E-01
 -1       409 6.43451E-01
 -1       410 4.92651E-01
 -1       411 1.40364E+00
 -1       412 1.93746E+00
 -1       413 2.87195E+00
 -1       414 2.33812E+00
 -1       415 1.00298E+00
 -1       416 1.26589E+00
 -1       417 2.20037E+00
 -1       418 1.52880E+00
 -1       419 2.87195E+00
 -1       420 2.87195E+00
 -1       421 5.94353E-01
 -1       422 7.62438E-01
 -1       423 8.95271E-01
 -1       424 5.27255E-01
 -1       425 5.92627E-01
 -1       426 5.55649E-01
 -1       427 5.92627E-01
 -1       428 6.29606E-01
 -1       429 6.96138E-01
 -1       430 8.28970E-01
 -1       431 7.70437E-01
 -1       432 6.81946E-01
 -1       433 5.93455E-01
 -1       434 7.98073E-01
 -1       435 7.70437E-01
 -1       436 7.66553E-01
 -1       437 7.00021E-01
 -1       438 5.74552E-01
 -1       439 8.32308E-01
 -1       440 9.49715E-01
 -1       441 1.06712E+00
 -1       442 8.20989E-01
 -1       443 8.20795E-01
 -1       444 9.49522E-01
 -1       445 9.10293E-01
 -1       446 1.22037E+00
 -1       447 1.25960E+00
 -1       448 1.45208E+00
 -1       449 2.84818E+00
 -1       450 2.84818E+00
 -1       451 2.84818E+00
 -1       452 2.15013E+00
 -1       453 9.88666E-01
 -1       454 1.91842E+00
 -1       455 1.39648E+00
 -1       456 2.32624E+00
 -1       457 1.11834E+00
 -1       458 1.00007E+00
 -1       459 8.81793E-01
 -1       460 1.32357E+00
 -1       461 9.33818E-01
 -1       462 9.91495E-01
 -1       463 8.09586E-01
 -1       464 8.18156E-01
 -1       465 8.42690E-01
 -1       466 8.34200E-01
 -1       467 8.25709E-01
 -1       468 8.42690E-01
 -1       469 7.87279E-01
 -1       470 8.14985E-01
 -1       471 7.31148E-01
 -1       472 7.50363E-01
 -1       473 5.10220E-01
 -1       474 4.10248E-01
 -1       475 5.29283E-01
 -1       476 6.29256E-01
 -1       477 3.96918E-01
 -1       478 3.58607E-01
 -1       479 5.89332E-01
 -1       480 4.55288E-01
 -1       481 6.09210E-01
 -1       482 6.83205E-01
 -1       483 7.22512E-01
 -1       484 6.30127E-01
 -1       485 6.24899E-01
 -1       486 7.17284E-01
 -1       487 6.24863E-01
 -1       488 6.14371E-01
 -1       489 6.19635E-01
 -1       490 6.73588E-01
 -1       491 7.32806E-01
 -1       492 6.78852E-01
 -1       493 6.10148E-01
 -1       494 5.56195E-01
 -1       495 5.67414E-01
 -1       496 7.47442E-01
 -1       497 7.89238E-01
 -1       498 7.95623E-01
 -1       499 7.73705E-01
 -1       500 9.47796E-01
 -1       501 5.99613E-01
 -1       502 8.95271E-01
 -1       503 7.64731E-01
 -1       504 8.20989E-01
 -1       505 7.30125E-01
 -1       506 8.53495E-01
 -1       507 8.31582E-01
 -1       508 8.31582E-01
 -1       509 6.02995E-01
 -1       510 6.07340E-01
 -1       511 6.19719E-01
 -1       512 6.15373E-01
 -1       513 5.65975E-01
 -1       514 5.98310E-01
 -1       515 9.47796E-01
 -1       516 7.83757E-01
 -1       517 8.40301E-01
 -1       518 6.76262E-01
 -1       519 6.82344E-01
 -1       520 5.00035E-01
 -1       521 6.27277E-01
 -1       522 7.44486E-01
 -1       523 4.93012E-01
 -1       524 3.49222E-01
 -1       525 4.04938E-01
 -1       526 4.24368E-01
 -1       527 5.70255E-01
 -1       528 5.25760E-01
 -1       529 5.78288E-01
 -1       530 4.94030E-01
 -1       531 5.19789E-01
 -1       532 4.78391E-01
 -1       533 7.73848E-01
 -1       534 5.65761E-01
 -1       535 7.80578E-01
 -1       536 3.85743E-01
 -1       537 5.29240E-01
 -1       538 7.87737E-01
 -1       539 8.95271E-01
 -1       540 8.95271E-01
 -1       541 7.62670E-01
 -1       542 8.28970E-01
 -1       543 6.68989E-01
 -1       544 7.89238E-01
 -1       545 6.69544E-01
 -1       546 6.67911E-01
 -1       547 8.16522E-01
 -1       548 6.29793E-01
 -1       549 7.69265E-01
 -1       550 7.51251E-01
 -1       551 6.70376E-01
 -1       552 5.78441E-01
 -1       553 7.09733E-01
 -1       554 5.79401E-01
 -1       555 5.76727E-01
 -1       556 6.16084E-01
 -1       557 4.62232E-01
 -1       558 5.35644E-01
 -1       559 4.62232E-01
 -1       560 4.78131E-01
 -1       561 9.47796E-01
 -1       562 9.47796E-01
 -1       563 7.95623E-01
 -1       564 8.40301E-01
 -1       565 7.26359E-01
 -1       566 7.22476E-01
 -1       567 7.53996E-01
 -1       568 6.36040E-01
 -1       569 6.39673E-01
 -1       570 5.86185E-01
 -1       571 8.53495E-01
 -1       572 8.53495E-01
 -1       573 7.35646E-01
 -1       574 7.44425E-01
 -1       575 5.28158E-01
 -1       576 4.62861E-01
 -1       577 5.09255E-01
 -1       578 4.62861E-01
 -1       579 5.91965E-01
 -1       580 6.95476E-01
 -1       581 4.46174E-01
 -1       582 5.59031E-01
 -1       583 4.65244E-01
 -1       584 4.92695E-01
 -1       585 5.41209E-01
 -1       586 5.34962E-01
 -1       587 4.33341E+00
 -1       588 3.86784E+00
 -1       589 2.94829E+00
 -1       590 3.41387E+00
 -1       591 6.57234E+00
 -1       592 3.78828E+00
 -1       593 1.08378E+00
 -1       594 6.39122E-01
 -1       595 1.14049E+00
 -1       596 4.73325E+00
 -1       597 2.64962E+00
 -1       598 2.22279E+00
 -1       599 1.79596E+00
 -1       600 2.22279E+00
 -1       601 2.25112E+00
 -1       602 1.70950E+00
 -1       603 1.79596E+00
 -1       604 1.79596E+00
 -1       605 2.24868E+00
 -1       606 2.08279E+00
 -1       607 1.93531E+00
 -1       608 2.10120E+00
 -1       609 2.08556E+00
 -1       610 1.91689E+00
 -1       611 1.87712E+00
 -1       612 2.16083E+00
 -1       613 3.36340E-01
 -1       614 3.05183E-01
 -1       615 2.61187E-01
 -1       616 2.90926E-01
 -1       617 2.74025E-01
 -1       618 2.74025E-01
 -1       619 2.74025E-01
 -1       620 2.61187E-01
 -1       621 1.74328E+00
 -1       622 6.64080E-01
 -1       623 4.40086E-01
 -1       624 5.71162E-01
 -1       625 3.32829E-01
 -1       626 3.88213E-01
 -1       627 1.78413E+00
 -1       628 1.77361E+00
 -1       629 1.75787E+00
 -1       630 1.76839E+00
 -1       631 2.62996E+00
 -1       632 9.17267E-01
 -1       633 9.02670E-01
 -1       634 2.59848E+00
 -1       635 2.68816E+00
 -1       636 2.52814E+00
 -1       637 2.68816E+00
 -1       638 2.70004E+00
 -1       639 2.63347E+00
 -1       640 2.46157E+00
 -1       641 2.24474E+00
 -1       642 2.31131E+00
 -1       643 2.64962E+00
 -1       644 2.25112E+00
 -1       645 2.64962E+00
 -1       646 2.53012E+00
 -1       647 3.44652E+00
 -1       648 4.36293E+00
 -1       649 2.24192E+00
 -1       650 3.36543E+00
 -1       651 2.24868E+00
 -1       652 2.24868E+00
 -1       653 2.11559E+00
 -1       654 1.91971E+00
 -1       655 2.04347E+00
 -1       656 1.91971E+00
 -1       657 2.04347E+00
 -1       658 2.38468E+00
 -1       659 2.25440E+00
 -1       660 4.20667E+00
 -1       661 6.15895E+00
 -1       662 2.39127E+00
 -1       663 4.12672E+00
 -1       664 5.44610E+00
 -1       665 6.15895E+00
 -1       666 6.15895E+00
 -1       667 4.36293E+00
 -1       668 4.36293E+00
 -1       669 4.36293E+00
 -1       670 3.48262E+00
 -1       671 3.51014E+00
 -1       672 2.65735E+00
 -1       673 3.51014E+00
 -1       674 2.29593E+00
 -1       675 2.47664E+00
 -1       676 3.32943E+00
 -1       677 2.20739E+00
 -1       678 2.54860E+00
 -1       679 2.72589E+00
 -1       680 2.37130E+00
 -1       681 2.54860E+00
 -1       682 2.31371E+00
 -1       683 2.49100E+00
 -1       684 2.72589E+00
 -1       685 2.25612E+00
 -1       686 2.72589E+00
 -1       687 2.25612E+00
 -1       688 2.25612E+00
 -1       689 2.25612E+00
 -1       690 2.02655E+00
 -1       691 1.59721E+00
 -1       692 2.59848E+00
 -1       693 2.42730E+00
 -1       694 2.59848E+00
 -1       695 2.06286E+00
 -1       696 2.29593E+00
 -1       697 1.61712E+00
 -1       698 2.29593E+00
 -1       699 2.29593E+00
 -1       700 2.62996E+00
 -1       701 2.46294E+00
 -1       702 2.62996E+00
 -1       703 1.70896E-01
 -1       704 1.94774E-01
 -1       705 1.78354E-01
 -1       706 2.22461E-01
 -1       707 2.46338E-01
 -1       708 9.09565E-01
 -1       709 5.16781E-01
 -1       710 8.14911E-01
 -1       711 2.50184E+00
 -1       712 5.78269E+00
 -1       713 5.52559E+00
 -1       714 2.60869E+00
 -1       715 8.95669E+00
 -1       716 8.95669E+00
 -1       717 8.95669E+00
 -1       718 7.76451E+00
 -1       719 1.38908E+00
 -1       720 7.95351E+00
 -1       721 1.85281E+00
 -1       722 1.91781E+00
 -1       723 8.36236E+00
 -1       724 2.55069E+00
 -1       725 2.61709E+00
 -1       726 8.35962E+00
 -1       727 1.91791E+00
 -1       728 2.61702E+00
 -1       729 2.31094E+00
 -1       730 5.97360E+00
 -1       731 1.08641E+01
 -1       732 3.28092E+01
 -1       733 3.28573E+01
 -1       734 2.28532E+00
 -1       735 1.05130E+01
 -1       736 3.28561E+01
 -1       737 1.42770E+00
 -1       738 1.84780E+00
 -1       739 1.84375E+00
 -1       740 1.88531E+00
 -1       741 2.26745E+00
 -1       742 2.58389E+00
 -1       743 2.20175E+00
 -1       744 1.91781E+00
 -1       745 2.61709E+00
 -1       746 8.36236E+00
 -1       747 5.48973E+00
 -1       748 8.15794E+00
 -1       749 5.25210E+00
 -1       750 2.58385E+00
 -1       751 2.26747E+00
 -1       752 1.88536E+00
 -1       753 8.15657E+00
 -1       754 5.48832E+00
 -1       755 8.35962E+00
 -1       756 2.61702E+00
 -1       757 1.91791E+00
 -1       758 2.31094E+00
 -1       759 6.58751E+00
 -1       760 1.08641E+01
 -1       761 1.85001E+00
 -1       762 3.68134E+00
 -1       763 8.41884E+00
 -1       764 5.97360E+00
 -1       765 1.08641E+01
 -1       766 3.28573E+01
 -1       767 2.06098E+01
 -1       768 3.28573E+01
 -1       769 3.28092E+01
 -1       770 3.28332E+01
 -1       771 2.03814E+01
 -1       772 1.05130E+01
 -1       773 6.39916E+00
 -1       774 2.28532E+00
 -1       775 1.05130E+01
 -1       776 8.24330E+00
 -1       777 1.83720E+00
 -1       778 2.06079E+01
 -1       779 3.28561E+01
 -1       780 3.28327E+01
 -1       781 3.28561E+01
 -1       782 1.88280E+00
 -1       783 1.84780E+00
 -1       784 1.64026E+00
 -1       785 1.63775E+00
 -1       786 1.40839E+00
 -1       787 2.07937E+00
 -1       788 1.84375E+00
 -1       789 1.88083E+00
 -1       790 2.06454E+00
 -1       791 1.63573E+00
 -3
 9999
